p cnf 835 18858
36 0
37 0
38 0
-39 8 12 0
-8 39 0
-12 39 0
-40 0
-41 6 10 0
-6 41 0
-10 41 0
-42 4 9 0
-4 42 0
-9 42 0
-43 7 11 0
-7 43 0
-11 43 0
-44 0
-45 3 0
-3 45 0
-46 5 0
-5 46 0
-47 1 13 0
-1 47 0
-13 47 0
-48 2 14 0
-2 48 0
-14 48 0
36 49 50 51 0
36 -49 -50 0
36 -49 -51 0
36 -50 -51 0
-36 -49 0
-36 -50 0
-36 -51 0
37 52 53 54 0
37 -52 -53 0
37 -52 -54 0
37 -53 -54 0
-37 -52 0
-37 -53 0
-37 -54 0
38 55 56 57 0
38 -55 -56 0
38 -55 -57 0
38 -56 -57 0
-38 -55 0
-38 -56 0
-38 -57 0
39 58 59 60 0
39 -58 -59 0
39 -58 -60 0
39 -59 -60 0
-39 -58 0
-39 -59 0
-39 -60 0
40 61 62 63 0
40 -61 -62 0
40 -61 -63 0
40 -62 -63 0
-40 -61 0
-40 -62 0
-40 -63 0
41 64 65 66 0
41 -64 -65 0
41 -64 -66 0
41 -65 -66 0
-41 -64 0
-41 -65 0
-41 -66 0
42 67 68 69 0
42 -67 -68 0
42 -67 -69 0
42 -68 -69 0
-42 -67 0
-42 -68 0
-42 -69 0
43 70 71 72 0
43 -70 -71 0
43 -70 -72 0
43 -71 -72 0
-43 -70 0
-43 -71 0
-43 -72 0
44 73 74 75 0
44 -73 -74 0
44 -73 -75 0
44 -74 -75 0
-44 -73 0
-44 -74 0
-44 -75 0
45 76 77 78 0
45 -76 -77 0
45 -76 -78 0
45 -77 -78 0
-45 -76 0
-45 -77 0
-45 -78 0
46 79 80 81 0
46 -79 -80 0
46 -79 -81 0
46 -80 -81 0
-46 -79 0
-46 -80 0
-46 -81 0
47 82 83 84 0
47 -82 -83 0
47 -82 -84 0
47 -83 -84 0
-47 -82 0
-47 -83 0
-47 -84 0
48 85 86 87 0
48 -85 -86 0
48 -85 -87 0
48 -86 -87 0
-48 -85 0
-48 -86 0
-48 -87 0
63 0
75 0
77 0
80 0
97 0
98 0
99 0
100 0
-89 0
-92 0
-88 3 5 1 2 0
-89 0
-90 13 14 0
-91 31 35 19 24 0
-92 0
-93 29 33 17 22 0
-94 28 32 16 21 0
-95 30 34 18 23 0
-96 15 20 0
104 0
105 0
106 0
107 0
108 0
-103 0
-101 8 6 4 7 0
-102 12 10 9 11 0
-103 0
-109 27 25 26 0
-110 31 29 28 30 0
-111 35 33 32 34 0
-112 19 17 16 18 0
-113 24 22 21 23 0
122 0
124 0
-126 0
-120 0
-130 0
127 0
129 0
-123 0
-121 0
-120 140 0
-122 144 0
-140 144 0
-122 -140 145 0
-141 145 0
-122 -141 146 0
-142 146 0
-122 -142 147 0
-143 147 0
-122 -143 0
-124 148 0
-144 148 0
-124 -144 149 0
-145 149 0
-124 -145 150 0
-146 150 0
-124 -146 151 0
-147 151 0
-124 -147 0
-126 152 0
-148 152 0
-126 -148 153 0
-149 153 0
-126 -149 154 0
-150 154 0
-126 -150 155 0
-151 155 0
-126 -151 0
-128 156 0
-152 156 0
-128 -152 157 0
-153 157 0
-128 -153 158 0
-154 158 0
-128 -154 159 0
-155 159 0
-128 -155 0
-121 160 0
-123 164 0
-160 164 0
-123 -160 165 0
-161 165 0
-123 -161 166 0
-162 166 0
-123 -162 167 0
-163 167 0
-123 -163 0
-125 168 0
-164 168 0
-125 -164 169 0
-165 169 0
-125 -165 170 0
-166 170 0
-125 -166 171 0
-167 171 0
-125 -167 0
-127 172 0
-168 172 0
-127 -168 173 0
-169 173 0
-127 -169 174 0
-170 174 0
-127 -170 175 0
-171 175 0
-127 -171 0
-129 176 0
-172 176 0
-129 -172 177 0
-173 177 0
-129 -173 178 0
-174 178 0
-129 -174 179 0
-175 179 0
-129 -175 0
-94 -115 88 0
-94 115 -88 0
-94 -117 89 0
-94 117 -89 0
-94 -119 90 0
-94 119 -90 0
-94 -121 91 0
-94 121 -91 0
-94 -123 92 0
-94 123 -92 0
-94 -125 93 0
-94 125 -93 0
-94 -127 94 0
-94 127 -94 0
-94 -129 95 0
-94 129 -95 0
-94 -131 96 0
-94 131 -96 0
-94 -133 97 0
-94 133 -97 0
-94 -135 98 0
-94 135 -98 0
-94 -137 99 0
-94 137 -99 0
-94 -139 100 0
-94 139 -100 0
180 181 182 183 184 0
185 186 187 188 189 190 191 192 193 194 195 196 197 198 0
-185 297 0
-186 298 0
-297 298 0
-186 -297 0
-187 299 0
-298 299 0
-187 -298 0
-188 300 0
-299 300 0
-188 -299 0
-189 301 0
-300 301 0
-189 -300 0
-190 302 0
-301 302 0
-190 -301 0
-191 303 0
-302 303 0
-191 -302 0
-192 304 0
-303 304 0
-192 -303 0
-193 305 0
-304 305 0
-193 -304 0
-194 306 0
-305 306 0
-194 -305 0
-195 307 0
-306 307 0
-195 -306 0
-196 308 0
-307 308 0
-196 -307 0
-197 309 0
-308 309 0
-197 -308 0
-198 310 0
-309 310 0
-198 -309 0
199 200 201 202 203 204 205 206 207 208 209 210 211 212 0
-199 311 0
-200 312 0
-311 312 0
-200 -311 0
-201 313 0
-312 313 0
-201 -312 0
-202 314 0
-313 314 0
-202 -313 0
-203 315 0
-314 315 0
-203 -314 0
-204 316 0
-315 316 0
-204 -315 0
-205 317 0
-316 317 0
-205 -316 0
-206 318 0
-317 318 0
-206 -317 0
-207 319 0
-318 319 0
-207 -318 0
-208 320 0
-319 320 0
-208 -319 0
-209 321 0
-320 321 0
-209 -320 0
-210 322 0
-321 322 0
-210 -321 0
-211 323 0
-322 323 0
-211 -322 0
-212 324 0
-323 324 0
-212 -323 0
213 214 215 216 217 218 219 220 221 222 223 224 225 226 0
-213 325 0
-214 326 0
-325 326 0
-214 -325 0
-215 327 0
-326 327 0
-215 -326 0
-216 328 0
-327 328 0
-216 -327 0
-217 329 0
-328 329 0
-217 -328 0
-218 330 0
-329 330 0
-218 -329 0
-219 331 0
-330 331 0
-219 -330 0
-220 332 0
-331 332 0
-220 -331 0
-221 333 0
-332 333 0
-221 -332 0
-222 334 0
-333 334 0
-222 -333 0
-223 335 0
-334 335 0
-223 -334 0
-224 336 0
-335 336 0
-224 -335 0
-225 337 0
-336 337 0
-225 -336 0
-226 338 0
-337 338 0
-226 -337 0
227 228 229 230 231 232 233 234 235 236 237 238 239 240 0
-227 339 0
-228 340 0
-339 340 0
-228 -339 0
-229 341 0
-340 341 0
-229 -340 0
-230 342 0
-341 342 0
-230 -341 0
-231 343 0
-342 343 0
-231 -342 0
-232 344 0
-343 344 0
-232 -343 0
-233 345 0
-344 345 0
-233 -344 0
-234 346 0
-345 346 0
-234 -345 0
-235 347 0
-346 347 0
-235 -346 0
-236 348 0
-347 348 0
-236 -347 0
-237 349 0
-348 349 0
-237 -348 0
-238 350 0
-349 350 0
-238 -349 0
-239 351 0
-350 351 0
-239 -350 0
-240 352 0
-351 352 0
-240 -351 0
241 242 243 244 245 246 247 248 249 250 251 252 253 254 0
-241 353 0
-242 354 0
-353 354 0
-242 -353 0
-243 355 0
-354 355 0
-243 -354 0
-244 356 0
-355 356 0
-244 -355 0
-245 357 0
-356 357 0
-245 -356 0
-246 358 0
-357 358 0
-246 -357 0
-247 359 0
-358 359 0
-247 -358 0
-248 360 0
-359 360 0
-248 -359 0
-249 361 0
-360 361 0
-249 -360 0
-250 362 0
-361 362 0
-250 -361 0
-251 363 0
-362 363 0
-251 -362 0
-252 364 0
-363 364 0
-252 -363 0
-253 365 0
-364 365 0
-253 -364 0
-254 366 0
-365 366 0
-254 -365 0
255 256 257 258 259 260 261 262 263 264 265 266 267 268 0
-255 367 0
-256 368 0
-367 368 0
-256 -367 0
-257 369 0
-368 369 0
-257 -368 0
-258 370 0
-369 370 0
-258 -369 0
-259 371 0
-370 371 0
-259 -370 0
-260 372 0
-371 372 0
-260 -371 0
-261 373 0
-372 373 0
-261 -372 0
-262 374 0
-373 374 0
-262 -373 0
-263 375 0
-374 375 0
-263 -374 0
-264 376 0
-375 376 0
-264 -375 0
-265 377 0
-376 377 0
-265 -376 0
-266 378 0
-377 378 0
-266 -377 0
-267 379 0
-378 379 0
-267 -378 0
-268 380 0
-379 380 0
-268 -379 0
269 270 271 272 273 274 275 276 277 278 279 280 281 282 0
-269 381 0
-270 382 0
-381 382 0
-270 -381 0
-271 383 0
-382 383 0
-271 -382 0
-272 384 0
-383 384 0
-272 -383 0
-273 385 0
-384 385 0
-273 -384 0
-274 386 0
-385 386 0
-274 -385 0
-275 387 0
-386 387 0
-275 -386 0
-276 388 0
-387 388 0
-276 -387 0
-277 389 0
-388 389 0
-277 -388 0
-278 390 0
-389 390 0
-278 -389 0
-279 391 0
-390 391 0
-279 -390 0
-280 392 0
-391 392 0
-280 -391 0
-281 393 0
-392 393 0
-281 -392 0
-282 394 0
-393 394 0
-282 -393 0
283 284 285 286 287 288 289 290 291 292 293 294 295 296 0
-283 395 0
-284 396 0
-395 396 0
-284 -395 0
-285 397 0
-396 397 0
-285 -396 0
-286 398 0
-397 398 0
-286 -397 0
-287 399 0
-398 399 0
-287 -398 0
-288 400 0
-399 400 0
-288 -399 0
-289 401 0
-400 401 0
-289 -400 0
-290 402 0
-401 402 0
-290 -401 0
-291 403 0
-402 403 0
-291 -402 0
-292 404 0
-403 404 0
-292 -403 0
-293 405 0
-404 405 0
-293 -404 0
-294 406 0
-405 406 0
-294 -405 0
-295 407 0
-406 407 0
-295 -406 0
-296 408 0
-407 408 0
-296 -407 0
-189 0
-205 0
-216 0
-232 0
-248 0
-263 0
-278 0
-293 0
-34 -290 0
-34 -251 0
-33 -237 0
-33 -288 0
-7 -241 0
-19 -224 0
-4 -199 0
-23 -253 0
-26 -249 0
-26 -262 0
-17 -238 0
-24 -225 0
-27 -221 0
-27 -258 0
-16 -210 0
-8 -213 0
-12 -214 0
-30 -250 0
-30 -276 0
-11 -242 0
-5 -283 0
-31 -222 0
-31 -272 0
-35 -286 0
-35 -223 0
-20 -267 0
-28 -208 0
-28 -275 0
-9 -200 0
-15 -266 0
-18 -252 0
-22 -239 0
-10 -228 0
-29 -236 0
-29 -274 0
-6 -227 0
-21 -211 0
-25 -207 0
-25 -261 0
-3 -269 0
-32 -289 0
-32 -209 0
-187 0
-201 0
-215 0
-229 0
-243 0
-257 0
-271 0
-285 0
-186 92 0
-92 186 0
-200 94 0
-94 200 0
-214 91 0
-91 214 0
-228 93 0
-93 228 0
-242 95 0
-95 242 0
-256 96 0
-96 256 0
-270 97 0
-97 270 0
-284 98 0
-98 284 0
-185 -114 0
-199 -115 0
-186 -116 0
-200 -117 0
-187 -118 0
-201 -119 0
-188 -120 0
-202 -121 0
-189 -122 0
-203 -123 0
-190 -124 0
-204 -125 0
-191 -126 0
-205 -127 0
-192 -128 0
-206 -129 0
-193 -130 0
-207 -131 0
-194 -132 0
-208 -133 0
-195 -134 0
-209 -135 0
-196 -136 0
-210 -137 0
-197 -138 0
-211 -139 0
188 191 192 0
-185 -255 0
-186 -256 0
-187 -257 0
-188 -258 0
-189 -259 0
-190 -260 0
-191 -261 0
-192 -262 0
-193 -263 0
-194 -264 0
-195 -265 0
-196 -266 0
-197 -267 0
-185 -199 0
-186 -200 0
-187 -201 0
-188 -202 0
-189 -203 0
-190 -204 0
-191 -205 0
-192 -206 0
-193 -207 0
-194 -208 0
-195 -209 0
-196 -210 0
-197 -211 0
-213 -185 0
-213 -199 0
-214 -186 0
-214 -200 0
-215 -187 0
-215 -201 0
-216 -188 0
-216 -202 0
-217 -189 0
-217 -203 0
-218 -190 0
-218 -204 0
-219 -191 0
-219 -205 0
-220 -192 0
-220 -206 0
-221 -193 0
-221 -207 0
-222 -194 0
-222 -208 0
-223 -195 0
-223 -209 0
-224 -196 0
-224 -210 0
-225 -197 0
-225 -211 0
409 0
410 0
411 0
412 0
413 0
414 0
415 0
416 0
417 0
418 0
419 0
420 0
421 0
-422 0
-431 0
-440 0
-449 0
-422 458 0
-423 462 0
-458 462 0
-423 -458 463 0
-459 463 0
-423 -459 464 0
-460 464 0
-423 -460 465 0
-461 465 0
-423 -461 0
-424 466 0
-462 466 0
-424 -462 467 0
-463 467 0
-424 -463 468 0
-464 468 0
-424 -464 469 0
-465 469 0
-424 -465 0
-425 470 0
-466 470 0
-425 -466 471 0
-467 471 0
-425 -467 472 0
-468 472 0
-425 -468 473 0
-469 473 0
-425 -469 0
-426 474 0
-470 474 0
-426 -470 475 0
-471 475 0
-426 -471 476 0
-472 476 0
-426 -472 477 0
-473 477 0
-426 -473 0
-431 478 0
-432 482 0
-478 482 0
-432 -478 483 0
-479 483 0
-432 -479 484 0
-480 484 0
-432 -480 485 0
-481 485 0
-432 -481 0
-433 486 0
-482 486 0
-433 -482 487 0
-483 487 0
-433 -483 488 0
-484 488 0
-433 -484 489 0
-485 489 0
-433 -485 0
-434 490 0
-486 490 0
-434 -486 491 0
-487 491 0
-434 -487 492 0
-488 492 0
-434 -488 493 0
-489 493 0
-434 -489 0
-435 494 0
-490 494 0
-435 -490 495 0
-491 495 0
-435 -491 496 0
-492 496 0
-435 -492 497 0
-493 497 0
-435 -493 0
-440 498 0
-441 502 0
-498 502 0
-441 -498 503 0
-499 503 0
-441 -499 504 0
-500 504 0
-441 -500 505 0
-501 505 0
-441 -501 0
-442 506 0
-502 506 0
-442 -502 507 0
-503 507 0
-442 -503 508 0
-504 508 0
-442 -504 509 0
-505 509 0
-442 -505 0
-443 510 0
-506 510 0
-443 -506 511 0
-507 511 0
-443 -507 512 0
-508 512 0
-443 -508 513 0
-509 513 0
-443 -509 0
-444 514 0
-510 514 0
-444 -510 515 0
-511 515 0
-444 -511 516 0
-512 516 0
-444 -512 517 0
-513 517 0
-444 -513 0
-449 518 0
-450 522 0
-518 522 0
-450 -518 523 0
-519 523 0
-450 -519 524 0
-520 524 0
-450 -520 525 0
-521 525 0
-450 -521 0
-451 526 0
-522 526 0
-451 -522 527 0
-523 527 0
-451 -523 528 0
-524 528 0
-451 -524 529 0
-525 529 0
-451 -525 0
-452 530 0
-526 530 0
-452 -526 531 0
-527 531 0
-452 -527 532 0
-528 532 0
-452 -528 533 0
-529 533 0
-452 -529 0
-453 534 0
-530 534 0
-453 -530 535 0
-531 535 0
-453 -531 536 0
-532 536 0
-453 -532 537 0
-533 537 0
-453 -533 0
-538 422 0
-538 431 0
-422 -431 538 0
-539 423 0
-539 432 0
-423 -432 539 0
-540 424 0
-540 433 0
-424 -433 540 0
-541 425 0
-541 434 0
-425 -434 541 0
-542 426 0
-542 435 0
-426 -435 542 0
-538 543 0
-539 545 0
-543 545 0
-539 -543 546 0
-544 546 0
-539 -544 0
-540 547 0
-545 547 0
-540 -545 548 0
-546 548 0
-540 -546 0
-541 549 0
-547 549 0
-541 -547 550 0
-548 550 0
-541 -548 0
-542 551 0
-549 551 0
-542 -549 552 0
-550 552 0
-542 -550 0
-553 440 0
-553 449 0
-440 -449 553 0
-554 441 0
-554 450 0
-441 -450 554 0
-555 442 0
-555 451 0
-442 -451 555 0
-556 443 0
-556 452 0
-443 -452 556 0
-557 444 0
-557 453 0
-444 -453 557 0
-553 558 0
-554 560 0
-558 560 0
-554 -558 561 0
-559 561 0
-554 -559 0
-555 562 0
-560 562 0
-555 -560 563 0
-561 563 0
-555 -561 0
-556 564 0
-562 564 0
-556 -562 565 0
-563 565 0
-556 -563 0
-557 566 0
-564 566 0
-557 -564 567 0
-565 567 0
-557 -565 0
568 569 0
-569 0
570 571 572 573 574 575 576 577 578 579 580 581 582 583 584 585 586 587 588 589 590 591 592 593 594 0
-570 595 0
-571 596 0
-595 596 0
-571 -595 0
-572 597 0
-596 597 0
-572 -596 0
-573 598 0
-597 598 0
-573 -597 0
-574 599 0
-598 599 0
-574 -598 0
-575 600 0
-599 600 0
-575 -599 0
-576 601 0
-600 601 0
-576 -600 0
-577 602 0
-601 602 0
-577 -601 0
-578 603 0
-602 603 0
-578 -602 0
-579 604 0
-603 604 0
-579 -603 0
-580 605 0
-604 605 0
-580 -604 0
-581 606 0
-605 606 0
-581 -605 0
-582 607 0
-606 607 0
-582 -606 0
-583 608 0
-607 608 0
-583 -607 0
-584 609 0
-608 609 0
-584 -608 0
-585 610 0
-609 610 0
-585 -609 0
-586 611 0
-610 611 0
-586 -610 0
-587 612 0
-611 612 0
-587 -611 0
-588 613 0
-612 613 0
-588 -612 0
-589 614 0
-613 614 0
-589 -613 0
-590 615 0
-614 615 0
-590 -614 0
-591 616 0
-615 616 0
-591 -615 0
-592 617 0
-616 617 0
-592 -616 0
-593 618 0
-617 618 0
-593 -617 0
-594 619 0
-618 619 0
-594 -618 0
620 621 622 623 624 625 626 627 628 629 630 631 632 633 634 635 636 637 638 639 640 641 642 643 644 0
-620 645 0
-621 646 0
-645 646 0
-621 -645 0
-622 647 0
-646 647 0
-622 -646 0
-623 648 0
-647 648 0
-623 -647 0
-624 649 0
-648 649 0
-624 -648 0
-625 650 0
-649 650 0
-625 -649 0
-626 651 0
-650 651 0
-626 -650 0
-627 652 0
-651 652 0
-627 -651 0
-628 653 0
-652 653 0
-628 -652 0
-629 654 0
-653 654 0
-629 -653 0
-630 655 0
-654 655 0
-630 -654 0
-631 656 0
-655 656 0
-631 -655 0
-632 657 0
-656 657 0
-632 -656 0
-633 658 0
-657 658 0
-633 -657 0
-634 659 0
-658 659 0
-634 -658 0
-635 660 0
-659 660 0
-635 -659 0
-636 661 0
-660 661 0
-636 -660 0
-637 662 0
-661 662 0
-637 -661 0
-638 663 0
-662 663 0
-638 -662 0
-639 664 0
-663 664 0
-639 -663 0
-640 665 0
-664 665 0
-640 -664 0
-641 666 0
-665 666 0
-641 -665 0
-642 667 0
-666 667 0
-642 -666 0
-643 668 0
-667 668 0
-643 -667 0
-644 669 0
-668 669 0
-644 -668 0
670 671 672 673 674 675 676 677 678 679 680 681 682 683 684 685 686 687 688 689 690 691 692 693 694 0
-670 695 0
-671 696 0
-695 696 0
-671 -695 0
-672 697 0
-696 697 0
-672 -696 0
-673 698 0
-697 698 0
-673 -697 0
-674 699 0
-698 699 0
-674 -698 0
-675 700 0
-699 700 0
-675 -699 0
-676 701 0
-700 701 0
-676 -700 0
-677 702 0
-701 702 0
-677 -701 0
-678 703 0
-702 703 0
-678 -702 0
-679 704 0
-703 704 0
-679 -703 0
-680 705 0
-704 705 0
-680 -704 0
-681 706 0
-705 706 0
-681 -705 0
-682 707 0
-706 707 0
-682 -706 0
-683 708 0
-707 708 0
-683 -707 0
-684 709 0
-708 709 0
-684 -708 0
-685 710 0
-709 710 0
-685 -709 0
-686 711 0
-710 711 0
-686 -710 0
-687 712 0
-711 712 0
-687 -711 0
-688 713 0
-712 713 0
-688 -712 0
-689 714 0
-713 714 0
-689 -713 0
-690 715 0
-714 715 0
-690 -714 0
-691 716 0
-715 716 0
-691 -715 0
-692 717 0
-716 717 0
-692 -716 0
-693 718 0
-717 718 0
-693 -717 0
-694 719 0
-718 719 0
-694 -718 0
720 721 722 723 724 725 726 727 728 729 730 731 732 733 734 735 736 737 738 739 740 741 742 743 744 0
-720 745 0
-721 746 0
-745 746 0
-721 -745 0
-722 747 0
-746 747 0
-722 -746 0
-723 748 0
-747 748 0
-723 -747 0
-724 749 0
-748 749 0
-724 -748 0
-725 750 0
-749 750 0
-725 -749 0
-726 751 0
-750 751 0
-726 -750 0
-727 752 0
-751 752 0
-727 -751 0
-728 753 0
-752 753 0
-728 -752 0
-729 754 0
-753 754 0
-729 -753 0
-730 755 0
-754 755 0
-730 -754 0
-731 756 0
-755 756 0
-731 -755 0
-732 757 0
-756 757 0
-732 -756 0
-733 758 0
-757 758 0
-733 -757 0
-734 759 0
-758 759 0
-734 -758 0
-735 760 0
-759 760 0
-735 -759 0
-736 761 0
-760 761 0
-736 -760 0
-737 762 0
-761 762 0
-737 -761 0
-738 763 0
-762 763 0
-738 -762 0
-739 764 0
-763 764 0
-739 -763 0
-740 765 0
-764 765 0
-740 -764 0
-741 766 0
-765 766 0
-741 -765 0
-742 767 0
-766 767 0
-742 -766 0
-743 768 0
-767 768 0
-743 -767 0
-744 769 0
-768 769 0
-744 -768 0
-570 -620 -670 723 0
-570 -620 -671 724 0
-570 -620 -672 725 0
-570 -620 -673 726 0
-570 -620 -674 727 0
-570 -620 -675 728 0
-570 -620 -676 729 0
-570 -620 -677 730 0
-570 -620 -678 731 0
-570 -620 -679 732 0
-570 -620 -680 733 0
-570 -620 -681 734 0
-570 -620 -682 735 0
-570 -620 -683 736 0
-570 -620 -684 737 0
-570 -620 -685 738 0
-570 -620 -686 739 0
-570 -620 -687 740 0
-570 -620 -688 741 0
-570 -620 -689 742 0
-570 -620 -690 743 0
-570 -620 -691 744 0
-570 -620 -692 0
-570 -620 -693 0
-570 -620 -694 0
-570 -621 -670 724 0
-570 -621 -671 725 0
-570 -621 -672 726 0
-570 -621 -673 727 0
-570 -621 -674 728 0
-570 -621 -675 729 0
-570 -621 -676 730 0
-570 -621 -677 731 0
-570 -621 -678 732 0
-570 -621 -679 733 0
-570 -621 -680 734 0
-570 -621 -681 735 0
-570 -621 -682 736 0
-570 -621 -683 737 0
-570 -621 -684 738 0
-570 -621 -685 739 0
-570 -621 -686 740 0
-570 -621 -687 741 0
-570 -621 -688 742 0
-570 -621 -689 743 0
-570 -621 -690 744 0
-570 -621 -691 0
-570 -621 -692 0
-570 -621 -693 0
-570 -621 -694 0
-570 -622 -670 725 0
-570 -622 -671 726 0
-570 -622 -672 727 0
-570 -622 -673 728 0
-570 -622 -674 729 0
-570 -622 -675 730 0
-570 -622 -676 731 0
-570 -622 -677 732 0
-570 -622 -678 733 0
-570 -622 -679 734 0
-570 -622 -680 735 0
-570 -622 -681 736 0
-570 -622 -682 737 0
-570 -622 -683 738 0
-570 -622 -684 739 0
-570 -622 -685 740 0
-570 -622 -686 741 0
-570 -622 -687 742 0
-570 -622 -688 743 0
-570 -622 -689 744 0
-570 -622 -690 0
-570 -622 -691 0
-570 -622 -692 0
-570 -622 -693 0
-570 -622 -694 0
-570 -623 -670 726 0
-570 -623 -671 727 0
-570 -623 -672 728 0
-570 -623 -673 729 0
-570 -623 -674 730 0
-570 -623 -675 731 0
-570 -623 -676 732 0
-570 -623 -677 733 0
-570 -623 -678 734 0
-570 -623 -679 735 0
-570 -623 -680 736 0
-570 -623 -681 737 0
-570 -623 -682 738 0
-570 -623 -683 739 0
-570 -623 -684 740 0
-570 -623 -685 741 0
-570 -623 -686 742 0
-570 -623 -687 743 0
-570 -623 -688 744 0
-570 -623 -689 0
-570 -623 -690 0
-570 -623 -691 0
-570 -623 -692 0
-570 -623 -693 0
-570 -623 -694 0
-570 -624 -670 727 0
-570 -624 -671 728 0
-570 -624 -672 729 0
-570 -624 -673 730 0
-570 -624 -674 731 0
-570 -624 -675 732 0
-570 -624 -676 733 0
-570 -624 -677 734 0
-570 -624 -678 735 0
-570 -624 -679 736 0
-570 -624 -680 737 0
-570 -624 -681 738 0
-570 -624 -682 739 0
-570 -624 -683 740 0
-570 -624 -684 741 0
-570 -624 -685 742 0
-570 -624 -686 743 0
-570 -624 -687 744 0
-570 -624 -688 0
-570 -624 -689 0
-570 -624 -690 0
-570 -624 -691 0
-570 -624 -692 0
-570 -624 -693 0
-570 -624 -694 0
-570 -625 -670 728 0
-570 -625 -671 729 0
-570 -625 -672 730 0
-570 -625 -673 731 0
-570 -625 -674 732 0
-570 -625 -675 733 0
-570 -625 -676 734 0
-570 -625 -677 735 0
-570 -625 -678 736 0
-570 -625 -679 737 0
-570 -625 -680 738 0
-570 -625 -681 739 0
-570 -625 -682 740 0
-570 -625 -683 741 0
-570 -625 -684 742 0
-570 -625 -685 743 0
-570 -625 -686 744 0
-570 -625 -687 0
-570 -625 -688 0
-570 -625 -689 0
-570 -625 -690 0
-570 -625 -691 0
-570 -625 -692 0
-570 -625 -693 0
-570 -625 -694 0
-570 -626 -670 729 0
-570 -626 -671 730 0
-570 -626 -672 731 0
-570 -626 -673 732 0
-570 -626 -674 733 0
-570 -626 -675 734 0
-570 -626 -676 735 0
-570 -626 -677 736 0
-570 -626 -678 737 0
-570 -626 -679 738 0
-570 -626 -680 739 0
-570 -626 -681 740 0
-570 -626 -682 741 0
-570 -626 -683 742 0
-570 -626 -684 743 0
-570 -626 -685 744 0
-570 -626 -686 0
-570 -626 -687 0
-570 -626 -688 0
-570 -626 -689 0
-570 -626 -690 0
-570 -626 -691 0
-570 -626 -692 0
-570 -626 -693 0
-570 -626 -694 0
-570 -627 -670 730 0
-570 -627 -671 731 0
-570 -627 -672 732 0
-570 -627 -673 733 0
-570 -627 -674 734 0
-570 -627 -675 735 0
-570 -627 -676 736 0
-570 -627 -677 737 0
-570 -627 -678 738 0
-570 -627 -679 739 0
-570 -627 -680 740 0
-570 -627 -681 741 0
-570 -627 -682 742 0
-570 -627 -683 743 0
-570 -627 -684 744 0
-570 -627 -685 0
-570 -627 -686 0
-570 -627 -687 0
-570 -627 -688 0
-570 -627 -689 0
-570 -627 -690 0
-570 -627 -691 0
-570 -627 -692 0
-570 -627 -693 0
-570 -627 -694 0
-570 -628 -670 731 0
-570 -628 -671 732 0
-570 -628 -672 733 0
-570 -628 -673 734 0
-570 -628 -674 735 0
-570 -628 -675 736 0
-570 -628 -676 737 0
-570 -628 -677 738 0
-570 -628 -678 739 0
-570 -628 -679 740 0
-570 -628 -680 741 0
-570 -628 -681 742 0
-570 -628 -682 743 0
-570 -628 -683 744 0
-570 -628 -684 0
-570 -628 -685 0
-570 -628 -686 0
-570 -628 -687 0
-570 -628 -688 0
-570 -628 -689 0
-570 -628 -690 0
-570 -628 -691 0
-570 -628 -692 0
-570 -628 -693 0
-570 -628 -694 0
-570 -629 -670 732 0
-570 -629 -671 733 0
-570 -629 -672 734 0
-570 -629 -673 735 0
-570 -629 -674 736 0
-570 -629 -675 737 0
-570 -629 -676 738 0
-570 -629 -677 739 0
-570 -629 -678 740 0
-570 -629 -679 741 0
-570 -629 -680 742 0
-570 -629 -681 743 0
-570 -629 -682 744 0
-570 -629 -683 0
-570 -629 -684 0
-570 -629 -685 0
-570 -629 -686 0
-570 -629 -687 0
-570 -629 -688 0
-570 -629 -689 0
-570 -629 -690 0
-570 -629 -691 0
-570 -629 -692 0
-570 -629 -693 0
-570 -629 -694 0
-570 -630 -670 733 0
-570 -630 -671 734 0
-570 -630 -672 735 0
-570 -630 -673 736 0
-570 -630 -674 737 0
-570 -630 -675 738 0
-570 -630 -676 739 0
-570 -630 -677 740 0
-570 -630 -678 741 0
-570 -630 -679 742 0
-570 -630 -680 743 0
-570 -630 -681 744 0
-570 -630 -682 0
-570 -630 -683 0
-570 -630 -684 0
-570 -630 -685 0
-570 -630 -686 0
-570 -630 -687 0
-570 -630 -688 0
-570 -630 -689 0
-570 -630 -690 0
-570 -630 -691 0
-570 -630 -692 0
-570 -630 -693 0
-570 -630 -694 0
-570 -631 -670 734 0
-570 -631 -671 735 0
-570 -631 -672 736 0
-570 -631 -673 737 0
-570 -631 -674 738 0
-570 -631 -675 739 0
-570 -631 -676 740 0
-570 -631 -677 741 0
-570 -631 -678 742 0
-570 -631 -679 743 0
-570 -631 -680 744 0
-570 -631 -681 0
-570 -631 -682 0
-570 -631 -683 0
-570 -631 -684 0
-570 -631 -685 0
-570 -631 -686 0
-570 -631 -687 0
-570 -631 -688 0
-570 -631 -689 0
-570 -631 -690 0
-570 -631 -691 0
-570 -631 -692 0
-570 -631 -693 0
-570 -631 -694 0
-570 -632 -670 735 0
-570 -632 -671 736 0
-570 -632 -672 737 0
-570 -632 -673 738 0
-570 -632 -674 739 0
-570 -632 -675 740 0
-570 -632 -676 741 0
-570 -632 -677 742 0
-570 -632 -678 743 0
-570 -632 -679 744 0
-570 -632 -680 0
-570 -632 -681 0
-570 -632 -682 0
-570 -632 -683 0
-570 -632 -684 0
-570 -632 -685 0
-570 -632 -686 0
-570 -632 -687 0
-570 -632 -688 0
-570 -632 -689 0
-570 -632 -690 0
-570 -632 -691 0
-570 -632 -692 0
-570 -632 -693 0
-570 -632 -694 0
-570 -633 -670 736 0
-570 -633 -671 737 0
-570 -633 -672 738 0
-570 -633 -673 739 0
-570 -633 -674 740 0
-570 -633 -675 741 0
-570 -633 -676 742 0
-570 -633 -677 743 0
-570 -633 -678 744 0
-570 -633 -679 0
-570 -633 -680 0
-570 -633 -681 0
-570 -633 -682 0
-570 -633 -683 0
-570 -633 -684 0
-570 -633 -685 0
-570 -633 -686 0
-570 -633 -687 0
-570 -633 -688 0
-570 -633 -689 0
-570 -633 -690 0
-570 -633 -691 0
-570 -633 -692 0
-570 -633 -693 0
-570 -633 -694 0
-570 -634 -670 737 0
-570 -634 -671 738 0
-570 -634 -672 739 0
-570 -634 -673 740 0
-570 -634 -674 741 0
-570 -634 -675 742 0
-570 -634 -676 743 0
-570 -634 -677 744 0
-570 -634 -678 0
-570 -634 -679 0
-570 -634 -680 0
-570 -634 -681 0
-570 -634 -682 0
-570 -634 -683 0
-570 -634 -684 0
-570 -634 -685 0
-570 -634 -686 0
-570 -634 -687 0
-570 -634 -688 0
-570 -634 -689 0
-570 -634 -690 0
-570 -634 -691 0
-570 -634 -692 0
-570 -634 -693 0
-570 -634 -694 0
-570 -635 -670 738 0
-570 -635 -671 739 0
-570 -635 -672 740 0
-570 -635 -673 741 0
-570 -635 -674 742 0
-570 -635 -675 743 0
-570 -635 -676 744 0
-570 -635 -677 0
-570 -635 -678 0
-570 -635 -679 0
-570 -635 -680 0
-570 -635 -681 0
-570 -635 -682 0
-570 -635 -683 0
-570 -635 -684 0
-570 -635 -685 0
-570 -635 -686 0
-570 -635 -687 0
-570 -635 -688 0
-570 -635 -689 0
-570 -635 -690 0
-570 -635 -691 0
-570 -635 -692 0
-570 -635 -693 0
-570 -635 -694 0
-570 -636 -670 739 0
-570 -636 -671 740 0
-570 -636 -672 741 0
-570 -636 -673 742 0
-570 -636 -674 743 0
-570 -636 -675 744 0
-570 -636 -676 0
-570 -636 -677 0
-570 -636 -678 0
-570 -636 -679 0
-570 -636 -680 0
-570 -636 -681 0
-570 -636 -682 0
-570 -636 -683 0
-570 -636 -684 0
-570 -636 -685 0
-570 -636 -686 0
-570 -636 -687 0
-570 -636 -688 0
-570 -636 -689 0
-570 -636 -690 0
-570 -636 -691 0
-570 -636 -692 0
-570 -636 -693 0
-570 -636 -694 0
-570 -637 -670 740 0
-570 -637 -671 741 0
-570 -637 -672 742 0
-570 -637 -673 743 0
-570 -637 -674 744 0
-570 -637 -675 0
-570 -637 -676 0
-570 -637 -677 0
-570 -637 -678 0
-570 -637 -679 0
-570 -637 -680 0
-570 -637 -681 0
-570 -637 -682 0
-570 -637 -683 0
-570 -637 -684 0
-570 -637 -685 0
-570 -637 -686 0
-570 -637 -687 0
-570 -637 -688 0
-570 -637 -689 0
-570 -637 -690 0
-570 -637 -691 0
-570 -637 -692 0
-570 -637 -693 0
-570 -637 -694 0
-570 -638 -670 741 0
-570 -638 -671 742 0
-570 -638 -672 743 0
-570 -638 -673 744 0
-570 -638 -674 0
-570 -638 -675 0
-570 -638 -676 0
-570 -638 -677 0
-570 -638 -678 0
-570 -638 -679 0
-570 -638 -680 0
-570 -638 -681 0
-570 -638 -682 0
-570 -638 -683 0
-570 -638 -684 0
-570 -638 -685 0
-570 -638 -686 0
-570 -638 -687 0
-570 -638 -688 0
-570 -638 -689 0
-570 -638 -690 0
-570 -638 -691 0
-570 -638 -692 0
-570 -638 -693 0
-570 -638 -694 0
-570 -639 -670 742 0
-570 -639 -671 743 0
-570 -639 -672 744 0
-570 -639 -673 0
-570 -639 -674 0
-570 -639 -675 0
-570 -639 -676 0
-570 -639 -677 0
-570 -639 -678 0
-570 -639 -679 0
-570 -639 -680 0
-570 -639 -681 0
-570 -639 -682 0
-570 -639 -683 0
-570 -639 -684 0
-570 -639 -685 0
-570 -639 -686 0
-570 -639 -687 0
-570 -639 -688 0
-570 -639 -689 0
-570 -639 -690 0
-570 -639 -691 0
-570 -639 -692 0
-570 -639 -693 0
-570 -639 -694 0
-570 -640 -670 743 0
-570 -640 -671 744 0
-570 -640 -672 0
-570 -640 -673 0
-570 -640 -674 0
-570 -640 -675 0
-570 -640 -676 0
-570 -640 -677 0
-570 -640 -678 0
-570 -640 -679 0
-570 -640 -680 0
-570 -640 -681 0
-570 -640 -682 0
-570 -640 -683 0
-570 -640 -684 0
-570 -640 -685 0
-570 -640 -686 0
-570 -640 -687 0
-570 -640 -688 0
-570 -640 -689 0
-570 -640 -690 0
-570 -640 -691 0
-570 -640 -692 0
-570 -640 -693 0
-570 -640 -694 0
-570 -641 -670 744 0
-570 -641 -671 0
-570 -641 -672 0
-570 -641 -673 0
-570 -641 -674 0
-570 -641 -675 0
-570 -641 -676 0
-570 -641 -677 0
-570 -641 -678 0
-570 -641 -679 0
-570 -641 -680 0
-570 -641 -681 0
-570 -641 -682 0
-570 -641 -683 0
-570 -641 -684 0
-570 -641 -685 0
-570 -641 -686 0
-570 -641 -687 0
-570 -641 -688 0
-570 -641 -689 0
-570 -641 -690 0
-570 -641 -691 0
-570 -641 -692 0
-570 -641 -693 0
-570 -641 -694 0
-570 -642 -670 0
-570 -642 -671 0
-570 -642 -672 0
-570 -642 -673 0
-570 -642 -674 0
-570 -642 -675 0
-570 -642 -676 0
-570 -642 -677 0
-570 -642 -678 0
-570 -642 -679 0
-570 -642 -680 0
-570 -642 -681 0
-570 -642 -682 0
-570 -642 -683 0
-570 -642 -684 0
-570 -642 -685 0
-570 -642 -686 0
-570 -642 -687 0
-570 -642 -688 0
-570 -642 -689 0
-570 -642 -690 0
-570 -642 -691 0
-570 -642 -692 0
-570 -642 -693 0
-570 -642 -694 0
-570 -643 -670 0
-570 -643 -671 0
-570 -643 -672 0
-570 -643 -673 0
-570 -643 -674 0
-570 -643 -675 0
-570 -643 -676 0
-570 -643 -677 0
-570 -643 -678 0
-570 -643 -679 0
-570 -643 -680 0
-570 -643 -681 0
-570 -643 -682 0
-570 -643 -683 0
-570 -643 -684 0
-570 -643 -685 0
-570 -643 -686 0
-570 -643 -687 0
-570 -643 -688 0
-570 -643 -689 0
-570 -643 -690 0
-570 -643 -691 0
-570 -643 -692 0
-570 -643 -693 0
-570 -643 -694 0
-570 -644 -670 0
-570 -644 -671 0
-570 -644 -672 0
-570 -644 -673 0
-570 -644 -674 0
-570 -644 -675 0
-570 -644 -676 0
-570 -644 -677 0
-570 -644 -678 0
-570 -644 -679 0
-570 -644 -680 0
-570 -644 -681 0
-570 -644 -682 0
-570 -644 -683 0
-570 -644 -684 0
-570 -644 -685 0
-570 -644 -686 0
-570 -644 -687 0
-570 -644 -688 0
-570 -644 -689 0
-570 -644 -690 0
-570 -644 -691 0
-570 -644 -692 0
-570 -644 -693 0
-570 -644 -694 0
-571 -620 -670 724 0
-571 -620 -671 725 0
-571 -620 -672 726 0
-571 -620 -673 727 0
-571 -620 -674 728 0
-571 -620 -675 729 0
-571 -620 -676 730 0
-571 -620 -677 731 0
-571 -620 -678 732 0
-571 -620 -679 733 0
-571 -620 -680 734 0
-571 -620 -681 735 0
-571 -620 -682 736 0
-571 -620 -683 737 0
-571 -620 -684 738 0
-571 -620 -685 739 0
-571 -620 -686 740 0
-571 -620 -687 741 0
-571 -620 -688 742 0
-571 -620 -689 743 0
-571 -620 -690 744 0
-571 -620 -691 0
-571 -620 -692 0
-571 -620 -693 0
-571 -620 -694 0
-571 -621 -670 725 0
-571 -621 -671 726 0
-571 -621 -672 727 0
-571 -621 -673 728 0
-571 -621 -674 729 0
-571 -621 -675 730 0
-571 -621 -676 731 0
-571 -621 -677 732 0
-571 -621 -678 733 0
-571 -621 -679 734 0
-571 -621 -680 735 0
-571 -621 -681 736 0
-571 -621 -682 737 0
-571 -621 -683 738 0
-571 -621 -684 739 0
-571 -621 -685 740 0
-571 -621 -686 741 0
-571 -621 -687 742 0
-571 -621 -688 743 0
-571 -621 -689 744 0
-571 -621 -690 0
-571 -621 -691 0
-571 -621 -692 0
-571 -621 -693 0
-571 -621 -694 0
-571 -622 -670 726 0
-571 -622 -671 727 0
-571 -622 -672 728 0
-571 -622 -673 729 0
-571 -622 -674 730 0
-571 -622 -675 731 0
-571 -622 -676 732 0
-571 -622 -677 733 0
-571 -622 -678 734 0
-571 -622 -679 735 0
-571 -622 -680 736 0
-571 -622 -681 737 0
-571 -622 -682 738 0
-571 -622 -683 739 0
-571 -622 -684 740 0
-571 -622 -685 741 0
-571 -622 -686 742 0
-571 -622 -687 743 0
-571 -622 -688 744 0
-571 -622 -689 0
-571 -622 -690 0
-571 -622 -691 0
-571 -622 -692 0
-571 -622 -693 0
-571 -622 -694 0
-571 -623 -670 727 0
-571 -623 -671 728 0
-571 -623 -672 729 0
-571 -623 -673 730 0
-571 -623 -674 731 0
-571 -623 -675 732 0
-571 -623 -676 733 0
-571 -623 -677 734 0
-571 -623 -678 735 0
-571 -623 -679 736 0
-571 -623 -680 737 0
-571 -623 -681 738 0
-571 -623 -682 739 0
-571 -623 -683 740 0
-571 -623 -684 741 0
-571 -623 -685 742 0
-571 -623 -686 743 0
-571 -623 -687 744 0
-571 -623 -688 0
-571 -623 -689 0
-571 -623 -690 0
-571 -623 -691 0
-571 -623 -692 0
-571 -623 -693 0
-571 -623 -694 0
-571 -624 -670 728 0
-571 -624 -671 729 0
-571 -624 -672 730 0
-571 -624 -673 731 0
-571 -624 -674 732 0
-571 -624 -675 733 0
-571 -624 -676 734 0
-571 -624 -677 735 0
-571 -624 -678 736 0
-571 -624 -679 737 0
-571 -624 -680 738 0
-571 -624 -681 739 0
-571 -624 -682 740 0
-571 -624 -683 741 0
-571 -624 -684 742 0
-571 -624 -685 743 0
-571 -624 -686 744 0
-571 -624 -687 0
-571 -624 -688 0
-571 -624 -689 0
-571 -624 -690 0
-571 -624 -691 0
-571 -624 -692 0
-571 -624 -693 0
-571 -624 -694 0
-571 -625 -670 729 0
-571 -625 -671 730 0
-571 -625 -672 731 0
-571 -625 -673 732 0
-571 -625 -674 733 0
-571 -625 -675 734 0
-571 -625 -676 735 0
-571 -625 -677 736 0
-571 -625 -678 737 0
-571 -625 -679 738 0
-571 -625 -680 739 0
-571 -625 -681 740 0
-571 -625 -682 741 0
-571 -625 -683 742 0
-571 -625 -684 743 0
-571 -625 -685 744 0
-571 -625 -686 0
-571 -625 -687 0
-571 -625 -688 0
-571 -625 -689 0
-571 -625 -690 0
-571 -625 -691 0
-571 -625 -692 0
-571 -625 -693 0
-571 -625 -694 0
-571 -626 -670 730 0
-571 -626 -671 731 0
-571 -626 -672 732 0
-571 -626 -673 733 0
-571 -626 -674 734 0
-571 -626 -675 735 0
-571 -626 -676 736 0
-571 -626 -677 737 0
-571 -626 -678 738 0
-571 -626 -679 739 0
-571 -626 -680 740 0
-571 -626 -681 741 0
-571 -626 -682 742 0
-571 -626 -683 743 0
-571 -626 -684 744 0
-571 -626 -685 0
-571 -626 -686 0
-571 -626 -687 0
-571 -626 -688 0
-571 -626 -689 0
-571 -626 -690 0
-571 -626 -691 0
-571 -626 -692 0
-571 -626 -693 0
-571 -626 -694 0
-571 -627 -670 731 0
-571 -627 -671 732 0
-571 -627 -672 733 0
-571 -627 -673 734 0
-571 -627 -674 735 0
-571 -627 -675 736 0
-571 -627 -676 737 0
-571 -627 -677 738 0
-571 -627 -678 739 0
-571 -627 -679 740 0
-571 -627 -680 741 0
-571 -627 -681 742 0
-571 -627 -682 743 0
-571 -627 -683 744 0
-571 -627 -684 0
-571 -627 -685 0
-571 -627 -686 0
-571 -627 -687 0
-571 -627 -688 0
-571 -627 -689 0
-571 -627 -690 0
-571 -627 -691 0
-571 -627 -692 0
-571 -627 -693 0
-571 -627 -694 0
-571 -628 -670 732 0
-571 -628 -671 733 0
-571 -628 -672 734 0
-571 -628 -673 735 0
-571 -628 -674 736 0
-571 -628 -675 737 0
-571 -628 -676 738 0
-571 -628 -677 739 0
-571 -628 -678 740 0
-571 -628 -679 741 0
-571 -628 -680 742 0
-571 -628 -681 743 0
-571 -628 -682 744 0
-571 -628 -683 0
-571 -628 -684 0
-571 -628 -685 0
-571 -628 -686 0
-571 -628 -687 0
-571 -628 -688 0
-571 -628 -689 0
-571 -628 -690 0
-571 -628 -691 0
-571 -628 -692 0
-571 -628 -693 0
-571 -628 -694 0
-571 -629 -670 733 0
-571 -629 -671 734 0
-571 -629 -672 735 0
-571 -629 -673 736 0
-571 -629 -674 737 0
-571 -629 -675 738 0
-571 -629 -676 739 0
-571 -629 -677 740 0
-571 -629 -678 741 0
-571 -629 -679 742 0
-571 -629 -680 743 0
-571 -629 -681 744 0
-571 -629 -682 0
-571 -629 -683 0
-571 -629 -684 0
-571 -629 -685 0
-571 -629 -686 0
-571 -629 -687 0
-571 -629 -688 0
-571 -629 -689 0
-571 -629 -690 0
-571 -629 -691 0
-571 -629 -692 0
-571 -629 -693 0
-571 -629 -694 0
-571 -630 -670 734 0
-571 -630 -671 735 0
-571 -630 -672 736 0
-571 -630 -673 737 0
-571 -630 -674 738 0
-571 -630 -675 739 0
-571 -630 -676 740 0
-571 -630 -677 741 0
-571 -630 -678 742 0
-571 -630 -679 743 0
-571 -630 -680 744 0
-571 -630 -681 0
-571 -630 -682 0
-571 -630 -683 0
-571 -630 -684 0
-571 -630 -685 0
-571 -630 -686 0
-571 -630 -687 0
-571 -630 -688 0
-571 -630 -689 0
-571 -630 -690 0
-571 -630 -691 0
-571 -630 -692 0
-571 -630 -693 0
-571 -630 -694 0
-571 -631 -670 735 0
-571 -631 -671 736 0
-571 -631 -672 737 0
-571 -631 -673 738 0
-571 -631 -674 739 0
-571 -631 -675 740 0
-571 -631 -676 741 0
-571 -631 -677 742 0
-571 -631 -678 743 0
-571 -631 -679 744 0
-571 -631 -680 0
-571 -631 -681 0
-571 -631 -682 0
-571 -631 -683 0
-571 -631 -684 0
-571 -631 -685 0
-571 -631 -686 0
-571 -631 -687 0
-571 -631 -688 0
-571 -631 -689 0
-571 -631 -690 0
-571 -631 -691 0
-571 -631 -692 0
-571 -631 -693 0
-571 -631 -694 0
-571 -632 -670 736 0
-571 -632 -671 737 0
-571 -632 -672 738 0
-571 -632 -673 739 0
-571 -632 -674 740 0
-571 -632 -675 741 0
-571 -632 -676 742 0
-571 -632 -677 743 0
-571 -632 -678 744 0
-571 -632 -679 0
-571 -632 -680 0
-571 -632 -681 0
-571 -632 -682 0
-571 -632 -683 0
-571 -632 -684 0
-571 -632 -685 0
-571 -632 -686 0
-571 -632 -687 0
-571 -632 -688 0
-571 -632 -689 0
-571 -632 -690 0
-571 -632 -691 0
-571 -632 -692 0
-571 -632 -693 0
-571 -632 -694 0
-571 -633 -670 737 0
-571 -633 -671 738 0
-571 -633 -672 739 0
-571 -633 -673 740 0
-571 -633 -674 741 0
-571 -633 -675 742 0
-571 -633 -676 743 0
-571 -633 -677 744 0
-571 -633 -678 0
-571 -633 -679 0
-571 -633 -680 0
-571 -633 -681 0
-571 -633 -682 0
-571 -633 -683 0
-571 -633 -684 0
-571 -633 -685 0
-571 -633 -686 0
-571 -633 -687 0
-571 -633 -688 0
-571 -633 -689 0
-571 -633 -690 0
-571 -633 -691 0
-571 -633 -692 0
-571 -633 -693 0
-571 -633 -694 0
-571 -634 -670 738 0
-571 -634 -671 739 0
-571 -634 -672 740 0
-571 -634 -673 741 0
-571 -634 -674 742 0
-571 -634 -675 743 0
-571 -634 -676 744 0
-571 -634 -677 0
-571 -634 -678 0
-571 -634 -679 0
-571 -634 -680 0
-571 -634 -681 0
-571 -634 -682 0
-571 -634 -683 0
-571 -634 -684 0
-571 -634 -685 0
-571 -634 -686 0
-571 -634 -687 0
-571 -634 -688 0
-571 -634 -689 0
-571 -634 -690 0
-571 -634 -691 0
-571 -634 -692 0
-571 -634 -693 0
-571 -634 -694 0
-571 -635 -670 739 0
-571 -635 -671 740 0
-571 -635 -672 741 0
-571 -635 -673 742 0
-571 -635 -674 743 0
-571 -635 -675 744 0
-571 -635 -676 0
-571 -635 -677 0
-571 -635 -678 0
-571 -635 -679 0
-571 -635 -680 0
-571 -635 -681 0
-571 -635 -682 0
-571 -635 -683 0
-571 -635 -684 0
-571 -635 -685 0
-571 -635 -686 0
-571 -635 -687 0
-571 -635 -688 0
-571 -635 -689 0
-571 -635 -690 0
-571 -635 -691 0
-571 -635 -692 0
-571 -635 -693 0
-571 -635 -694 0
-571 -636 -670 740 0
-571 -636 -671 741 0
-571 -636 -672 742 0
-571 -636 -673 743 0
-571 -636 -674 744 0
-571 -636 -675 0
-571 -636 -676 0
-571 -636 -677 0
-571 -636 -678 0
-571 -636 -679 0
-571 -636 -680 0
-571 -636 -681 0
-571 -636 -682 0
-571 -636 -683 0
-571 -636 -684 0
-571 -636 -685 0
-571 -636 -686 0
-571 -636 -687 0
-571 -636 -688 0
-571 -636 -689 0
-571 -636 -690 0
-571 -636 -691 0
-571 -636 -692 0
-571 -636 -693 0
-571 -636 -694 0
-571 -637 -670 741 0
-571 -637 -671 742 0
-571 -637 -672 743 0
-571 -637 -673 744 0
-571 -637 -674 0
-571 -637 -675 0
-571 -637 -676 0
-571 -637 -677 0
-571 -637 -678 0
-571 -637 -679 0
-571 -637 -680 0
-571 -637 -681 0
-571 -637 -682 0
-571 -637 -683 0
-571 -637 -684 0
-571 -637 -685 0
-571 -637 -686 0
-571 -637 -687 0
-571 -637 -688 0
-571 -637 -689 0
-571 -637 -690 0
-571 -637 -691 0
-571 -637 -692 0
-571 -637 -693 0
-571 -637 -694 0
-571 -638 -670 742 0
-571 -638 -671 743 0
-571 -638 -672 744 0
-571 -638 -673 0
-571 -638 -674 0
-571 -638 -675 0
-571 -638 -676 0
-571 -638 -677 0
-571 -638 -678 0
-571 -638 -679 0
-571 -638 -680 0
-571 -638 -681 0
-571 -638 -682 0
-571 -638 -683 0
-571 -638 -684 0
-571 -638 -685 0
-571 -638 -686 0
-571 -638 -687 0
-571 -638 -688 0
-571 -638 -689 0
-571 -638 -690 0
-571 -638 -691 0
-571 -638 -692 0
-571 -638 -693 0
-571 -638 -694 0
-571 -639 -670 743 0
-571 -639 -671 744 0
-571 -639 -672 0
-571 -639 -673 0
-571 -639 -674 0
-571 -639 -675 0
-571 -639 -676 0
-571 -639 -677 0
-571 -639 -678 0
-571 -639 -679 0
-571 -639 -680 0
-571 -639 -681 0
-571 -639 -682 0
-571 -639 -683 0
-571 -639 -684 0
-571 -639 -685 0
-571 -639 -686 0
-571 -639 -687 0
-571 -639 -688 0
-571 -639 -689 0
-571 -639 -690 0
-571 -639 -691 0
-571 -639 -692 0
-571 -639 -693 0
-571 -639 -694 0
-571 -640 -670 744 0
-571 -640 -671 0
-571 -640 -672 0
-571 -640 -673 0
-571 -640 -674 0
-571 -640 -675 0
-571 -640 -676 0
-571 -640 -677 0
-571 -640 -678 0
-571 -640 -679 0
-571 -640 -680 0
-571 -640 -681 0
-571 -640 -682 0
-571 -640 -683 0
-571 -640 -684 0
-571 -640 -685 0
-571 -640 -686 0
-571 -640 -687 0
-571 -640 -688 0
-571 -640 -689 0
-571 -640 -690 0
-571 -640 -691 0
-571 -640 -692 0
-571 -640 -693 0
-571 -640 -694 0
-571 -641 -670 0
-571 -641 -671 0
-571 -641 -672 0
-571 -641 -673 0
-571 -641 -674 0
-571 -641 -675 0
-571 -641 -676 0
-571 -641 -677 0
-571 -641 -678 0
-571 -641 -679 0
-571 -641 -680 0
-571 -641 -681 0
-571 -641 -682 0
-571 -641 -683 0
-571 -641 -684 0
-571 -641 -685 0
-571 -641 -686 0
-571 -641 -687 0
-571 -641 -688 0
-571 -641 -689 0
-571 -641 -690 0
-571 -641 -691 0
-571 -641 -692 0
-571 -641 -693 0
-571 -641 -694 0
-571 -642 -670 0
-571 -642 -671 0
-571 -642 -672 0
-571 -642 -673 0
-571 -642 -674 0
-571 -642 -675 0
-571 -642 -676 0
-571 -642 -677 0
-571 -642 -678 0
-571 -642 -679 0
-571 -642 -680 0
-571 -642 -681 0
-571 -642 -682 0
-571 -642 -683 0
-571 -642 -684 0
-571 -642 -685 0
-571 -642 -686 0
-571 -642 -687 0
-571 -642 -688 0
-571 -642 -689 0
-571 -642 -690 0
-571 -642 -691 0
-571 -642 -692 0
-571 -642 -693 0
-571 -642 -694 0
-571 -643 -670 0
-571 -643 -671 0
-571 -643 -672 0
-571 -643 -673 0
-571 -643 -674 0
-571 -643 -675 0
-571 -643 -676 0
-571 -643 -677 0
-571 -643 -678 0
-571 -643 -679 0
-571 -643 -680 0
-571 -643 -681 0
-571 -643 -682 0
-571 -643 -683 0
-571 -643 -684 0
-571 -643 -685 0
-571 -643 -686 0
-571 -643 -687 0
-571 -643 -688 0
-571 -643 -689 0
-571 -643 -690 0
-571 -643 -691 0
-571 -643 -692 0
-571 -643 -693 0
-571 -643 -694 0
-571 -644 -670 0
-571 -644 -671 0
-571 -644 -672 0
-571 -644 -673 0
-571 -644 -674 0
-571 -644 -675 0
-571 -644 -676 0
-571 -644 -677 0
-571 -644 -678 0
-571 -644 -679 0
-571 -644 -680 0
-571 -644 -681 0
-571 -644 -682 0
-571 -644 -683 0
-571 -644 -684 0
-571 -644 -685 0
-571 -644 -686 0
-571 -644 -687 0
-571 -644 -688 0
-571 -644 -689 0
-571 -644 -690 0
-571 -644 -691 0
-571 -644 -692 0
-571 -644 -693 0
-571 -644 -694 0
-572 -620 -670 725 0
-572 -620 -671 726 0
-572 -620 -672 727 0
-572 -620 -673 728 0
-572 -620 -674 729 0
-572 -620 -675 730 0
-572 -620 -676 731 0
-572 -620 -677 732 0
-572 -620 -678 733 0
-572 -620 -679 734 0
-572 -620 -680 735 0
-572 -620 -681 736 0
-572 -620 -682 737 0
-572 -620 -683 738 0
-572 -620 -684 739 0
-572 -620 -685 740 0
-572 -620 -686 741 0
-572 -620 -687 742 0
-572 -620 -688 743 0
-572 -620 -689 744 0
-572 -620 -690 0
-572 -620 -691 0
-572 -620 -692 0
-572 -620 -693 0
-572 -620 -694 0
-572 -621 -670 726 0
-572 -621 -671 727 0
-572 -621 -672 728 0
-572 -621 -673 729 0
-572 -621 -674 730 0
-572 -621 -675 731 0
-572 -621 -676 732 0
-572 -621 -677 733 0
-572 -621 -678 734 0
-572 -621 -679 735 0
-572 -621 -680 736 0
-572 -621 -681 737 0
-572 -621 -682 738 0
-572 -621 -683 739 0
-572 -621 -684 740 0
-572 -621 -685 741 0
-572 -621 -686 742 0
-572 -621 -687 743 0
-572 -621 -688 744 0
-572 -621 -689 0
-572 -621 -690 0
-572 -621 -691 0
-572 -621 -692 0
-572 -621 -693 0
-572 -621 -694 0
-572 -622 -670 727 0
-572 -622 -671 728 0
-572 -622 -672 729 0
-572 -622 -673 730 0
-572 -622 -674 731 0
-572 -622 -675 732 0
-572 -622 -676 733 0
-572 -622 -677 734 0
-572 -622 -678 735 0
-572 -622 -679 736 0
-572 -622 -680 737 0
-572 -622 -681 738 0
-572 -622 -682 739 0
-572 -622 -683 740 0
-572 -622 -684 741 0
-572 -622 -685 742 0
-572 -622 -686 743 0
-572 -622 -687 744 0
-572 -622 -688 0
-572 -622 -689 0
-572 -622 -690 0
-572 -622 -691 0
-572 -622 -692 0
-572 -622 -693 0
-572 -622 -694 0
-572 -623 -670 728 0
-572 -623 -671 729 0
-572 -623 -672 730 0
-572 -623 -673 731 0
-572 -623 -674 732 0
-572 -623 -675 733 0
-572 -623 -676 734 0
-572 -623 -677 735 0
-572 -623 -678 736 0
-572 -623 -679 737 0
-572 -623 -680 738 0
-572 -623 -681 739 0
-572 -623 -682 740 0
-572 -623 -683 741 0
-572 -623 -684 742 0
-572 -623 -685 743 0
-572 -623 -686 744 0
-572 -623 -687 0
-572 -623 -688 0
-572 -623 -689 0
-572 -623 -690 0
-572 -623 -691 0
-572 -623 -692 0
-572 -623 -693 0
-572 -623 -694 0
-572 -624 -670 729 0
-572 -624 -671 730 0
-572 -624 -672 731 0
-572 -624 -673 732 0
-572 -624 -674 733 0
-572 -624 -675 734 0
-572 -624 -676 735 0
-572 -624 -677 736 0
-572 -624 -678 737 0
-572 -624 -679 738 0
-572 -624 -680 739 0
-572 -624 -681 740 0
-572 -624 -682 741 0
-572 -624 -683 742 0
-572 -624 -684 743 0
-572 -624 -685 744 0
-572 -624 -686 0
-572 -624 -687 0
-572 -624 -688 0
-572 -624 -689 0
-572 -624 -690 0
-572 -624 -691 0
-572 -624 -692 0
-572 -624 -693 0
-572 -624 -694 0
-572 -625 -670 730 0
-572 -625 -671 731 0
-572 -625 -672 732 0
-572 -625 -673 733 0
-572 -625 -674 734 0
-572 -625 -675 735 0
-572 -625 -676 736 0
-572 -625 -677 737 0
-572 -625 -678 738 0
-572 -625 -679 739 0
-572 -625 -680 740 0
-572 -625 -681 741 0
-572 -625 -682 742 0
-572 -625 -683 743 0
-572 -625 -684 744 0
-572 -625 -685 0
-572 -625 -686 0
-572 -625 -687 0
-572 -625 -688 0
-572 -625 -689 0
-572 -625 -690 0
-572 -625 -691 0
-572 -625 -692 0
-572 -625 -693 0
-572 -625 -694 0
-572 -626 -670 731 0
-572 -626 -671 732 0
-572 -626 -672 733 0
-572 -626 -673 734 0
-572 -626 -674 735 0
-572 -626 -675 736 0
-572 -626 -676 737 0
-572 -626 -677 738 0
-572 -626 -678 739 0
-572 -626 -679 740 0
-572 -626 -680 741 0
-572 -626 -681 742 0
-572 -626 -682 743 0
-572 -626 -683 744 0
-572 -626 -684 0
-572 -626 -685 0
-572 -626 -686 0
-572 -626 -687 0
-572 -626 -688 0
-572 -626 -689 0
-572 -626 -690 0
-572 -626 -691 0
-572 -626 -692 0
-572 -626 -693 0
-572 -626 -694 0
-572 -627 -670 732 0
-572 -627 -671 733 0
-572 -627 -672 734 0
-572 -627 -673 735 0
-572 -627 -674 736 0
-572 -627 -675 737 0
-572 -627 -676 738 0
-572 -627 -677 739 0
-572 -627 -678 740 0
-572 -627 -679 741 0
-572 -627 -680 742 0
-572 -627 -681 743 0
-572 -627 -682 744 0
-572 -627 -683 0
-572 -627 -684 0
-572 -627 -685 0
-572 -627 -686 0
-572 -627 -687 0
-572 -627 -688 0
-572 -627 -689 0
-572 -627 -690 0
-572 -627 -691 0
-572 -627 -692 0
-572 -627 -693 0
-572 -627 -694 0
-572 -628 -670 733 0
-572 -628 -671 734 0
-572 -628 -672 735 0
-572 -628 -673 736 0
-572 -628 -674 737 0
-572 -628 -675 738 0
-572 -628 -676 739 0
-572 -628 -677 740 0
-572 -628 -678 741 0
-572 -628 -679 742 0
-572 -628 -680 743 0
-572 -628 -681 744 0
-572 -628 -682 0
-572 -628 -683 0
-572 -628 -684 0
-572 -628 -685 0
-572 -628 -686 0
-572 -628 -687 0
-572 -628 -688 0
-572 -628 -689 0
-572 -628 -690 0
-572 -628 -691 0
-572 -628 -692 0
-572 -628 -693 0
-572 -628 -694 0
-572 -629 -670 734 0
-572 -629 -671 735 0
-572 -629 -672 736 0
-572 -629 -673 737 0
-572 -629 -674 738 0
-572 -629 -675 739 0
-572 -629 -676 740 0
-572 -629 -677 741 0
-572 -629 -678 742 0
-572 -629 -679 743 0
-572 -629 -680 744 0
-572 -629 -681 0
-572 -629 -682 0
-572 -629 -683 0
-572 -629 -684 0
-572 -629 -685 0
-572 -629 -686 0
-572 -629 -687 0
-572 -629 -688 0
-572 -629 -689 0
-572 -629 -690 0
-572 -629 -691 0
-572 -629 -692 0
-572 -629 -693 0
-572 -629 -694 0
-572 -630 -670 735 0
-572 -630 -671 736 0
-572 -630 -672 737 0
-572 -630 -673 738 0
-572 -630 -674 739 0
-572 -630 -675 740 0
-572 -630 -676 741 0
-572 -630 -677 742 0
-572 -630 -678 743 0
-572 -630 -679 744 0
-572 -630 -680 0
-572 -630 -681 0
-572 -630 -682 0
-572 -630 -683 0
-572 -630 -684 0
-572 -630 -685 0
-572 -630 -686 0
-572 -630 -687 0
-572 -630 -688 0
-572 -630 -689 0
-572 -630 -690 0
-572 -630 -691 0
-572 -630 -692 0
-572 -630 -693 0
-572 -630 -694 0
-572 -631 -670 736 0
-572 -631 -671 737 0
-572 -631 -672 738 0
-572 -631 -673 739 0
-572 -631 -674 740 0
-572 -631 -675 741 0
-572 -631 -676 742 0
-572 -631 -677 743 0
-572 -631 -678 744 0
-572 -631 -679 0
-572 -631 -680 0
-572 -631 -681 0
-572 -631 -682 0
-572 -631 -683 0
-572 -631 -684 0
-572 -631 -685 0
-572 -631 -686 0
-572 -631 -687 0
-572 -631 -688 0
-572 -631 -689 0
-572 -631 -690 0
-572 -631 -691 0
-572 -631 -692 0
-572 -631 -693 0
-572 -631 -694 0
-572 -632 -670 737 0
-572 -632 -671 738 0
-572 -632 -672 739 0
-572 -632 -673 740 0
-572 -632 -674 741 0
-572 -632 -675 742 0
-572 -632 -676 743 0
-572 -632 -677 744 0
-572 -632 -678 0
-572 -632 -679 0
-572 -632 -680 0
-572 -632 -681 0
-572 -632 -682 0
-572 -632 -683 0
-572 -632 -684 0
-572 -632 -685 0
-572 -632 -686 0
-572 -632 -687 0
-572 -632 -688 0
-572 -632 -689 0
-572 -632 -690 0
-572 -632 -691 0
-572 -632 -692 0
-572 -632 -693 0
-572 -632 -694 0
-572 -633 -670 738 0
-572 -633 -671 739 0
-572 -633 -672 740 0
-572 -633 -673 741 0
-572 -633 -674 742 0
-572 -633 -675 743 0
-572 -633 -676 744 0
-572 -633 -677 0
-572 -633 -678 0
-572 -633 -679 0
-572 -633 -680 0
-572 -633 -681 0
-572 -633 -682 0
-572 -633 -683 0
-572 -633 -684 0
-572 -633 -685 0
-572 -633 -686 0
-572 -633 -687 0
-572 -633 -688 0
-572 -633 -689 0
-572 -633 -690 0
-572 -633 -691 0
-572 -633 -692 0
-572 -633 -693 0
-572 -633 -694 0
-572 -634 -670 739 0
-572 -634 -671 740 0
-572 -634 -672 741 0
-572 -634 -673 742 0
-572 -634 -674 743 0
-572 -634 -675 744 0
-572 -634 -676 0
-572 -634 -677 0
-572 -634 -678 0
-572 -634 -679 0
-572 -634 -680 0
-572 -634 -681 0
-572 -634 -682 0
-572 -634 -683 0
-572 -634 -684 0
-572 -634 -685 0
-572 -634 -686 0
-572 -634 -687 0
-572 -634 -688 0
-572 -634 -689 0
-572 -634 -690 0
-572 -634 -691 0
-572 -634 -692 0
-572 -634 -693 0
-572 -634 -694 0
-572 -635 -670 740 0
-572 -635 -671 741 0
-572 -635 -672 742 0
-572 -635 -673 743 0
-572 -635 -674 744 0
-572 -635 -675 0
-572 -635 -676 0
-572 -635 -677 0
-572 -635 -678 0
-572 -635 -679 0
-572 -635 -680 0
-572 -635 -681 0
-572 -635 -682 0
-572 -635 -683 0
-572 -635 -684 0
-572 -635 -685 0
-572 -635 -686 0
-572 -635 -687 0
-572 -635 -688 0
-572 -635 -689 0
-572 -635 -690 0
-572 -635 -691 0
-572 -635 -692 0
-572 -635 -693 0
-572 -635 -694 0
-572 -636 -670 741 0
-572 -636 -671 742 0
-572 -636 -672 743 0
-572 -636 -673 744 0
-572 -636 -674 0
-572 -636 -675 0
-572 -636 -676 0
-572 -636 -677 0
-572 -636 -678 0
-572 -636 -679 0
-572 -636 -680 0
-572 -636 -681 0
-572 -636 -682 0
-572 -636 -683 0
-572 -636 -684 0
-572 -636 -685 0
-572 -636 -686 0
-572 -636 -687 0
-572 -636 -688 0
-572 -636 -689 0
-572 -636 -690 0
-572 -636 -691 0
-572 -636 -692 0
-572 -636 -693 0
-572 -636 -694 0
-572 -637 -670 742 0
-572 -637 -671 743 0
-572 -637 -672 744 0
-572 -637 -673 0
-572 -637 -674 0
-572 -637 -675 0
-572 -637 -676 0
-572 -637 -677 0
-572 -637 -678 0
-572 -637 -679 0
-572 -637 -680 0
-572 -637 -681 0
-572 -637 -682 0
-572 -637 -683 0
-572 -637 -684 0
-572 -637 -685 0
-572 -637 -686 0
-572 -637 -687 0
-572 -637 -688 0
-572 -637 -689 0
-572 -637 -690 0
-572 -637 -691 0
-572 -637 -692 0
-572 -637 -693 0
-572 -637 -694 0
-572 -638 -670 743 0
-572 -638 -671 744 0
-572 -638 -672 0
-572 -638 -673 0
-572 -638 -674 0
-572 -638 -675 0
-572 -638 -676 0
-572 -638 -677 0
-572 -638 -678 0
-572 -638 -679 0
-572 -638 -680 0
-572 -638 -681 0
-572 -638 -682 0
-572 -638 -683 0
-572 -638 -684 0
-572 -638 -685 0
-572 -638 -686 0
-572 -638 -687 0
-572 -638 -688 0
-572 -638 -689 0
-572 -638 -690 0
-572 -638 -691 0
-572 -638 -692 0
-572 -638 -693 0
-572 -638 -694 0
-572 -639 -670 744 0
-572 -639 -671 0
-572 -639 -672 0
-572 -639 -673 0
-572 -639 -674 0
-572 -639 -675 0
-572 -639 -676 0
-572 -639 -677 0
-572 -639 -678 0
-572 -639 -679 0
-572 -639 -680 0
-572 -639 -681 0
-572 -639 -682 0
-572 -639 -683 0
-572 -639 -684 0
-572 -639 -685 0
-572 -639 -686 0
-572 -639 -687 0
-572 -639 -688 0
-572 -639 -689 0
-572 -639 -690 0
-572 -639 -691 0
-572 -639 -692 0
-572 -639 -693 0
-572 -639 -694 0
-572 -640 -670 0
-572 -640 -671 0
-572 -640 -672 0
-572 -640 -673 0
-572 -640 -674 0
-572 -640 -675 0
-572 -640 -676 0
-572 -640 -677 0
-572 -640 -678 0
-572 -640 -679 0
-572 -640 -680 0
-572 -640 -681 0
-572 -640 -682 0
-572 -640 -683 0
-572 -640 -684 0
-572 -640 -685 0
-572 -640 -686 0
-572 -640 -687 0
-572 -640 -688 0
-572 -640 -689 0
-572 -640 -690 0
-572 -640 -691 0
-572 -640 -692 0
-572 -640 -693 0
-572 -640 -694 0
-572 -641 -670 0
-572 -641 -671 0
-572 -641 -672 0
-572 -641 -673 0
-572 -641 -674 0
-572 -641 -675 0
-572 -641 -676 0
-572 -641 -677 0
-572 -641 -678 0
-572 -641 -679 0
-572 -641 -680 0
-572 -641 -681 0
-572 -641 -682 0
-572 -641 -683 0
-572 -641 -684 0
-572 -641 -685 0
-572 -641 -686 0
-572 -641 -687 0
-572 -641 -688 0
-572 -641 -689 0
-572 -641 -690 0
-572 -641 -691 0
-572 -641 -692 0
-572 -641 -693 0
-572 -641 -694 0
-572 -642 -670 0
-572 -642 -671 0
-572 -642 -672 0
-572 -642 -673 0
-572 -642 -674 0
-572 -642 -675 0
-572 -642 -676 0
-572 -642 -677 0
-572 -642 -678 0
-572 -642 -679 0
-572 -642 -680 0
-572 -642 -681 0
-572 -642 -682 0
-572 -642 -683 0
-572 -642 -684 0
-572 -642 -685 0
-572 -642 -686 0
-572 -642 -687 0
-572 -642 -688 0
-572 -642 -689 0
-572 -642 -690 0
-572 -642 -691 0
-572 -642 -692 0
-572 -642 -693 0
-572 -642 -694 0
-572 -643 -670 0
-572 -643 -671 0
-572 -643 -672 0
-572 -643 -673 0
-572 -643 -674 0
-572 -643 -675 0
-572 -643 -676 0
-572 -643 -677 0
-572 -643 -678 0
-572 -643 -679 0
-572 -643 -680 0
-572 -643 -681 0
-572 -643 -682 0
-572 -643 -683 0
-572 -643 -684 0
-572 -643 -685 0
-572 -643 -686 0
-572 -643 -687 0
-572 -643 -688 0
-572 -643 -689 0
-572 -643 -690 0
-572 -643 -691 0
-572 -643 -692 0
-572 -643 -693 0
-572 -643 -694 0
-572 -644 -670 0
-572 -644 -671 0
-572 -644 -672 0
-572 -644 -673 0
-572 -644 -674 0
-572 -644 -675 0
-572 -644 -676 0
-572 -644 -677 0
-572 -644 -678 0
-572 -644 -679 0
-572 -644 -680 0
-572 -644 -681 0
-572 -644 -682 0
-572 -644 -683 0
-572 -644 -684 0
-572 -644 -685 0
-572 -644 -686 0
-572 -644 -687 0
-572 -644 -688 0
-572 -644 -689 0
-572 -644 -690 0
-572 -644 -691 0
-572 -644 -692 0
-572 -644 -693 0
-572 -644 -694 0
-573 -620 -670 726 0
-573 -620 -671 727 0
-573 -620 -672 728 0
-573 -620 -673 729 0
-573 -620 -674 730 0
-573 -620 -675 731 0
-573 -620 -676 732 0
-573 -620 -677 733 0
-573 -620 -678 734 0
-573 -620 -679 735 0
-573 -620 -680 736 0
-573 -620 -681 737 0
-573 -620 -682 738 0
-573 -620 -683 739 0
-573 -620 -684 740 0
-573 -620 -685 741 0
-573 -620 -686 742 0
-573 -620 -687 743 0
-573 -620 -688 744 0
-573 -620 -689 0
-573 -620 -690 0
-573 -620 -691 0
-573 -620 -692 0
-573 -620 -693 0
-573 -620 -694 0
-573 -621 -670 727 0
-573 -621 -671 728 0
-573 -621 -672 729 0
-573 -621 -673 730 0
-573 -621 -674 731 0
-573 -621 -675 732 0
-573 -621 -676 733 0
-573 -621 -677 734 0
-573 -621 -678 735 0
-573 -621 -679 736 0
-573 -621 -680 737 0
-573 -621 -681 738 0
-573 -621 -682 739 0
-573 -621 -683 740 0
-573 -621 -684 741 0
-573 -621 -685 742 0
-573 -621 -686 743 0
-573 -621 -687 744 0
-573 -621 -688 0
-573 -621 -689 0
-573 -621 -690 0
-573 -621 -691 0
-573 -621 -692 0
-573 -621 -693 0
-573 -621 -694 0
-573 -622 -670 728 0
-573 -622 -671 729 0
-573 -622 -672 730 0
-573 -622 -673 731 0
-573 -622 -674 732 0
-573 -622 -675 733 0
-573 -622 -676 734 0
-573 -622 -677 735 0
-573 -622 -678 736 0
-573 -622 -679 737 0
-573 -622 -680 738 0
-573 -622 -681 739 0
-573 -622 -682 740 0
-573 -622 -683 741 0
-573 -622 -684 742 0
-573 -622 -685 743 0
-573 -622 -686 744 0
-573 -622 -687 0
-573 -622 -688 0
-573 -622 -689 0
-573 -622 -690 0
-573 -622 -691 0
-573 -622 -692 0
-573 -622 -693 0
-573 -622 -694 0
-573 -623 -670 729 0
-573 -623 -671 730 0
-573 -623 -672 731 0
-573 -623 -673 732 0
-573 -623 -674 733 0
-573 -623 -675 734 0
-573 -623 -676 735 0
-573 -623 -677 736 0
-573 -623 -678 737 0
-573 -623 -679 738 0
-573 -623 -680 739 0
-573 -623 -681 740 0
-573 -623 -682 741 0
-573 -623 -683 742 0
-573 -623 -684 743 0
-573 -623 -685 744 0
-573 -623 -686 0
-573 -623 -687 0
-573 -623 -688 0
-573 -623 -689 0
-573 -623 -690 0
-573 -623 -691 0
-573 -623 -692 0
-573 -623 -693 0
-573 -623 -694 0
-573 -624 -670 730 0
-573 -624 -671 731 0
-573 -624 -672 732 0
-573 -624 -673 733 0
-573 -624 -674 734 0
-573 -624 -675 735 0
-573 -624 -676 736 0
-573 -624 -677 737 0
-573 -624 -678 738 0
-573 -624 -679 739 0
-573 -624 -680 740 0
-573 -624 -681 741 0
-573 -624 -682 742 0
-573 -624 -683 743 0
-573 -624 -684 744 0
-573 -624 -685 0
-573 -624 -686 0
-573 -624 -687 0
-573 -624 -688 0
-573 -624 -689 0
-573 -624 -690 0
-573 -624 -691 0
-573 -624 -692 0
-573 -624 -693 0
-573 -624 -694 0
-573 -625 -670 731 0
-573 -625 -671 732 0
-573 -625 -672 733 0
-573 -625 -673 734 0
-573 -625 -674 735 0
-573 -625 -675 736 0
-573 -625 -676 737 0
-573 -625 -677 738 0
-573 -625 -678 739 0
-573 -625 -679 740 0
-573 -625 -680 741 0
-573 -625 -681 742 0
-573 -625 -682 743 0
-573 -625 -683 744 0
-573 -625 -684 0
-573 -625 -685 0
-573 -625 -686 0
-573 -625 -687 0
-573 -625 -688 0
-573 -625 -689 0
-573 -625 -690 0
-573 -625 -691 0
-573 -625 -692 0
-573 -625 -693 0
-573 -625 -694 0
-573 -626 -670 732 0
-573 -626 -671 733 0
-573 -626 -672 734 0
-573 -626 -673 735 0
-573 -626 -674 736 0
-573 -626 -675 737 0
-573 -626 -676 738 0
-573 -626 -677 739 0
-573 -626 -678 740 0
-573 -626 -679 741 0
-573 -626 -680 742 0
-573 -626 -681 743 0
-573 -626 -682 744 0
-573 -626 -683 0
-573 -626 -684 0
-573 -626 -685 0
-573 -626 -686 0
-573 -626 -687 0
-573 -626 -688 0
-573 -626 -689 0
-573 -626 -690 0
-573 -626 -691 0
-573 -626 -692 0
-573 -626 -693 0
-573 -626 -694 0
-573 -627 -670 733 0
-573 -627 -671 734 0
-573 -627 -672 735 0
-573 -627 -673 736 0
-573 -627 -674 737 0
-573 -627 -675 738 0
-573 -627 -676 739 0
-573 -627 -677 740 0
-573 -627 -678 741 0
-573 -627 -679 742 0
-573 -627 -680 743 0
-573 -627 -681 744 0
-573 -627 -682 0
-573 -627 -683 0
-573 -627 -684 0
-573 -627 -685 0
-573 -627 -686 0
-573 -627 -687 0
-573 -627 -688 0
-573 -627 -689 0
-573 -627 -690 0
-573 -627 -691 0
-573 -627 -692 0
-573 -627 -693 0
-573 -627 -694 0
-573 -628 -670 734 0
-573 -628 -671 735 0
-573 -628 -672 736 0
-573 -628 -673 737 0
-573 -628 -674 738 0
-573 -628 -675 739 0
-573 -628 -676 740 0
-573 -628 -677 741 0
-573 -628 -678 742 0
-573 -628 -679 743 0
-573 -628 -680 744 0
-573 -628 -681 0
-573 -628 -682 0
-573 -628 -683 0
-573 -628 -684 0
-573 -628 -685 0
-573 -628 -686 0
-573 -628 -687 0
-573 -628 -688 0
-573 -628 -689 0
-573 -628 -690 0
-573 -628 -691 0
-573 -628 -692 0
-573 -628 -693 0
-573 -628 -694 0
-573 -629 -670 735 0
-573 -629 -671 736 0
-573 -629 -672 737 0
-573 -629 -673 738 0
-573 -629 -674 739 0
-573 -629 -675 740 0
-573 -629 -676 741 0
-573 -629 -677 742 0
-573 -629 -678 743 0
-573 -629 -679 744 0
-573 -629 -680 0
-573 -629 -681 0
-573 -629 -682 0
-573 -629 -683 0
-573 -629 -684 0
-573 -629 -685 0
-573 -629 -686 0
-573 -629 -687 0
-573 -629 -688 0
-573 -629 -689 0
-573 -629 -690 0
-573 -629 -691 0
-573 -629 -692 0
-573 -629 -693 0
-573 -629 -694 0
-573 -630 -670 736 0
-573 -630 -671 737 0
-573 -630 -672 738 0
-573 -630 -673 739 0
-573 -630 -674 740 0
-573 -630 -675 741 0
-573 -630 -676 742 0
-573 -630 -677 743 0
-573 -630 -678 744 0
-573 -630 -679 0
-573 -630 -680 0
-573 -630 -681 0
-573 -630 -682 0
-573 -630 -683 0
-573 -630 -684 0
-573 -630 -685 0
-573 -630 -686 0
-573 -630 -687 0
-573 -630 -688 0
-573 -630 -689 0
-573 -630 -690 0
-573 -630 -691 0
-573 -630 -692 0
-573 -630 -693 0
-573 -630 -694 0
-573 -631 -670 737 0
-573 -631 -671 738 0
-573 -631 -672 739 0
-573 -631 -673 740 0
-573 -631 -674 741 0
-573 -631 -675 742 0
-573 -631 -676 743 0
-573 -631 -677 744 0
-573 -631 -678 0
-573 -631 -679 0
-573 -631 -680 0
-573 -631 -681 0
-573 -631 -682 0
-573 -631 -683 0
-573 -631 -684 0
-573 -631 -685 0
-573 -631 -686 0
-573 -631 -687 0
-573 -631 -688 0
-573 -631 -689 0
-573 -631 -690 0
-573 -631 -691 0
-573 -631 -692 0
-573 -631 -693 0
-573 -631 -694 0
-573 -632 -670 738 0
-573 -632 -671 739 0
-573 -632 -672 740 0
-573 -632 -673 741 0
-573 -632 -674 742 0
-573 -632 -675 743 0
-573 -632 -676 744 0
-573 -632 -677 0
-573 -632 -678 0
-573 -632 -679 0
-573 -632 -680 0
-573 -632 -681 0
-573 -632 -682 0
-573 -632 -683 0
-573 -632 -684 0
-573 -632 -685 0
-573 -632 -686 0
-573 -632 -687 0
-573 -632 -688 0
-573 -632 -689 0
-573 -632 -690 0
-573 -632 -691 0
-573 -632 -692 0
-573 -632 -693 0
-573 -632 -694 0
-573 -633 -670 739 0
-573 -633 -671 740 0
-573 -633 -672 741 0
-573 -633 -673 742 0
-573 -633 -674 743 0
-573 -633 -675 744 0
-573 -633 -676 0
-573 -633 -677 0
-573 -633 -678 0
-573 -633 -679 0
-573 -633 -680 0
-573 -633 -681 0
-573 -633 -682 0
-573 -633 -683 0
-573 -633 -684 0
-573 -633 -685 0
-573 -633 -686 0
-573 -633 -687 0
-573 -633 -688 0
-573 -633 -689 0
-573 -633 -690 0
-573 -633 -691 0
-573 -633 -692 0
-573 -633 -693 0
-573 -633 -694 0
-573 -634 -670 740 0
-573 -634 -671 741 0
-573 -634 -672 742 0
-573 -634 -673 743 0
-573 -634 -674 744 0
-573 -634 -675 0
-573 -634 -676 0
-573 -634 -677 0
-573 -634 -678 0
-573 -634 -679 0
-573 -634 -680 0
-573 -634 -681 0
-573 -634 -682 0
-573 -634 -683 0
-573 -634 -684 0
-573 -634 -685 0
-573 -634 -686 0
-573 -634 -687 0
-573 -634 -688 0
-573 -634 -689 0
-573 -634 -690 0
-573 -634 -691 0
-573 -634 -692 0
-573 -634 -693 0
-573 -634 -694 0
-573 -635 -670 741 0
-573 -635 -671 742 0
-573 -635 -672 743 0
-573 -635 -673 744 0
-573 -635 -674 0
-573 -635 -675 0
-573 -635 -676 0
-573 -635 -677 0
-573 -635 -678 0
-573 -635 -679 0
-573 -635 -680 0
-573 -635 -681 0
-573 -635 -682 0
-573 -635 -683 0
-573 -635 -684 0
-573 -635 -685 0
-573 -635 -686 0
-573 -635 -687 0
-573 -635 -688 0
-573 -635 -689 0
-573 -635 -690 0
-573 -635 -691 0
-573 -635 -692 0
-573 -635 -693 0
-573 -635 -694 0
-573 -636 -670 742 0
-573 -636 -671 743 0
-573 -636 -672 744 0
-573 -636 -673 0
-573 -636 -674 0
-573 -636 -675 0
-573 -636 -676 0
-573 -636 -677 0
-573 -636 -678 0
-573 -636 -679 0
-573 -636 -680 0
-573 -636 -681 0
-573 -636 -682 0
-573 -636 -683 0
-573 -636 -684 0
-573 -636 -685 0
-573 -636 -686 0
-573 -636 -687 0
-573 -636 -688 0
-573 -636 -689 0
-573 -636 -690 0
-573 -636 -691 0
-573 -636 -692 0
-573 -636 -693 0
-573 -636 -694 0
-573 -637 -670 743 0
-573 -637 -671 744 0
-573 -637 -672 0
-573 -637 -673 0
-573 -637 -674 0
-573 -637 -675 0
-573 -637 -676 0
-573 -637 -677 0
-573 -637 -678 0
-573 -637 -679 0
-573 -637 -680 0
-573 -637 -681 0
-573 -637 -682 0
-573 -637 -683 0
-573 -637 -684 0
-573 -637 -685 0
-573 -637 -686 0
-573 -637 -687 0
-573 -637 -688 0
-573 -637 -689 0
-573 -637 -690 0
-573 -637 -691 0
-573 -637 -692 0
-573 -637 -693 0
-573 -637 -694 0
-573 -638 -670 744 0
-573 -638 -671 0
-573 -638 -672 0
-573 -638 -673 0
-573 -638 -674 0
-573 -638 -675 0
-573 -638 -676 0
-573 -638 -677 0
-573 -638 -678 0
-573 -638 -679 0
-573 -638 -680 0
-573 -638 -681 0
-573 -638 -682 0
-573 -638 -683 0
-573 -638 -684 0
-573 -638 -685 0
-573 -638 -686 0
-573 -638 -687 0
-573 -638 -688 0
-573 -638 -689 0
-573 -638 -690 0
-573 -638 -691 0
-573 -638 -692 0
-573 -638 -693 0
-573 -638 -694 0
-573 -639 -670 0
-573 -639 -671 0
-573 -639 -672 0
-573 -639 -673 0
-573 -639 -674 0
-573 -639 -675 0
-573 -639 -676 0
-573 -639 -677 0
-573 -639 -678 0
-573 -639 -679 0
-573 -639 -680 0
-573 -639 -681 0
-573 -639 -682 0
-573 -639 -683 0
-573 -639 -684 0
-573 -639 -685 0
-573 -639 -686 0
-573 -639 -687 0
-573 -639 -688 0
-573 -639 -689 0
-573 -639 -690 0
-573 -639 -691 0
-573 -639 -692 0
-573 -639 -693 0
-573 -639 -694 0
-573 -640 -670 0
-573 -640 -671 0
-573 -640 -672 0
-573 -640 -673 0
-573 -640 -674 0
-573 -640 -675 0
-573 -640 -676 0
-573 -640 -677 0
-573 -640 -678 0
-573 -640 -679 0
-573 -640 -680 0
-573 -640 -681 0
-573 -640 -682 0
-573 -640 -683 0
-573 -640 -684 0
-573 -640 -685 0
-573 -640 -686 0
-573 -640 -687 0
-573 -640 -688 0
-573 -640 -689 0
-573 -640 -690 0
-573 -640 -691 0
-573 -640 -692 0
-573 -640 -693 0
-573 -640 -694 0
-573 -641 -670 0
-573 -641 -671 0
-573 -641 -672 0
-573 -641 -673 0
-573 -641 -674 0
-573 -641 -675 0
-573 -641 -676 0
-573 -641 -677 0
-573 -641 -678 0
-573 -641 -679 0
-573 -641 -680 0
-573 -641 -681 0
-573 -641 -682 0
-573 -641 -683 0
-573 -641 -684 0
-573 -641 -685 0
-573 -641 -686 0
-573 -641 -687 0
-573 -641 -688 0
-573 -641 -689 0
-573 -641 -690 0
-573 -641 -691 0
-573 -641 -692 0
-573 -641 -693 0
-573 -641 -694 0
-573 -642 -670 0
-573 -642 -671 0
-573 -642 -672 0
-573 -642 -673 0
-573 -642 -674 0
-573 -642 -675 0
-573 -642 -676 0
-573 -642 -677 0
-573 -642 -678 0
-573 -642 -679 0
-573 -642 -680 0
-573 -642 -681 0
-573 -642 -682 0
-573 -642 -683 0
-573 -642 -684 0
-573 -642 -685 0
-573 -642 -686 0
-573 -642 -687 0
-573 -642 -688 0
-573 -642 -689 0
-573 -642 -690 0
-573 -642 -691 0
-573 -642 -692 0
-573 -642 -693 0
-573 -642 -694 0
-573 -643 -670 0
-573 -643 -671 0
-573 -643 -672 0
-573 -643 -673 0
-573 -643 -674 0
-573 -643 -675 0
-573 -643 -676 0
-573 -643 -677 0
-573 -643 -678 0
-573 -643 -679 0
-573 -643 -680 0
-573 -643 -681 0
-573 -643 -682 0
-573 -643 -683 0
-573 -643 -684 0
-573 -643 -685 0
-573 -643 -686 0
-573 -643 -687 0
-573 -643 -688 0
-573 -643 -689 0
-573 -643 -690 0
-573 -643 -691 0
-573 -643 -692 0
-573 -643 -693 0
-573 -643 -694 0
-573 -644 -670 0
-573 -644 -671 0
-573 -644 -672 0
-573 -644 -673 0
-573 -644 -674 0
-573 -644 -675 0
-573 -644 -676 0
-573 -644 -677 0
-573 -644 -678 0
-573 -644 -679 0
-573 -644 -680 0
-573 -644 -681 0
-573 -644 -682 0
-573 -644 -683 0
-573 -644 -684 0
-573 -644 -685 0
-573 -644 -686 0
-573 -644 -687 0
-573 -644 -688 0
-573 -644 -689 0
-573 -644 -690 0
-573 -644 -691 0
-573 -644 -692 0
-573 -644 -693 0
-573 -644 -694 0
-574 -620 -670 727 0
-574 -620 -671 728 0
-574 -620 -672 729 0
-574 -620 -673 730 0
-574 -620 -674 731 0
-574 -620 -675 732 0
-574 -620 -676 733 0
-574 -620 -677 734 0
-574 -620 -678 735 0
-574 -620 -679 736 0
-574 -620 -680 737 0
-574 -620 -681 738 0
-574 -620 -682 739 0
-574 -620 -683 740 0
-574 -620 -684 741 0
-574 -620 -685 742 0
-574 -620 -686 743 0
-574 -620 -687 744 0
-574 -620 -688 0
-574 -620 -689 0
-574 -620 -690 0
-574 -620 -691 0
-574 -620 -692 0
-574 -620 -693 0
-574 -620 -694 0
-574 -621 -670 728 0
-574 -621 -671 729 0
-574 -621 -672 730 0
-574 -621 -673 731 0
-574 -621 -674 732 0
-574 -621 -675 733 0
-574 -621 -676 734 0
-574 -621 -677 735 0
-574 -621 -678 736 0
-574 -621 -679 737 0
-574 -621 -680 738 0
-574 -621 -681 739 0
-574 -621 -682 740 0
-574 -621 -683 741 0
-574 -621 -684 742 0
-574 -621 -685 743 0
-574 -621 -686 744 0
-574 -621 -687 0
-574 -621 -688 0
-574 -621 -689 0
-574 -621 -690 0
-574 -621 -691 0
-574 -621 -692 0
-574 -621 -693 0
-574 -621 -694 0
-574 -622 -670 729 0
-574 -622 -671 730 0
-574 -622 -672 731 0
-574 -622 -673 732 0
-574 -622 -674 733 0
-574 -622 -675 734 0
-574 -622 -676 735 0
-574 -622 -677 736 0
-574 -622 -678 737 0
-574 -622 -679 738 0
-574 -622 -680 739 0
-574 -622 -681 740 0
-574 -622 -682 741 0
-574 -622 -683 742 0
-574 -622 -684 743 0
-574 -622 -685 744 0
-574 -622 -686 0
-574 -622 -687 0
-574 -622 -688 0
-574 -622 -689 0
-574 -622 -690 0
-574 -622 -691 0
-574 -622 -692 0
-574 -622 -693 0
-574 -622 -694 0
-574 -623 -670 730 0
-574 -623 -671 731 0
-574 -623 -672 732 0
-574 -623 -673 733 0
-574 -623 -674 734 0
-574 -623 -675 735 0
-574 -623 -676 736 0
-574 -623 -677 737 0
-574 -623 -678 738 0
-574 -623 -679 739 0
-574 -623 -680 740 0
-574 -623 -681 741 0
-574 -623 -682 742 0
-574 -623 -683 743 0
-574 -623 -684 744 0
-574 -623 -685 0
-574 -623 -686 0
-574 -623 -687 0
-574 -623 -688 0
-574 -623 -689 0
-574 -623 -690 0
-574 -623 -691 0
-574 -623 -692 0
-574 -623 -693 0
-574 -623 -694 0
-574 -624 -670 731 0
-574 -624 -671 732 0
-574 -624 -672 733 0
-574 -624 -673 734 0
-574 -624 -674 735 0
-574 -624 -675 736 0
-574 -624 -676 737 0
-574 -624 -677 738 0
-574 -624 -678 739 0
-574 -624 -679 740 0
-574 -624 -680 741 0
-574 -624 -681 742 0
-574 -624 -682 743 0
-574 -624 -683 744 0
-574 -624 -684 0
-574 -624 -685 0
-574 -624 -686 0
-574 -624 -687 0
-574 -624 -688 0
-574 -624 -689 0
-574 -624 -690 0
-574 -624 -691 0
-574 -624 -692 0
-574 -624 -693 0
-574 -624 -694 0
-574 -625 -670 732 0
-574 -625 -671 733 0
-574 -625 -672 734 0
-574 -625 -673 735 0
-574 -625 -674 736 0
-574 -625 -675 737 0
-574 -625 -676 738 0
-574 -625 -677 739 0
-574 -625 -678 740 0
-574 -625 -679 741 0
-574 -625 -680 742 0
-574 -625 -681 743 0
-574 -625 -682 744 0
-574 -625 -683 0
-574 -625 -684 0
-574 -625 -685 0
-574 -625 -686 0
-574 -625 -687 0
-574 -625 -688 0
-574 -625 -689 0
-574 -625 -690 0
-574 -625 -691 0
-574 -625 -692 0
-574 -625 -693 0
-574 -625 -694 0
-574 -626 -670 733 0
-574 -626 -671 734 0
-574 -626 -672 735 0
-574 -626 -673 736 0
-574 -626 -674 737 0
-574 -626 -675 738 0
-574 -626 -676 739 0
-574 -626 -677 740 0
-574 -626 -678 741 0
-574 -626 -679 742 0
-574 -626 -680 743 0
-574 -626 -681 744 0
-574 -626 -682 0
-574 -626 -683 0
-574 -626 -684 0
-574 -626 -685 0
-574 -626 -686 0
-574 -626 -687 0
-574 -626 -688 0
-574 -626 -689 0
-574 -626 -690 0
-574 -626 -691 0
-574 -626 -692 0
-574 -626 -693 0
-574 -626 -694 0
-574 -627 -670 734 0
-574 -627 -671 735 0
-574 -627 -672 736 0
-574 -627 -673 737 0
-574 -627 -674 738 0
-574 -627 -675 739 0
-574 -627 -676 740 0
-574 -627 -677 741 0
-574 -627 -678 742 0
-574 -627 -679 743 0
-574 -627 -680 744 0
-574 -627 -681 0
-574 -627 -682 0
-574 -627 -683 0
-574 -627 -684 0
-574 -627 -685 0
-574 -627 -686 0
-574 -627 -687 0
-574 -627 -688 0
-574 -627 -689 0
-574 -627 -690 0
-574 -627 -691 0
-574 -627 -692 0
-574 -627 -693 0
-574 -627 -694 0
-574 -628 -670 735 0
-574 -628 -671 736 0
-574 -628 -672 737 0
-574 -628 -673 738 0
-574 -628 -674 739 0
-574 -628 -675 740 0
-574 -628 -676 741 0
-574 -628 -677 742 0
-574 -628 -678 743 0
-574 -628 -679 744 0
-574 -628 -680 0
-574 -628 -681 0
-574 -628 -682 0
-574 -628 -683 0
-574 -628 -684 0
-574 -628 -685 0
-574 -628 -686 0
-574 -628 -687 0
-574 -628 -688 0
-574 -628 -689 0
-574 -628 -690 0
-574 -628 -691 0
-574 -628 -692 0
-574 -628 -693 0
-574 -628 -694 0
-574 -629 -670 736 0
-574 -629 -671 737 0
-574 -629 -672 738 0
-574 -629 -673 739 0
-574 -629 -674 740 0
-574 -629 -675 741 0
-574 -629 -676 742 0
-574 -629 -677 743 0
-574 -629 -678 744 0
-574 -629 -679 0
-574 -629 -680 0
-574 -629 -681 0
-574 -629 -682 0
-574 -629 -683 0
-574 -629 -684 0
-574 -629 -685 0
-574 -629 -686 0
-574 -629 -687 0
-574 -629 -688 0
-574 -629 -689 0
-574 -629 -690 0
-574 -629 -691 0
-574 -629 -692 0
-574 -629 -693 0
-574 -629 -694 0
-574 -630 -670 737 0
-574 -630 -671 738 0
-574 -630 -672 739 0
-574 -630 -673 740 0
-574 -630 -674 741 0
-574 -630 -675 742 0
-574 -630 -676 743 0
-574 -630 -677 744 0
-574 -630 -678 0
-574 -630 -679 0
-574 -630 -680 0
-574 -630 -681 0
-574 -630 -682 0
-574 -630 -683 0
-574 -630 -684 0
-574 -630 -685 0
-574 -630 -686 0
-574 -630 -687 0
-574 -630 -688 0
-574 -630 -689 0
-574 -630 -690 0
-574 -630 -691 0
-574 -630 -692 0
-574 -630 -693 0
-574 -630 -694 0
-574 -631 -670 738 0
-574 -631 -671 739 0
-574 -631 -672 740 0
-574 -631 -673 741 0
-574 -631 -674 742 0
-574 -631 -675 743 0
-574 -631 -676 744 0
-574 -631 -677 0
-574 -631 -678 0
-574 -631 -679 0
-574 -631 -680 0
-574 -631 -681 0
-574 -631 -682 0
-574 -631 -683 0
-574 -631 -684 0
-574 -631 -685 0
-574 -631 -686 0
-574 -631 -687 0
-574 -631 -688 0
-574 -631 -689 0
-574 -631 -690 0
-574 -631 -691 0
-574 -631 -692 0
-574 -631 -693 0
-574 -631 -694 0
-574 -632 -670 739 0
-574 -632 -671 740 0
-574 -632 -672 741 0
-574 -632 -673 742 0
-574 -632 -674 743 0
-574 -632 -675 744 0
-574 -632 -676 0
-574 -632 -677 0
-574 -632 -678 0
-574 -632 -679 0
-574 -632 -680 0
-574 -632 -681 0
-574 -632 -682 0
-574 -632 -683 0
-574 -632 -684 0
-574 -632 -685 0
-574 -632 -686 0
-574 -632 -687 0
-574 -632 -688 0
-574 -632 -689 0
-574 -632 -690 0
-574 -632 -691 0
-574 -632 -692 0
-574 -632 -693 0
-574 -632 -694 0
-574 -633 -670 740 0
-574 -633 -671 741 0
-574 -633 -672 742 0
-574 -633 -673 743 0
-574 -633 -674 744 0
-574 -633 -675 0
-574 -633 -676 0
-574 -633 -677 0
-574 -633 -678 0
-574 -633 -679 0
-574 -633 -680 0
-574 -633 -681 0
-574 -633 -682 0
-574 -633 -683 0
-574 -633 -684 0
-574 -633 -685 0
-574 -633 -686 0
-574 -633 -687 0
-574 -633 -688 0
-574 -633 -689 0
-574 -633 -690 0
-574 -633 -691 0
-574 -633 -692 0
-574 -633 -693 0
-574 -633 -694 0
-574 -634 -670 741 0
-574 -634 -671 742 0
-574 -634 -672 743 0
-574 -634 -673 744 0
-574 -634 -674 0
-574 -634 -675 0
-574 -634 -676 0
-574 -634 -677 0
-574 -634 -678 0
-574 -634 -679 0
-574 -634 -680 0
-574 -634 -681 0
-574 -634 -682 0
-574 -634 -683 0
-574 -634 -684 0
-574 -634 -685 0
-574 -634 -686 0
-574 -634 -687 0
-574 -634 -688 0
-574 -634 -689 0
-574 -634 -690 0
-574 -634 -691 0
-574 -634 -692 0
-574 -634 -693 0
-574 -634 -694 0
-574 -635 -670 742 0
-574 -635 -671 743 0
-574 -635 -672 744 0
-574 -635 -673 0
-574 -635 -674 0
-574 -635 -675 0
-574 -635 -676 0
-574 -635 -677 0
-574 -635 -678 0
-574 -635 -679 0
-574 -635 -680 0
-574 -635 -681 0
-574 -635 -682 0
-574 -635 -683 0
-574 -635 -684 0
-574 -635 -685 0
-574 -635 -686 0
-574 -635 -687 0
-574 -635 -688 0
-574 -635 -689 0
-574 -635 -690 0
-574 -635 -691 0
-574 -635 -692 0
-574 -635 -693 0
-574 -635 -694 0
-574 -636 -670 743 0
-574 -636 -671 744 0
-574 -636 -672 0
-574 -636 -673 0
-574 -636 -674 0
-574 -636 -675 0
-574 -636 -676 0
-574 -636 -677 0
-574 -636 -678 0
-574 -636 -679 0
-574 -636 -680 0
-574 -636 -681 0
-574 -636 -682 0
-574 -636 -683 0
-574 -636 -684 0
-574 -636 -685 0
-574 -636 -686 0
-574 -636 -687 0
-574 -636 -688 0
-574 -636 -689 0
-574 -636 -690 0
-574 -636 -691 0
-574 -636 -692 0
-574 -636 -693 0
-574 -636 -694 0
-574 -637 -670 744 0
-574 -637 -671 0
-574 -637 -672 0
-574 -637 -673 0
-574 -637 -674 0
-574 -637 -675 0
-574 -637 -676 0
-574 -637 -677 0
-574 -637 -678 0
-574 -637 -679 0
-574 -637 -680 0
-574 -637 -681 0
-574 -637 -682 0
-574 -637 -683 0
-574 -637 -684 0
-574 -637 -685 0
-574 -637 -686 0
-574 -637 -687 0
-574 -637 -688 0
-574 -637 -689 0
-574 -637 -690 0
-574 -637 -691 0
-574 -637 -692 0
-574 -637 -693 0
-574 -637 -694 0
-574 -638 -670 0
-574 -638 -671 0
-574 -638 -672 0
-574 -638 -673 0
-574 -638 -674 0
-574 -638 -675 0
-574 -638 -676 0
-574 -638 -677 0
-574 -638 -678 0
-574 -638 -679 0
-574 -638 -680 0
-574 -638 -681 0
-574 -638 -682 0
-574 -638 -683 0
-574 -638 -684 0
-574 -638 -685 0
-574 -638 -686 0
-574 -638 -687 0
-574 -638 -688 0
-574 -638 -689 0
-574 -638 -690 0
-574 -638 -691 0
-574 -638 -692 0
-574 -638 -693 0
-574 -638 -694 0
-574 -639 -670 0
-574 -639 -671 0
-574 -639 -672 0
-574 -639 -673 0
-574 -639 -674 0
-574 -639 -675 0
-574 -639 -676 0
-574 -639 -677 0
-574 -639 -678 0
-574 -639 -679 0
-574 -639 -680 0
-574 -639 -681 0
-574 -639 -682 0
-574 -639 -683 0
-574 -639 -684 0
-574 -639 -685 0
-574 -639 -686 0
-574 -639 -687 0
-574 -639 -688 0
-574 -639 -689 0
-574 -639 -690 0
-574 -639 -691 0
-574 -639 -692 0
-574 -639 -693 0
-574 -639 -694 0
-574 -640 -670 0
-574 -640 -671 0
-574 -640 -672 0
-574 -640 -673 0
-574 -640 -674 0
-574 -640 -675 0
-574 -640 -676 0
-574 -640 -677 0
-574 -640 -678 0
-574 -640 -679 0
-574 -640 -680 0
-574 -640 -681 0
-574 -640 -682 0
-574 -640 -683 0
-574 -640 -684 0
-574 -640 -685 0
-574 -640 -686 0
-574 -640 -687 0
-574 -640 -688 0
-574 -640 -689 0
-574 -640 -690 0
-574 -640 -691 0
-574 -640 -692 0
-574 -640 -693 0
-574 -640 -694 0
-574 -641 -670 0
-574 -641 -671 0
-574 -641 -672 0
-574 -641 -673 0
-574 -641 -674 0
-574 -641 -675 0
-574 -641 -676 0
-574 -641 -677 0
-574 -641 -678 0
-574 -641 -679 0
-574 -641 -680 0
-574 -641 -681 0
-574 -641 -682 0
-574 -641 -683 0
-574 -641 -684 0
-574 -641 -685 0
-574 -641 -686 0
-574 -641 -687 0
-574 -641 -688 0
-574 -641 -689 0
-574 -641 -690 0
-574 -641 -691 0
-574 -641 -692 0
-574 -641 -693 0
-574 -641 -694 0
-574 -642 -670 0
-574 -642 -671 0
-574 -642 -672 0
-574 -642 -673 0
-574 -642 -674 0
-574 -642 -675 0
-574 -642 -676 0
-574 -642 -677 0
-574 -642 -678 0
-574 -642 -679 0
-574 -642 -680 0
-574 -642 -681 0
-574 -642 -682 0
-574 -642 -683 0
-574 -642 -684 0
-574 -642 -685 0
-574 -642 -686 0
-574 -642 -687 0
-574 -642 -688 0
-574 -642 -689 0
-574 -642 -690 0
-574 -642 -691 0
-574 -642 -692 0
-574 -642 -693 0
-574 -642 -694 0
-574 -643 -670 0
-574 -643 -671 0
-574 -643 -672 0
-574 -643 -673 0
-574 -643 -674 0
-574 -643 -675 0
-574 -643 -676 0
-574 -643 -677 0
-574 -643 -678 0
-574 -643 -679 0
-574 -643 -680 0
-574 -643 -681 0
-574 -643 -682 0
-574 -643 -683 0
-574 -643 -684 0
-574 -643 -685 0
-574 -643 -686 0
-574 -643 -687 0
-574 -643 -688 0
-574 -643 -689 0
-574 -643 -690 0
-574 -643 -691 0
-574 -643 -692 0
-574 -643 -693 0
-574 -643 -694 0
-574 -644 -670 0
-574 -644 -671 0
-574 -644 -672 0
-574 -644 -673 0
-574 -644 -674 0
-574 -644 -675 0
-574 -644 -676 0
-574 -644 -677 0
-574 -644 -678 0
-574 -644 -679 0
-574 -644 -680 0
-574 -644 -681 0
-574 -644 -682 0
-574 -644 -683 0
-574 -644 -684 0
-574 -644 -685 0
-574 -644 -686 0
-574 -644 -687 0
-574 -644 -688 0
-574 -644 -689 0
-574 -644 -690 0
-574 -644 -691 0
-574 -644 -692 0
-574 -644 -693 0
-574 -644 -694 0
-575 -620 -670 728 0
-575 -620 -671 729 0
-575 -620 -672 730 0
-575 -620 -673 731 0
-575 -620 -674 732 0
-575 -620 -675 733 0
-575 -620 -676 734 0
-575 -620 -677 735 0
-575 -620 -678 736 0
-575 -620 -679 737 0
-575 -620 -680 738 0
-575 -620 -681 739 0
-575 -620 -682 740 0
-575 -620 -683 741 0
-575 -620 -684 742 0
-575 -620 -685 743 0
-575 -620 -686 744 0
-575 -620 -687 0
-575 -620 -688 0
-575 -620 -689 0
-575 -620 -690 0
-575 -620 -691 0
-575 -620 -692 0
-575 -620 -693 0
-575 -620 -694 0
-575 -621 -670 729 0
-575 -621 -671 730 0
-575 -621 -672 731 0
-575 -621 -673 732 0
-575 -621 -674 733 0
-575 -621 -675 734 0
-575 -621 -676 735 0
-575 -621 -677 736 0
-575 -621 -678 737 0
-575 -621 -679 738 0
-575 -621 -680 739 0
-575 -621 -681 740 0
-575 -621 -682 741 0
-575 -621 -683 742 0
-575 -621 -684 743 0
-575 -621 -685 744 0
-575 -621 -686 0
-575 -621 -687 0
-575 -621 -688 0
-575 -621 -689 0
-575 -621 -690 0
-575 -621 -691 0
-575 -621 -692 0
-575 -621 -693 0
-575 -621 -694 0
-575 -622 -670 730 0
-575 -622 -671 731 0
-575 -622 -672 732 0
-575 -622 -673 733 0
-575 -622 -674 734 0
-575 -622 -675 735 0
-575 -622 -676 736 0
-575 -622 -677 737 0
-575 -622 -678 738 0
-575 -622 -679 739 0
-575 -622 -680 740 0
-575 -622 -681 741 0
-575 -622 -682 742 0
-575 -622 -683 743 0
-575 -622 -684 744 0
-575 -622 -685 0
-575 -622 -686 0
-575 -622 -687 0
-575 -622 -688 0
-575 -622 -689 0
-575 -622 -690 0
-575 -622 -691 0
-575 -622 -692 0
-575 -622 -693 0
-575 -622 -694 0
-575 -623 -670 731 0
-575 -623 -671 732 0
-575 -623 -672 733 0
-575 -623 -673 734 0
-575 -623 -674 735 0
-575 -623 -675 736 0
-575 -623 -676 737 0
-575 -623 -677 738 0
-575 -623 -678 739 0
-575 -623 -679 740 0
-575 -623 -680 741 0
-575 -623 -681 742 0
-575 -623 -682 743 0
-575 -623 -683 744 0
-575 -623 -684 0
-575 -623 -685 0
-575 -623 -686 0
-575 -623 -687 0
-575 -623 -688 0
-575 -623 -689 0
-575 -623 -690 0
-575 -623 -691 0
-575 -623 -692 0
-575 -623 -693 0
-575 -623 -694 0
-575 -624 -670 732 0
-575 -624 -671 733 0
-575 -624 -672 734 0
-575 -624 -673 735 0
-575 -624 -674 736 0
-575 -624 -675 737 0
-575 -624 -676 738 0
-575 -624 -677 739 0
-575 -624 -678 740 0
-575 -624 -679 741 0
-575 -624 -680 742 0
-575 -624 -681 743 0
-575 -624 -682 744 0
-575 -624 -683 0
-575 -624 -684 0
-575 -624 -685 0
-575 -624 -686 0
-575 -624 -687 0
-575 -624 -688 0
-575 -624 -689 0
-575 -624 -690 0
-575 -624 -691 0
-575 -624 -692 0
-575 -624 -693 0
-575 -624 -694 0
-575 -625 -670 733 0
-575 -625 -671 734 0
-575 -625 -672 735 0
-575 -625 -673 736 0
-575 -625 -674 737 0
-575 -625 -675 738 0
-575 -625 -676 739 0
-575 -625 -677 740 0
-575 -625 -678 741 0
-575 -625 -679 742 0
-575 -625 -680 743 0
-575 -625 -681 744 0
-575 -625 -682 0
-575 -625 -683 0
-575 -625 -684 0
-575 -625 -685 0
-575 -625 -686 0
-575 -625 -687 0
-575 -625 -688 0
-575 -625 -689 0
-575 -625 -690 0
-575 -625 -691 0
-575 -625 -692 0
-575 -625 -693 0
-575 -625 -694 0
-575 -626 -670 734 0
-575 -626 -671 735 0
-575 -626 -672 736 0
-575 -626 -673 737 0
-575 -626 -674 738 0
-575 -626 -675 739 0
-575 -626 -676 740 0
-575 -626 -677 741 0
-575 -626 -678 742 0
-575 -626 -679 743 0
-575 -626 -680 744 0
-575 -626 -681 0
-575 -626 -682 0
-575 -626 -683 0
-575 -626 -684 0
-575 -626 -685 0
-575 -626 -686 0
-575 -626 -687 0
-575 -626 -688 0
-575 -626 -689 0
-575 -626 -690 0
-575 -626 -691 0
-575 -626 -692 0
-575 -626 -693 0
-575 -626 -694 0
-575 -627 -670 735 0
-575 -627 -671 736 0
-575 -627 -672 737 0
-575 -627 -673 738 0
-575 -627 -674 739 0
-575 -627 -675 740 0
-575 -627 -676 741 0
-575 -627 -677 742 0
-575 -627 -678 743 0
-575 -627 -679 744 0
-575 -627 -680 0
-575 -627 -681 0
-575 -627 -682 0
-575 -627 -683 0
-575 -627 -684 0
-575 -627 -685 0
-575 -627 -686 0
-575 -627 -687 0
-575 -627 -688 0
-575 -627 -689 0
-575 -627 -690 0
-575 -627 -691 0
-575 -627 -692 0
-575 -627 -693 0
-575 -627 -694 0
-575 -628 -670 736 0
-575 -628 -671 737 0
-575 -628 -672 738 0
-575 -628 -673 739 0
-575 -628 -674 740 0
-575 -628 -675 741 0
-575 -628 -676 742 0
-575 -628 -677 743 0
-575 -628 -678 744 0
-575 -628 -679 0
-575 -628 -680 0
-575 -628 -681 0
-575 -628 -682 0
-575 -628 -683 0
-575 -628 -684 0
-575 -628 -685 0
-575 -628 -686 0
-575 -628 -687 0
-575 -628 -688 0
-575 -628 -689 0
-575 -628 -690 0
-575 -628 -691 0
-575 -628 -692 0
-575 -628 -693 0
-575 -628 -694 0
-575 -629 -670 737 0
-575 -629 -671 738 0
-575 -629 -672 739 0
-575 -629 -673 740 0
-575 -629 -674 741 0
-575 -629 -675 742 0
-575 -629 -676 743 0
-575 -629 -677 744 0
-575 -629 -678 0
-575 -629 -679 0
-575 -629 -680 0
-575 -629 -681 0
-575 -629 -682 0
-575 -629 -683 0
-575 -629 -684 0
-575 -629 -685 0
-575 -629 -686 0
-575 -629 -687 0
-575 -629 -688 0
-575 -629 -689 0
-575 -629 -690 0
-575 -629 -691 0
-575 -629 -692 0
-575 -629 -693 0
-575 -629 -694 0
-575 -630 -670 738 0
-575 -630 -671 739 0
-575 -630 -672 740 0
-575 -630 -673 741 0
-575 -630 -674 742 0
-575 -630 -675 743 0
-575 -630 -676 744 0
-575 -630 -677 0
-575 -630 -678 0
-575 -630 -679 0
-575 -630 -680 0
-575 -630 -681 0
-575 -630 -682 0
-575 -630 -683 0
-575 -630 -684 0
-575 -630 -685 0
-575 -630 -686 0
-575 -630 -687 0
-575 -630 -688 0
-575 -630 -689 0
-575 -630 -690 0
-575 -630 -691 0
-575 -630 -692 0
-575 -630 -693 0
-575 -630 -694 0
-575 -631 -670 739 0
-575 -631 -671 740 0
-575 -631 -672 741 0
-575 -631 -673 742 0
-575 -631 -674 743 0
-575 -631 -675 744 0
-575 -631 -676 0
-575 -631 -677 0
-575 -631 -678 0
-575 -631 -679 0
-575 -631 -680 0
-575 -631 -681 0
-575 -631 -682 0
-575 -631 -683 0
-575 -631 -684 0
-575 -631 -685 0
-575 -631 -686 0
-575 -631 -687 0
-575 -631 -688 0
-575 -631 -689 0
-575 -631 -690 0
-575 -631 -691 0
-575 -631 -692 0
-575 -631 -693 0
-575 -631 -694 0
-575 -632 -670 740 0
-575 -632 -671 741 0
-575 -632 -672 742 0
-575 -632 -673 743 0
-575 -632 -674 744 0
-575 -632 -675 0
-575 -632 -676 0
-575 -632 -677 0
-575 -632 -678 0
-575 -632 -679 0
-575 -632 -680 0
-575 -632 -681 0
-575 -632 -682 0
-575 -632 -683 0
-575 -632 -684 0
-575 -632 -685 0
-575 -632 -686 0
-575 -632 -687 0
-575 -632 -688 0
-575 -632 -689 0
-575 -632 -690 0
-575 -632 -691 0
-575 -632 -692 0
-575 -632 -693 0
-575 -632 -694 0
-575 -633 -670 741 0
-575 -633 -671 742 0
-575 -633 -672 743 0
-575 -633 -673 744 0
-575 -633 -674 0
-575 -633 -675 0
-575 -633 -676 0
-575 -633 -677 0
-575 -633 -678 0
-575 -633 -679 0
-575 -633 -680 0
-575 -633 -681 0
-575 -633 -682 0
-575 -633 -683 0
-575 -633 -684 0
-575 -633 -685 0
-575 -633 -686 0
-575 -633 -687 0
-575 -633 -688 0
-575 -633 -689 0
-575 -633 -690 0
-575 -633 -691 0
-575 -633 -692 0
-575 -633 -693 0
-575 -633 -694 0
-575 -634 -670 742 0
-575 -634 -671 743 0
-575 -634 -672 744 0
-575 -634 -673 0
-575 -634 -674 0
-575 -634 -675 0
-575 -634 -676 0
-575 -634 -677 0
-575 -634 -678 0
-575 -634 -679 0
-575 -634 -680 0
-575 -634 -681 0
-575 -634 -682 0
-575 -634 -683 0
-575 -634 -684 0
-575 -634 -685 0
-575 -634 -686 0
-575 -634 -687 0
-575 -634 -688 0
-575 -634 -689 0
-575 -634 -690 0
-575 -634 -691 0
-575 -634 -692 0
-575 -634 -693 0
-575 -634 -694 0
-575 -635 -670 743 0
-575 -635 -671 744 0
-575 -635 -672 0
-575 -635 -673 0
-575 -635 -674 0
-575 -635 -675 0
-575 -635 -676 0
-575 -635 -677 0
-575 -635 -678 0
-575 -635 -679 0
-575 -635 -680 0
-575 -635 -681 0
-575 -635 -682 0
-575 -635 -683 0
-575 -635 -684 0
-575 -635 -685 0
-575 -635 -686 0
-575 -635 -687 0
-575 -635 -688 0
-575 -635 -689 0
-575 -635 -690 0
-575 -635 -691 0
-575 -635 -692 0
-575 -635 -693 0
-575 -635 -694 0
-575 -636 -670 744 0
-575 -636 -671 0
-575 -636 -672 0
-575 -636 -673 0
-575 -636 -674 0
-575 -636 -675 0
-575 -636 -676 0
-575 -636 -677 0
-575 -636 -678 0
-575 -636 -679 0
-575 -636 -680 0
-575 -636 -681 0
-575 -636 -682 0
-575 -636 -683 0
-575 -636 -684 0
-575 -636 -685 0
-575 -636 -686 0
-575 -636 -687 0
-575 -636 -688 0
-575 -636 -689 0
-575 -636 -690 0
-575 -636 -691 0
-575 -636 -692 0
-575 -636 -693 0
-575 -636 -694 0
-575 -637 -670 0
-575 -637 -671 0
-575 -637 -672 0
-575 -637 -673 0
-575 -637 -674 0
-575 -637 -675 0
-575 -637 -676 0
-575 -637 -677 0
-575 -637 -678 0
-575 -637 -679 0
-575 -637 -680 0
-575 -637 -681 0
-575 -637 -682 0
-575 -637 -683 0
-575 -637 -684 0
-575 -637 -685 0
-575 -637 -686 0
-575 -637 -687 0
-575 -637 -688 0
-575 -637 -689 0
-575 -637 -690 0
-575 -637 -691 0
-575 -637 -692 0
-575 -637 -693 0
-575 -637 -694 0
-575 -638 -670 0
-575 -638 -671 0
-575 -638 -672 0
-575 -638 -673 0
-575 -638 -674 0
-575 -638 -675 0
-575 -638 -676 0
-575 -638 -677 0
-575 -638 -678 0
-575 -638 -679 0
-575 -638 -680 0
-575 -638 -681 0
-575 -638 -682 0
-575 -638 -683 0
-575 -638 -684 0
-575 -638 -685 0
-575 -638 -686 0
-575 -638 -687 0
-575 -638 -688 0
-575 -638 -689 0
-575 -638 -690 0
-575 -638 -691 0
-575 -638 -692 0
-575 -638 -693 0
-575 -638 -694 0
-575 -639 -670 0
-575 -639 -671 0
-575 -639 -672 0
-575 -639 -673 0
-575 -639 -674 0
-575 -639 -675 0
-575 -639 -676 0
-575 -639 -677 0
-575 -639 -678 0
-575 -639 -679 0
-575 -639 -680 0
-575 -639 -681 0
-575 -639 -682 0
-575 -639 -683 0
-575 -639 -684 0
-575 -639 -685 0
-575 -639 -686 0
-575 -639 -687 0
-575 -639 -688 0
-575 -639 -689 0
-575 -639 -690 0
-575 -639 -691 0
-575 -639 -692 0
-575 -639 -693 0
-575 -639 -694 0
-575 -640 -670 0
-575 -640 -671 0
-575 -640 -672 0
-575 -640 -673 0
-575 -640 -674 0
-575 -640 -675 0
-575 -640 -676 0
-575 -640 -677 0
-575 -640 -678 0
-575 -640 -679 0
-575 -640 -680 0
-575 -640 -681 0
-575 -640 -682 0
-575 -640 -683 0
-575 -640 -684 0
-575 -640 -685 0
-575 -640 -686 0
-575 -640 -687 0
-575 -640 -688 0
-575 -640 -689 0
-575 -640 -690 0
-575 -640 -691 0
-575 -640 -692 0
-575 -640 -693 0
-575 -640 -694 0
-575 -641 -670 0
-575 -641 -671 0
-575 -641 -672 0
-575 -641 -673 0
-575 -641 -674 0
-575 -641 -675 0
-575 -641 -676 0
-575 -641 -677 0
-575 -641 -678 0
-575 -641 -679 0
-575 -641 -680 0
-575 -641 -681 0
-575 -641 -682 0
-575 -641 -683 0
-575 -641 -684 0
-575 -641 -685 0
-575 -641 -686 0
-575 -641 -687 0
-575 -641 -688 0
-575 -641 -689 0
-575 -641 -690 0
-575 -641 -691 0
-575 -641 -692 0
-575 -641 -693 0
-575 -641 -694 0
-575 -642 -670 0
-575 -642 -671 0
-575 -642 -672 0
-575 -642 -673 0
-575 -642 -674 0
-575 -642 -675 0
-575 -642 -676 0
-575 -642 -677 0
-575 -642 -678 0
-575 -642 -679 0
-575 -642 -680 0
-575 -642 -681 0
-575 -642 -682 0
-575 -642 -683 0
-575 -642 -684 0
-575 -642 -685 0
-575 -642 -686 0
-575 -642 -687 0
-575 -642 -688 0
-575 -642 -689 0
-575 -642 -690 0
-575 -642 -691 0
-575 -642 -692 0
-575 -642 -693 0
-575 -642 -694 0
-575 -643 -670 0
-575 -643 -671 0
-575 -643 -672 0
-575 -643 -673 0
-575 -643 -674 0
-575 -643 -675 0
-575 -643 -676 0
-575 -643 -677 0
-575 -643 -678 0
-575 -643 -679 0
-575 -643 -680 0
-575 -643 -681 0
-575 -643 -682 0
-575 -643 -683 0
-575 -643 -684 0
-575 -643 -685 0
-575 -643 -686 0
-575 -643 -687 0
-575 -643 -688 0
-575 -643 -689 0
-575 -643 -690 0
-575 -643 -691 0
-575 -643 -692 0
-575 -643 -693 0
-575 -643 -694 0
-575 -644 -670 0
-575 -644 -671 0
-575 -644 -672 0
-575 -644 -673 0
-575 -644 -674 0
-575 -644 -675 0
-575 -644 -676 0
-575 -644 -677 0
-575 -644 -678 0
-575 -644 -679 0
-575 -644 -680 0
-575 -644 -681 0
-575 -644 -682 0
-575 -644 -683 0
-575 -644 -684 0
-575 -644 -685 0
-575 -644 -686 0
-575 -644 -687 0
-575 -644 -688 0
-575 -644 -689 0
-575 -644 -690 0
-575 -644 -691 0
-575 -644 -692 0
-575 -644 -693 0
-575 -644 -694 0
-576 -620 -670 729 0
-576 -620 -671 730 0
-576 -620 -672 731 0
-576 -620 -673 732 0
-576 -620 -674 733 0
-576 -620 -675 734 0
-576 -620 -676 735 0
-576 -620 -677 736 0
-576 -620 -678 737 0
-576 -620 -679 738 0
-576 -620 -680 739 0
-576 -620 -681 740 0
-576 -620 -682 741 0
-576 -620 -683 742 0
-576 -620 -684 743 0
-576 -620 -685 744 0
-576 -620 -686 0
-576 -620 -687 0
-576 -620 -688 0
-576 -620 -689 0
-576 -620 -690 0
-576 -620 -691 0
-576 -620 -692 0
-576 -620 -693 0
-576 -620 -694 0
-576 -621 -670 730 0
-576 -621 -671 731 0
-576 -621 -672 732 0
-576 -621 -673 733 0
-576 -621 -674 734 0
-576 -621 -675 735 0
-576 -621 -676 736 0
-576 -621 -677 737 0
-576 -621 -678 738 0
-576 -621 -679 739 0
-576 -621 -680 740 0
-576 -621 -681 741 0
-576 -621 -682 742 0
-576 -621 -683 743 0
-576 -621 -684 744 0
-576 -621 -685 0
-576 -621 -686 0
-576 -621 -687 0
-576 -621 -688 0
-576 -621 -689 0
-576 -621 -690 0
-576 -621 -691 0
-576 -621 -692 0
-576 -621 -693 0
-576 -621 -694 0
-576 -622 -670 731 0
-576 -622 -671 732 0
-576 -622 -672 733 0
-576 -622 -673 734 0
-576 -622 -674 735 0
-576 -622 -675 736 0
-576 -622 -676 737 0
-576 -622 -677 738 0
-576 -622 -678 739 0
-576 -622 -679 740 0
-576 -622 -680 741 0
-576 -622 -681 742 0
-576 -622 -682 743 0
-576 -622 -683 744 0
-576 -622 -684 0
-576 -622 -685 0
-576 -622 -686 0
-576 -622 -687 0
-576 -622 -688 0
-576 -622 -689 0
-576 -622 -690 0
-576 -622 -691 0
-576 -622 -692 0
-576 -622 -693 0
-576 -622 -694 0
-576 -623 -670 732 0
-576 -623 -671 733 0
-576 -623 -672 734 0
-576 -623 -673 735 0
-576 -623 -674 736 0
-576 -623 -675 737 0
-576 -623 -676 738 0
-576 -623 -677 739 0
-576 -623 -678 740 0
-576 -623 -679 741 0
-576 -623 -680 742 0
-576 -623 -681 743 0
-576 -623 -682 744 0
-576 -623 -683 0
-576 -623 -684 0
-576 -623 -685 0
-576 -623 -686 0
-576 -623 -687 0
-576 -623 -688 0
-576 -623 -689 0
-576 -623 -690 0
-576 -623 -691 0
-576 -623 -692 0
-576 -623 -693 0
-576 -623 -694 0
-576 -624 -670 733 0
-576 -624 -671 734 0
-576 -624 -672 735 0
-576 -624 -673 736 0
-576 -624 -674 737 0
-576 -624 -675 738 0
-576 -624 -676 739 0
-576 -624 -677 740 0
-576 -624 -678 741 0
-576 -624 -679 742 0
-576 -624 -680 743 0
-576 -624 -681 744 0
-576 -624 -682 0
-576 -624 -683 0
-576 -624 -684 0
-576 -624 -685 0
-576 -624 -686 0
-576 -624 -687 0
-576 -624 -688 0
-576 -624 -689 0
-576 -624 -690 0
-576 -624 -691 0
-576 -624 -692 0
-576 -624 -693 0
-576 -624 -694 0
-576 -625 -670 734 0
-576 -625 -671 735 0
-576 -625 -672 736 0
-576 -625 -673 737 0
-576 -625 -674 738 0
-576 -625 -675 739 0
-576 -625 -676 740 0
-576 -625 -677 741 0
-576 -625 -678 742 0
-576 -625 -679 743 0
-576 -625 -680 744 0
-576 -625 -681 0
-576 -625 -682 0
-576 -625 -683 0
-576 -625 -684 0
-576 -625 -685 0
-576 -625 -686 0
-576 -625 -687 0
-576 -625 -688 0
-576 -625 -689 0
-576 -625 -690 0
-576 -625 -691 0
-576 -625 -692 0
-576 -625 -693 0
-576 -625 -694 0
-576 -626 -670 735 0
-576 -626 -671 736 0
-576 -626 -672 737 0
-576 -626 -673 738 0
-576 -626 -674 739 0
-576 -626 -675 740 0
-576 -626 -676 741 0
-576 -626 -677 742 0
-576 -626 -678 743 0
-576 -626 -679 744 0
-576 -626 -680 0
-576 -626 -681 0
-576 -626 -682 0
-576 -626 -683 0
-576 -626 -684 0
-576 -626 -685 0
-576 -626 -686 0
-576 -626 -687 0
-576 -626 -688 0
-576 -626 -689 0
-576 -626 -690 0
-576 -626 -691 0
-576 -626 -692 0
-576 -626 -693 0
-576 -626 -694 0
-576 -627 -670 736 0
-576 -627 -671 737 0
-576 -627 -672 738 0
-576 -627 -673 739 0
-576 -627 -674 740 0
-576 -627 -675 741 0
-576 -627 -676 742 0
-576 -627 -677 743 0
-576 -627 -678 744 0
-576 -627 -679 0
-576 -627 -680 0
-576 -627 -681 0
-576 -627 -682 0
-576 -627 -683 0
-576 -627 -684 0
-576 -627 -685 0
-576 -627 -686 0
-576 -627 -687 0
-576 -627 -688 0
-576 -627 -689 0
-576 -627 -690 0
-576 -627 -691 0
-576 -627 -692 0
-576 -627 -693 0
-576 -627 -694 0
-576 -628 -670 737 0
-576 -628 -671 738 0
-576 -628 -672 739 0
-576 -628 -673 740 0
-576 -628 -674 741 0
-576 -628 -675 742 0
-576 -628 -676 743 0
-576 -628 -677 744 0
-576 -628 -678 0
-576 -628 -679 0
-576 -628 -680 0
-576 -628 -681 0
-576 -628 -682 0
-576 -628 -683 0
-576 -628 -684 0
-576 -628 -685 0
-576 -628 -686 0
-576 -628 -687 0
-576 -628 -688 0
-576 -628 -689 0
-576 -628 -690 0
-576 -628 -691 0
-576 -628 -692 0
-576 -628 -693 0
-576 -628 -694 0
-576 -629 -670 738 0
-576 -629 -671 739 0
-576 -629 -672 740 0
-576 -629 -673 741 0
-576 -629 -674 742 0
-576 -629 -675 743 0
-576 -629 -676 744 0
-576 -629 -677 0
-576 -629 -678 0
-576 -629 -679 0
-576 -629 -680 0
-576 -629 -681 0
-576 -629 -682 0
-576 -629 -683 0
-576 -629 -684 0
-576 -629 -685 0
-576 -629 -686 0
-576 -629 -687 0
-576 -629 -688 0
-576 -629 -689 0
-576 -629 -690 0
-576 -629 -691 0
-576 -629 -692 0
-576 -629 -693 0
-576 -629 -694 0
-576 -630 -670 739 0
-576 -630 -671 740 0
-576 -630 -672 741 0
-576 -630 -673 742 0
-576 -630 -674 743 0
-576 -630 -675 744 0
-576 -630 -676 0
-576 -630 -677 0
-576 -630 -678 0
-576 -630 -679 0
-576 -630 -680 0
-576 -630 -681 0
-576 -630 -682 0
-576 -630 -683 0
-576 -630 -684 0
-576 -630 -685 0
-576 -630 -686 0
-576 -630 -687 0
-576 -630 -688 0
-576 -630 -689 0
-576 -630 -690 0
-576 -630 -691 0
-576 -630 -692 0
-576 -630 -693 0
-576 -630 -694 0
-576 -631 -670 740 0
-576 -631 -671 741 0
-576 -631 -672 742 0
-576 -631 -673 743 0
-576 -631 -674 744 0
-576 -631 -675 0
-576 -631 -676 0
-576 -631 -677 0
-576 -631 -678 0
-576 -631 -679 0
-576 -631 -680 0
-576 -631 -681 0
-576 -631 -682 0
-576 -631 -683 0
-576 -631 -684 0
-576 -631 -685 0
-576 -631 -686 0
-576 -631 -687 0
-576 -631 -688 0
-576 -631 -689 0
-576 -631 -690 0
-576 -631 -691 0
-576 -631 -692 0
-576 -631 -693 0
-576 -631 -694 0
-576 -632 -670 741 0
-576 -632 -671 742 0
-576 -632 -672 743 0
-576 -632 -673 744 0
-576 -632 -674 0
-576 -632 -675 0
-576 -632 -676 0
-576 -632 -677 0
-576 -632 -678 0
-576 -632 -679 0
-576 -632 -680 0
-576 -632 -681 0
-576 -632 -682 0
-576 -632 -683 0
-576 -632 -684 0
-576 -632 -685 0
-576 -632 -686 0
-576 -632 -687 0
-576 -632 -688 0
-576 -632 -689 0
-576 -632 -690 0
-576 -632 -691 0
-576 -632 -692 0
-576 -632 -693 0
-576 -632 -694 0
-576 -633 -670 742 0
-576 -633 -671 743 0
-576 -633 -672 744 0
-576 -633 -673 0
-576 -633 -674 0
-576 -633 -675 0
-576 -633 -676 0
-576 -633 -677 0
-576 -633 -678 0
-576 -633 -679 0
-576 -633 -680 0
-576 -633 -681 0
-576 -633 -682 0
-576 -633 -683 0
-576 -633 -684 0
-576 -633 -685 0
-576 -633 -686 0
-576 -633 -687 0
-576 -633 -688 0
-576 -633 -689 0
-576 -633 -690 0
-576 -633 -691 0
-576 -633 -692 0
-576 -633 -693 0
-576 -633 -694 0
-576 -634 -670 743 0
-576 -634 -671 744 0
-576 -634 -672 0
-576 -634 -673 0
-576 -634 -674 0
-576 -634 -675 0
-576 -634 -676 0
-576 -634 -677 0
-576 -634 -678 0
-576 -634 -679 0
-576 -634 -680 0
-576 -634 -681 0
-576 -634 -682 0
-576 -634 -683 0
-576 -634 -684 0
-576 -634 -685 0
-576 -634 -686 0
-576 -634 -687 0
-576 -634 -688 0
-576 -634 -689 0
-576 -634 -690 0
-576 -634 -691 0
-576 -634 -692 0
-576 -634 -693 0
-576 -634 -694 0
-576 -635 -670 744 0
-576 -635 -671 0
-576 -635 -672 0
-576 -635 -673 0
-576 -635 -674 0
-576 -635 -675 0
-576 -635 -676 0
-576 -635 -677 0
-576 -635 -678 0
-576 -635 -679 0
-576 -635 -680 0
-576 -635 -681 0
-576 -635 -682 0
-576 -635 -683 0
-576 -635 -684 0
-576 -635 -685 0
-576 -635 -686 0
-576 -635 -687 0
-576 -635 -688 0
-576 -635 -689 0
-576 -635 -690 0
-576 -635 -691 0
-576 -635 -692 0
-576 -635 -693 0
-576 -635 -694 0
-576 -636 -670 0
-576 -636 -671 0
-576 -636 -672 0
-576 -636 -673 0
-576 -636 -674 0
-576 -636 -675 0
-576 -636 -676 0
-576 -636 -677 0
-576 -636 -678 0
-576 -636 -679 0
-576 -636 -680 0
-576 -636 -681 0
-576 -636 -682 0
-576 -636 -683 0
-576 -636 -684 0
-576 -636 -685 0
-576 -636 -686 0
-576 -636 -687 0
-576 -636 -688 0
-576 -636 -689 0
-576 -636 -690 0
-576 -636 -691 0
-576 -636 -692 0
-576 -636 -693 0
-576 -636 -694 0
-576 -637 -670 0
-576 -637 -671 0
-576 -637 -672 0
-576 -637 -673 0
-576 -637 -674 0
-576 -637 -675 0
-576 -637 -676 0
-576 -637 -677 0
-576 -637 -678 0
-576 -637 -679 0
-576 -637 -680 0
-576 -637 -681 0
-576 -637 -682 0
-576 -637 -683 0
-576 -637 -684 0
-576 -637 -685 0
-576 -637 -686 0
-576 -637 -687 0
-576 -637 -688 0
-576 -637 -689 0
-576 -637 -690 0
-576 -637 -691 0
-576 -637 -692 0
-576 -637 -693 0
-576 -637 -694 0
-576 -638 -670 0
-576 -638 -671 0
-576 -638 -672 0
-576 -638 -673 0
-576 -638 -674 0
-576 -638 -675 0
-576 -638 -676 0
-576 -638 -677 0
-576 -638 -678 0
-576 -638 -679 0
-576 -638 -680 0
-576 -638 -681 0
-576 -638 -682 0
-576 -638 -683 0
-576 -638 -684 0
-576 -638 -685 0
-576 -638 -686 0
-576 -638 -687 0
-576 -638 -688 0
-576 -638 -689 0
-576 -638 -690 0
-576 -638 -691 0
-576 -638 -692 0
-576 -638 -693 0
-576 -638 -694 0
-576 -639 -670 0
-576 -639 -671 0
-576 -639 -672 0
-576 -639 -673 0
-576 -639 -674 0
-576 -639 -675 0
-576 -639 -676 0
-576 -639 -677 0
-576 -639 -678 0
-576 -639 -679 0
-576 -639 -680 0
-576 -639 -681 0
-576 -639 -682 0
-576 -639 -683 0
-576 -639 -684 0
-576 -639 -685 0
-576 -639 -686 0
-576 -639 -687 0
-576 -639 -688 0
-576 -639 -689 0
-576 -639 -690 0
-576 -639 -691 0
-576 -639 -692 0
-576 -639 -693 0
-576 -639 -694 0
-576 -640 -670 0
-576 -640 -671 0
-576 -640 -672 0
-576 -640 -673 0
-576 -640 -674 0
-576 -640 -675 0
-576 -640 -676 0
-576 -640 -677 0
-576 -640 -678 0
-576 -640 -679 0
-576 -640 -680 0
-576 -640 -681 0
-576 -640 -682 0
-576 -640 -683 0
-576 -640 -684 0
-576 -640 -685 0
-576 -640 -686 0
-576 -640 -687 0
-576 -640 -688 0
-576 -640 -689 0
-576 -640 -690 0
-576 -640 -691 0
-576 -640 -692 0
-576 -640 -693 0
-576 -640 -694 0
-576 -641 -670 0
-576 -641 -671 0
-576 -641 -672 0
-576 -641 -673 0
-576 -641 -674 0
-576 -641 -675 0
-576 -641 -676 0
-576 -641 -677 0
-576 -641 -678 0
-576 -641 -679 0
-576 -641 -680 0
-576 -641 -681 0
-576 -641 -682 0
-576 -641 -683 0
-576 -641 -684 0
-576 -641 -685 0
-576 -641 -686 0
-576 -641 -687 0
-576 -641 -688 0
-576 -641 -689 0
-576 -641 -690 0
-576 -641 -691 0
-576 -641 -692 0
-576 -641 -693 0
-576 -641 -694 0
-576 -642 -670 0
-576 -642 -671 0
-576 -642 -672 0
-576 -642 -673 0
-576 -642 -674 0
-576 -642 -675 0
-576 -642 -676 0
-576 -642 -677 0
-576 -642 -678 0
-576 -642 -679 0
-576 -642 -680 0
-576 -642 -681 0
-576 -642 -682 0
-576 -642 -683 0
-576 -642 -684 0
-576 -642 -685 0
-576 -642 -686 0
-576 -642 -687 0
-576 -642 -688 0
-576 -642 -689 0
-576 -642 -690 0
-576 -642 -691 0
-576 -642 -692 0
-576 -642 -693 0
-576 -642 -694 0
-576 -643 -670 0
-576 -643 -671 0
-576 -643 -672 0
-576 -643 -673 0
-576 -643 -674 0
-576 -643 -675 0
-576 -643 -676 0
-576 -643 -677 0
-576 -643 -678 0
-576 -643 -679 0
-576 -643 -680 0
-576 -643 -681 0
-576 -643 -682 0
-576 -643 -683 0
-576 -643 -684 0
-576 -643 -685 0
-576 -643 -686 0
-576 -643 -687 0
-576 -643 -688 0
-576 -643 -689 0
-576 -643 -690 0
-576 -643 -691 0
-576 -643 -692 0
-576 -643 -693 0
-576 -643 -694 0
-576 -644 -670 0
-576 -644 -671 0
-576 -644 -672 0
-576 -644 -673 0
-576 -644 -674 0
-576 -644 -675 0
-576 -644 -676 0
-576 -644 -677 0
-576 -644 -678 0
-576 -644 -679 0
-576 -644 -680 0
-576 -644 -681 0
-576 -644 -682 0
-576 -644 -683 0
-576 -644 -684 0
-576 -644 -685 0
-576 -644 -686 0
-576 -644 -687 0
-576 -644 -688 0
-576 -644 -689 0
-576 -644 -690 0
-576 -644 -691 0
-576 -644 -692 0
-576 -644 -693 0
-576 -644 -694 0
-577 -620 -670 730 0
-577 -620 -671 731 0
-577 -620 -672 732 0
-577 -620 -673 733 0
-577 -620 -674 734 0
-577 -620 -675 735 0
-577 -620 -676 736 0
-577 -620 -677 737 0
-577 -620 -678 738 0
-577 -620 -679 739 0
-577 -620 -680 740 0
-577 -620 -681 741 0
-577 -620 -682 742 0
-577 -620 -683 743 0
-577 -620 -684 744 0
-577 -620 -685 0
-577 -620 -686 0
-577 -620 -687 0
-577 -620 -688 0
-577 -620 -689 0
-577 -620 -690 0
-577 -620 -691 0
-577 -620 -692 0
-577 -620 -693 0
-577 -620 -694 0
-577 -621 -670 731 0
-577 -621 -671 732 0
-577 -621 -672 733 0
-577 -621 -673 734 0
-577 -621 -674 735 0
-577 -621 -675 736 0
-577 -621 -676 737 0
-577 -621 -677 738 0
-577 -621 -678 739 0
-577 -621 -679 740 0
-577 -621 -680 741 0
-577 -621 -681 742 0
-577 -621 -682 743 0
-577 -621 -683 744 0
-577 -621 -684 0
-577 -621 -685 0
-577 -621 -686 0
-577 -621 -687 0
-577 -621 -688 0
-577 -621 -689 0
-577 -621 -690 0
-577 -621 -691 0
-577 -621 -692 0
-577 -621 -693 0
-577 -621 -694 0
-577 -622 -670 732 0
-577 -622 -671 733 0
-577 -622 -672 734 0
-577 -622 -673 735 0
-577 -622 -674 736 0
-577 -622 -675 737 0
-577 -622 -676 738 0
-577 -622 -677 739 0
-577 -622 -678 740 0
-577 -622 -679 741 0
-577 -622 -680 742 0
-577 -622 -681 743 0
-577 -622 -682 744 0
-577 -622 -683 0
-577 -622 -684 0
-577 -622 -685 0
-577 -622 -686 0
-577 -622 -687 0
-577 -622 -688 0
-577 -622 -689 0
-577 -622 -690 0
-577 -622 -691 0
-577 -622 -692 0
-577 -622 -693 0
-577 -622 -694 0
-577 -623 -670 733 0
-577 -623 -671 734 0
-577 -623 -672 735 0
-577 -623 -673 736 0
-577 -623 -674 737 0
-577 -623 -675 738 0
-577 -623 -676 739 0
-577 -623 -677 740 0
-577 -623 -678 741 0
-577 -623 -679 742 0
-577 -623 -680 743 0
-577 -623 -681 744 0
-577 -623 -682 0
-577 -623 -683 0
-577 -623 -684 0
-577 -623 -685 0
-577 -623 -686 0
-577 -623 -687 0
-577 -623 -688 0
-577 -623 -689 0
-577 -623 -690 0
-577 -623 -691 0
-577 -623 -692 0
-577 -623 -693 0
-577 -623 -694 0
-577 -624 -670 734 0
-577 -624 -671 735 0
-577 -624 -672 736 0
-577 -624 -673 737 0
-577 -624 -674 738 0
-577 -624 -675 739 0
-577 -624 -676 740 0
-577 -624 -677 741 0
-577 -624 -678 742 0
-577 -624 -679 743 0
-577 -624 -680 744 0
-577 -624 -681 0
-577 -624 -682 0
-577 -624 -683 0
-577 -624 -684 0
-577 -624 -685 0
-577 -624 -686 0
-577 -624 -687 0
-577 -624 -688 0
-577 -624 -689 0
-577 -624 -690 0
-577 -624 -691 0
-577 -624 -692 0
-577 -624 -693 0
-577 -624 -694 0
-577 -625 -670 735 0
-577 -625 -671 736 0
-577 -625 -672 737 0
-577 -625 -673 738 0
-577 -625 -674 739 0
-577 -625 -675 740 0
-577 -625 -676 741 0
-577 -625 -677 742 0
-577 -625 -678 743 0
-577 -625 -679 744 0
-577 -625 -680 0
-577 -625 -681 0
-577 -625 -682 0
-577 -625 -683 0
-577 -625 -684 0
-577 -625 -685 0
-577 -625 -686 0
-577 -625 -687 0
-577 -625 -688 0
-577 -625 -689 0
-577 -625 -690 0
-577 -625 -691 0
-577 -625 -692 0
-577 -625 -693 0
-577 -625 -694 0
-577 -626 -670 736 0
-577 -626 -671 737 0
-577 -626 -672 738 0
-577 -626 -673 739 0
-577 -626 -674 740 0
-577 -626 -675 741 0
-577 -626 -676 742 0
-577 -626 -677 743 0
-577 -626 -678 744 0
-577 -626 -679 0
-577 -626 -680 0
-577 -626 -681 0
-577 -626 -682 0
-577 -626 -683 0
-577 -626 -684 0
-577 -626 -685 0
-577 -626 -686 0
-577 -626 -687 0
-577 -626 -688 0
-577 -626 -689 0
-577 -626 -690 0
-577 -626 -691 0
-577 -626 -692 0
-577 -626 -693 0
-577 -626 -694 0
-577 -627 -670 737 0
-577 -627 -671 738 0
-577 -627 -672 739 0
-577 -627 -673 740 0
-577 -627 -674 741 0
-577 -627 -675 742 0
-577 -627 -676 743 0
-577 -627 -677 744 0
-577 -627 -678 0
-577 -627 -679 0
-577 -627 -680 0
-577 -627 -681 0
-577 -627 -682 0
-577 -627 -683 0
-577 -627 -684 0
-577 -627 -685 0
-577 -627 -686 0
-577 -627 -687 0
-577 -627 -688 0
-577 -627 -689 0
-577 -627 -690 0
-577 -627 -691 0
-577 -627 -692 0
-577 -627 -693 0
-577 -627 -694 0
-577 -628 -670 738 0
-577 -628 -671 739 0
-577 -628 -672 740 0
-577 -628 -673 741 0
-577 -628 -674 742 0
-577 -628 -675 743 0
-577 -628 -676 744 0
-577 -628 -677 0
-577 -628 -678 0
-577 -628 -679 0
-577 -628 -680 0
-577 -628 -681 0
-577 -628 -682 0
-577 -628 -683 0
-577 -628 -684 0
-577 -628 -685 0
-577 -628 -686 0
-577 -628 -687 0
-577 -628 -688 0
-577 -628 -689 0
-577 -628 -690 0
-577 -628 -691 0
-577 -628 -692 0
-577 -628 -693 0
-577 -628 -694 0
-577 -629 -670 739 0
-577 -629 -671 740 0
-577 -629 -672 741 0
-577 -629 -673 742 0
-577 -629 -674 743 0
-577 -629 -675 744 0
-577 -629 -676 0
-577 -629 -677 0
-577 -629 -678 0
-577 -629 -679 0
-577 -629 -680 0
-577 -629 -681 0
-577 -629 -682 0
-577 -629 -683 0
-577 -629 -684 0
-577 -629 -685 0
-577 -629 -686 0
-577 -629 -687 0
-577 -629 -688 0
-577 -629 -689 0
-577 -629 -690 0
-577 -629 -691 0
-577 -629 -692 0
-577 -629 -693 0
-577 -629 -694 0
-577 -630 -670 740 0
-577 -630 -671 741 0
-577 -630 -672 742 0
-577 -630 -673 743 0
-577 -630 -674 744 0
-577 -630 -675 0
-577 -630 -676 0
-577 -630 -677 0
-577 -630 -678 0
-577 -630 -679 0
-577 -630 -680 0
-577 -630 -681 0
-577 -630 -682 0
-577 -630 -683 0
-577 -630 -684 0
-577 -630 -685 0
-577 -630 -686 0
-577 -630 -687 0
-577 -630 -688 0
-577 -630 -689 0
-577 -630 -690 0
-577 -630 -691 0
-577 -630 -692 0
-577 -630 -693 0
-577 -630 -694 0
-577 -631 -670 741 0
-577 -631 -671 742 0
-577 -631 -672 743 0
-577 -631 -673 744 0
-577 -631 -674 0
-577 -631 -675 0
-577 -631 -676 0
-577 -631 -677 0
-577 -631 -678 0
-577 -631 -679 0
-577 -631 -680 0
-577 -631 -681 0
-577 -631 -682 0
-577 -631 -683 0
-577 -631 -684 0
-577 -631 -685 0
-577 -631 -686 0
-577 -631 -687 0
-577 -631 -688 0
-577 -631 -689 0
-577 -631 -690 0
-577 -631 -691 0
-577 -631 -692 0
-577 -631 -693 0
-577 -631 -694 0
-577 -632 -670 742 0
-577 -632 -671 743 0
-577 -632 -672 744 0
-577 -632 -673 0
-577 -632 -674 0
-577 -632 -675 0
-577 -632 -676 0
-577 -632 -677 0
-577 -632 -678 0
-577 -632 -679 0
-577 -632 -680 0
-577 -632 -681 0
-577 -632 -682 0
-577 -632 -683 0
-577 -632 -684 0
-577 -632 -685 0
-577 -632 -686 0
-577 -632 -687 0
-577 -632 -688 0
-577 -632 -689 0
-577 -632 -690 0
-577 -632 -691 0
-577 -632 -692 0
-577 -632 -693 0
-577 -632 -694 0
-577 -633 -670 743 0
-577 -633 -671 744 0
-577 -633 -672 0
-577 -633 -673 0
-577 -633 -674 0
-577 -633 -675 0
-577 -633 -676 0
-577 -633 -677 0
-577 -633 -678 0
-577 -633 -679 0
-577 -633 -680 0
-577 -633 -681 0
-577 -633 -682 0
-577 -633 -683 0
-577 -633 -684 0
-577 -633 -685 0
-577 -633 -686 0
-577 -633 -687 0
-577 -633 -688 0
-577 -633 -689 0
-577 -633 -690 0
-577 -633 -691 0
-577 -633 -692 0
-577 -633 -693 0
-577 -633 -694 0
-577 -634 -670 744 0
-577 -634 -671 0
-577 -634 -672 0
-577 -634 -673 0
-577 -634 -674 0
-577 -634 -675 0
-577 -634 -676 0
-577 -634 -677 0
-577 -634 -678 0
-577 -634 -679 0
-577 -634 -680 0
-577 -634 -681 0
-577 -634 -682 0
-577 -634 -683 0
-577 -634 -684 0
-577 -634 -685 0
-577 -634 -686 0
-577 -634 -687 0
-577 -634 -688 0
-577 -634 -689 0
-577 -634 -690 0
-577 -634 -691 0
-577 -634 -692 0
-577 -634 -693 0
-577 -634 -694 0
-577 -635 -670 0
-577 -635 -671 0
-577 -635 -672 0
-577 -635 -673 0
-577 -635 -674 0
-577 -635 -675 0
-577 -635 -676 0
-577 -635 -677 0
-577 -635 -678 0
-577 -635 -679 0
-577 -635 -680 0
-577 -635 -681 0
-577 -635 -682 0
-577 -635 -683 0
-577 -635 -684 0
-577 -635 -685 0
-577 -635 -686 0
-577 -635 -687 0
-577 -635 -688 0
-577 -635 -689 0
-577 -635 -690 0
-577 -635 -691 0
-577 -635 -692 0
-577 -635 -693 0
-577 -635 -694 0
-577 -636 -670 0
-577 -636 -671 0
-577 -636 -672 0
-577 -636 -673 0
-577 -636 -674 0
-577 -636 -675 0
-577 -636 -676 0
-577 -636 -677 0
-577 -636 -678 0
-577 -636 -679 0
-577 -636 -680 0
-577 -636 -681 0
-577 -636 -682 0
-577 -636 -683 0
-577 -636 -684 0
-577 -636 -685 0
-577 -636 -686 0
-577 -636 -687 0
-577 -636 -688 0
-577 -636 -689 0
-577 -636 -690 0
-577 -636 -691 0
-577 -636 -692 0
-577 -636 -693 0
-577 -636 -694 0
-577 -637 -670 0
-577 -637 -671 0
-577 -637 -672 0
-577 -637 -673 0
-577 -637 -674 0
-577 -637 -675 0
-577 -637 -676 0
-577 -637 -677 0
-577 -637 -678 0
-577 -637 -679 0
-577 -637 -680 0
-577 -637 -681 0
-577 -637 -682 0
-577 -637 -683 0
-577 -637 -684 0
-577 -637 -685 0
-577 -637 -686 0
-577 -637 -687 0
-577 -637 -688 0
-577 -637 -689 0
-577 -637 -690 0
-577 -637 -691 0
-577 -637 -692 0
-577 -637 -693 0
-577 -637 -694 0
-577 -638 -670 0
-577 -638 -671 0
-577 -638 -672 0
-577 -638 -673 0
-577 -638 -674 0
-577 -638 -675 0
-577 -638 -676 0
-577 -638 -677 0
-577 -638 -678 0
-577 -638 -679 0
-577 -638 -680 0
-577 -638 -681 0
-577 -638 -682 0
-577 -638 -683 0
-577 -638 -684 0
-577 -638 -685 0
-577 -638 -686 0
-577 -638 -687 0
-577 -638 -688 0
-577 -638 -689 0
-577 -638 -690 0
-577 -638 -691 0
-577 -638 -692 0
-577 -638 -693 0
-577 -638 -694 0
-577 -639 -670 0
-577 -639 -671 0
-577 -639 -672 0
-577 -639 -673 0
-577 -639 -674 0
-577 -639 -675 0
-577 -639 -676 0
-577 -639 -677 0
-577 -639 -678 0
-577 -639 -679 0
-577 -639 -680 0
-577 -639 -681 0
-577 -639 -682 0
-577 -639 -683 0
-577 -639 -684 0
-577 -639 -685 0
-577 -639 -686 0
-577 -639 -687 0
-577 -639 -688 0
-577 -639 -689 0
-577 -639 -690 0
-577 -639 -691 0
-577 -639 -692 0
-577 -639 -693 0
-577 -639 -694 0
-577 -640 -670 0
-577 -640 -671 0
-577 -640 -672 0
-577 -640 -673 0
-577 -640 -674 0
-577 -640 -675 0
-577 -640 -676 0
-577 -640 -677 0
-577 -640 -678 0
-577 -640 -679 0
-577 -640 -680 0
-577 -640 -681 0
-577 -640 -682 0
-577 -640 -683 0
-577 -640 -684 0
-577 -640 -685 0
-577 -640 -686 0
-577 -640 -687 0
-577 -640 -688 0
-577 -640 -689 0
-577 -640 -690 0
-577 -640 -691 0
-577 -640 -692 0
-577 -640 -693 0
-577 -640 -694 0
-577 -641 -670 0
-577 -641 -671 0
-577 -641 -672 0
-577 -641 -673 0
-577 -641 -674 0
-577 -641 -675 0
-577 -641 -676 0
-577 -641 -677 0
-577 -641 -678 0
-577 -641 -679 0
-577 -641 -680 0
-577 -641 -681 0
-577 -641 -682 0
-577 -641 -683 0
-577 -641 -684 0
-577 -641 -685 0
-577 -641 -686 0
-577 -641 -687 0
-577 -641 -688 0
-577 -641 -689 0
-577 -641 -690 0
-577 -641 -691 0
-577 -641 -692 0
-577 -641 -693 0
-577 -641 -694 0
-577 -642 -670 0
-577 -642 -671 0
-577 -642 -672 0
-577 -642 -673 0
-577 -642 -674 0
-577 -642 -675 0
-577 -642 -676 0
-577 -642 -677 0
-577 -642 -678 0
-577 -642 -679 0
-577 -642 -680 0
-577 -642 -681 0
-577 -642 -682 0
-577 -642 -683 0
-577 -642 -684 0
-577 -642 -685 0
-577 -642 -686 0
-577 -642 -687 0
-577 -642 -688 0
-577 -642 -689 0
-577 -642 -690 0
-577 -642 -691 0
-577 -642 -692 0
-577 -642 -693 0
-577 -642 -694 0
-577 -643 -670 0
-577 -643 -671 0
-577 -643 -672 0
-577 -643 -673 0
-577 -643 -674 0
-577 -643 -675 0
-577 -643 -676 0
-577 -643 -677 0
-577 -643 -678 0
-577 -643 -679 0
-577 -643 -680 0
-577 -643 -681 0
-577 -643 -682 0
-577 -643 -683 0
-577 -643 -684 0
-577 -643 -685 0
-577 -643 -686 0
-577 -643 -687 0
-577 -643 -688 0
-577 -643 -689 0
-577 -643 -690 0
-577 -643 -691 0
-577 -643 -692 0
-577 -643 -693 0
-577 -643 -694 0
-577 -644 -670 0
-577 -644 -671 0
-577 -644 -672 0
-577 -644 -673 0
-577 -644 -674 0
-577 -644 -675 0
-577 -644 -676 0
-577 -644 -677 0
-577 -644 -678 0
-577 -644 -679 0
-577 -644 -680 0
-577 -644 -681 0
-577 -644 -682 0
-577 -644 -683 0
-577 -644 -684 0
-577 -644 -685 0
-577 -644 -686 0
-577 -644 -687 0
-577 -644 -688 0
-577 -644 -689 0
-577 -644 -690 0
-577 -644 -691 0
-577 -644 -692 0
-577 -644 -693 0
-577 -644 -694 0
-578 -620 -670 731 0
-578 -620 -671 732 0
-578 -620 -672 733 0
-578 -620 -673 734 0
-578 -620 -674 735 0
-578 -620 -675 736 0
-578 -620 -676 737 0
-578 -620 -677 738 0
-578 -620 -678 739 0
-578 -620 -679 740 0
-578 -620 -680 741 0
-578 -620 -681 742 0
-578 -620 -682 743 0
-578 -620 -683 744 0
-578 -620 -684 0
-578 -620 -685 0
-578 -620 -686 0
-578 -620 -687 0
-578 -620 -688 0
-578 -620 -689 0
-578 -620 -690 0
-578 -620 -691 0
-578 -620 -692 0
-578 -620 -693 0
-578 -620 -694 0
-578 -621 -670 732 0
-578 -621 -671 733 0
-578 -621 -672 734 0
-578 -621 -673 735 0
-578 -621 -674 736 0
-578 -621 -675 737 0
-578 -621 -676 738 0
-578 -621 -677 739 0
-578 -621 -678 740 0
-578 -621 -679 741 0
-578 -621 -680 742 0
-578 -621 -681 743 0
-578 -621 -682 744 0
-578 -621 -683 0
-578 -621 -684 0
-578 -621 -685 0
-578 -621 -686 0
-578 -621 -687 0
-578 -621 -688 0
-578 -621 -689 0
-578 -621 -690 0
-578 -621 -691 0
-578 -621 -692 0
-578 -621 -693 0
-578 -621 -694 0
-578 -622 -670 733 0
-578 -622 -671 734 0
-578 -622 -672 735 0
-578 -622 -673 736 0
-578 -622 -674 737 0
-578 -622 -675 738 0
-578 -622 -676 739 0
-578 -622 -677 740 0
-578 -622 -678 741 0
-578 -622 -679 742 0
-578 -622 -680 743 0
-578 -622 -681 744 0
-578 -622 -682 0
-578 -622 -683 0
-578 -622 -684 0
-578 -622 -685 0
-578 -622 -686 0
-578 -622 -687 0
-578 -622 -688 0
-578 -622 -689 0
-578 -622 -690 0
-578 -622 -691 0
-578 -622 -692 0
-578 -622 -693 0
-578 -622 -694 0
-578 -623 -670 734 0
-578 -623 -671 735 0
-578 -623 -672 736 0
-578 -623 -673 737 0
-578 -623 -674 738 0
-578 -623 -675 739 0
-578 -623 -676 740 0
-578 -623 -677 741 0
-578 -623 -678 742 0
-578 -623 -679 743 0
-578 -623 -680 744 0
-578 -623 -681 0
-578 -623 -682 0
-578 -623 -683 0
-578 -623 -684 0
-578 -623 -685 0
-578 -623 -686 0
-578 -623 -687 0
-578 -623 -688 0
-578 -623 -689 0
-578 -623 -690 0
-578 -623 -691 0
-578 -623 -692 0
-578 -623 -693 0
-578 -623 -694 0
-578 -624 -670 735 0
-578 -624 -671 736 0
-578 -624 -672 737 0
-578 -624 -673 738 0
-578 -624 -674 739 0
-578 -624 -675 740 0
-578 -624 -676 741 0
-578 -624 -677 742 0
-578 -624 -678 743 0
-578 -624 -679 744 0
-578 -624 -680 0
-578 -624 -681 0
-578 -624 -682 0
-578 -624 -683 0
-578 -624 -684 0
-578 -624 -685 0
-578 -624 -686 0
-578 -624 -687 0
-578 -624 -688 0
-578 -624 -689 0
-578 -624 -690 0
-578 -624 -691 0
-578 -624 -692 0
-578 -624 -693 0
-578 -624 -694 0
-578 -625 -670 736 0
-578 -625 -671 737 0
-578 -625 -672 738 0
-578 -625 -673 739 0
-578 -625 -674 740 0
-578 -625 -675 741 0
-578 -625 -676 742 0
-578 -625 -677 743 0
-578 -625 -678 744 0
-578 -625 -679 0
-578 -625 -680 0
-578 -625 -681 0
-578 -625 -682 0
-578 -625 -683 0
-578 -625 -684 0
-578 -625 -685 0
-578 -625 -686 0
-578 -625 -687 0
-578 -625 -688 0
-578 -625 -689 0
-578 -625 -690 0
-578 -625 -691 0
-578 -625 -692 0
-578 -625 -693 0
-578 -625 -694 0
-578 -626 -670 737 0
-578 -626 -671 738 0
-578 -626 -672 739 0
-578 -626 -673 740 0
-578 -626 -674 741 0
-578 -626 -675 742 0
-578 -626 -676 743 0
-578 -626 -677 744 0
-578 -626 -678 0
-578 -626 -679 0
-578 -626 -680 0
-578 -626 -681 0
-578 -626 -682 0
-578 -626 -683 0
-578 -626 -684 0
-578 -626 -685 0
-578 -626 -686 0
-578 -626 -687 0
-578 -626 -688 0
-578 -626 -689 0
-578 -626 -690 0
-578 -626 -691 0
-578 -626 -692 0
-578 -626 -693 0
-578 -626 -694 0
-578 -627 -670 738 0
-578 -627 -671 739 0
-578 -627 -672 740 0
-578 -627 -673 741 0
-578 -627 -674 742 0
-578 -627 -675 743 0
-578 -627 -676 744 0
-578 -627 -677 0
-578 -627 -678 0
-578 -627 -679 0
-578 -627 -680 0
-578 -627 -681 0
-578 -627 -682 0
-578 -627 -683 0
-578 -627 -684 0
-578 -627 -685 0
-578 -627 -686 0
-578 -627 -687 0
-578 -627 -688 0
-578 -627 -689 0
-578 -627 -690 0
-578 -627 -691 0
-578 -627 -692 0
-578 -627 -693 0
-578 -627 -694 0
-578 -628 -670 739 0
-578 -628 -671 740 0
-578 -628 -672 741 0
-578 -628 -673 742 0
-578 -628 -674 743 0
-578 -628 -675 744 0
-578 -628 -676 0
-578 -628 -677 0
-578 -628 -678 0
-578 -628 -679 0
-578 -628 -680 0
-578 -628 -681 0
-578 -628 -682 0
-578 -628 -683 0
-578 -628 -684 0
-578 -628 -685 0
-578 -628 -686 0
-578 -628 -687 0
-578 -628 -688 0
-578 -628 -689 0
-578 -628 -690 0
-578 -628 -691 0
-578 -628 -692 0
-578 -628 -693 0
-578 -628 -694 0
-578 -629 -670 740 0
-578 -629 -671 741 0
-578 -629 -672 742 0
-578 -629 -673 743 0
-578 -629 -674 744 0
-578 -629 -675 0
-578 -629 -676 0
-578 -629 -677 0
-578 -629 -678 0
-578 -629 -679 0
-578 -629 -680 0
-578 -629 -681 0
-578 -629 -682 0
-578 -629 -683 0
-578 -629 -684 0
-578 -629 -685 0
-578 -629 -686 0
-578 -629 -687 0
-578 -629 -688 0
-578 -629 -689 0
-578 -629 -690 0
-578 -629 -691 0
-578 -629 -692 0
-578 -629 -693 0
-578 -629 -694 0
-578 -630 -670 741 0
-578 -630 -671 742 0
-578 -630 -672 743 0
-578 -630 -673 744 0
-578 -630 -674 0
-578 -630 -675 0
-578 -630 -676 0
-578 -630 -677 0
-578 -630 -678 0
-578 -630 -679 0
-578 -630 -680 0
-578 -630 -681 0
-578 -630 -682 0
-578 -630 -683 0
-578 -630 -684 0
-578 -630 -685 0
-578 -630 -686 0
-578 -630 -687 0
-578 -630 -688 0
-578 -630 -689 0
-578 -630 -690 0
-578 -630 -691 0
-578 -630 -692 0
-578 -630 -693 0
-578 -630 -694 0
-578 -631 -670 742 0
-578 -631 -671 743 0
-578 -631 -672 744 0
-578 -631 -673 0
-578 -631 -674 0
-578 -631 -675 0
-578 -631 -676 0
-578 -631 -677 0
-578 -631 -678 0
-578 -631 -679 0
-578 -631 -680 0
-578 -631 -681 0
-578 -631 -682 0
-578 -631 -683 0
-578 -631 -684 0
-578 -631 -685 0
-578 -631 -686 0
-578 -631 -687 0
-578 -631 -688 0
-578 -631 -689 0
-578 -631 -690 0
-578 -631 -691 0
-578 -631 -692 0
-578 -631 -693 0
-578 -631 -694 0
-578 -632 -670 743 0
-578 -632 -671 744 0
-578 -632 -672 0
-578 -632 -673 0
-578 -632 -674 0
-578 -632 -675 0
-578 -632 -676 0
-578 -632 -677 0
-578 -632 -678 0
-578 -632 -679 0
-578 -632 -680 0
-578 -632 -681 0
-578 -632 -682 0
-578 -632 -683 0
-578 -632 -684 0
-578 -632 -685 0
-578 -632 -686 0
-578 -632 -687 0
-578 -632 -688 0
-578 -632 -689 0
-578 -632 -690 0
-578 -632 -691 0
-578 -632 -692 0
-578 -632 -693 0
-578 -632 -694 0
-578 -633 -670 744 0
-578 -633 -671 0
-578 -633 -672 0
-578 -633 -673 0
-578 -633 -674 0
-578 -633 -675 0
-578 -633 -676 0
-578 -633 -677 0
-578 -633 -678 0
-578 -633 -679 0
-578 -633 -680 0
-578 -633 -681 0
-578 -633 -682 0
-578 -633 -683 0
-578 -633 -684 0
-578 -633 -685 0
-578 -633 -686 0
-578 -633 -687 0
-578 -633 -688 0
-578 -633 -689 0
-578 -633 -690 0
-578 -633 -691 0
-578 -633 -692 0
-578 -633 -693 0
-578 -633 -694 0
-578 -634 -670 0
-578 -634 -671 0
-578 -634 -672 0
-578 -634 -673 0
-578 -634 -674 0
-578 -634 -675 0
-578 -634 -676 0
-578 -634 -677 0
-578 -634 -678 0
-578 -634 -679 0
-578 -634 -680 0
-578 -634 -681 0
-578 -634 -682 0
-578 -634 -683 0
-578 -634 -684 0
-578 -634 -685 0
-578 -634 -686 0
-578 -634 -687 0
-578 -634 -688 0
-578 -634 -689 0
-578 -634 -690 0
-578 -634 -691 0
-578 -634 -692 0
-578 -634 -693 0
-578 -634 -694 0
-578 -635 -670 0
-578 -635 -671 0
-578 -635 -672 0
-578 -635 -673 0
-578 -635 -674 0
-578 -635 -675 0
-578 -635 -676 0
-578 -635 -677 0
-578 -635 -678 0
-578 -635 -679 0
-578 -635 -680 0
-578 -635 -681 0
-578 -635 -682 0
-578 -635 -683 0
-578 -635 -684 0
-578 -635 -685 0
-578 -635 -686 0
-578 -635 -687 0
-578 -635 -688 0
-578 -635 -689 0
-578 -635 -690 0
-578 -635 -691 0
-578 -635 -692 0
-578 -635 -693 0
-578 -635 -694 0
-578 -636 -670 0
-578 -636 -671 0
-578 -636 -672 0
-578 -636 -673 0
-578 -636 -674 0
-578 -636 -675 0
-578 -636 -676 0
-578 -636 -677 0
-578 -636 -678 0
-578 -636 -679 0
-578 -636 -680 0
-578 -636 -681 0
-578 -636 -682 0
-578 -636 -683 0
-578 -636 -684 0
-578 -636 -685 0
-578 -636 -686 0
-578 -636 -687 0
-578 -636 -688 0
-578 -636 -689 0
-578 -636 -690 0
-578 -636 -691 0
-578 -636 -692 0
-578 -636 -693 0
-578 -636 -694 0
-578 -637 -670 0
-578 -637 -671 0
-578 -637 -672 0
-578 -637 -673 0
-578 -637 -674 0
-578 -637 -675 0
-578 -637 -676 0
-578 -637 -677 0
-578 -637 -678 0
-578 -637 -679 0
-578 -637 -680 0
-578 -637 -681 0
-578 -637 -682 0
-578 -637 -683 0
-578 -637 -684 0
-578 -637 -685 0
-578 -637 -686 0
-578 -637 -687 0
-578 -637 -688 0
-578 -637 -689 0
-578 -637 -690 0
-578 -637 -691 0
-578 -637 -692 0
-578 -637 -693 0
-578 -637 -694 0
-578 -638 -670 0
-578 -638 -671 0
-578 -638 -672 0
-578 -638 -673 0
-578 -638 -674 0
-578 -638 -675 0
-578 -638 -676 0
-578 -638 -677 0
-578 -638 -678 0
-578 -638 -679 0
-578 -638 -680 0
-578 -638 -681 0
-578 -638 -682 0
-578 -638 -683 0
-578 -638 -684 0
-578 -638 -685 0
-578 -638 -686 0
-578 -638 -687 0
-578 -638 -688 0
-578 -638 -689 0
-578 -638 -690 0
-578 -638 -691 0
-578 -638 -692 0
-578 -638 -693 0
-578 -638 -694 0
-578 -639 -670 0
-578 -639 -671 0
-578 -639 -672 0
-578 -639 -673 0
-578 -639 -674 0
-578 -639 -675 0
-578 -639 -676 0
-578 -639 -677 0
-578 -639 -678 0
-578 -639 -679 0
-578 -639 -680 0
-578 -639 -681 0
-578 -639 -682 0
-578 -639 -683 0
-578 -639 -684 0
-578 -639 -685 0
-578 -639 -686 0
-578 -639 -687 0
-578 -639 -688 0
-578 -639 -689 0
-578 -639 -690 0
-578 -639 -691 0
-578 -639 -692 0
-578 -639 -693 0
-578 -639 -694 0
-578 -640 -670 0
-578 -640 -671 0
-578 -640 -672 0
-578 -640 -673 0
-578 -640 -674 0
-578 -640 -675 0
-578 -640 -676 0
-578 -640 -677 0
-578 -640 -678 0
-578 -640 -679 0
-578 -640 -680 0
-578 -640 -681 0
-578 -640 -682 0
-578 -640 -683 0
-578 -640 -684 0
-578 -640 -685 0
-578 -640 -686 0
-578 -640 -687 0
-578 -640 -688 0
-578 -640 -689 0
-578 -640 -690 0
-578 -640 -691 0
-578 -640 -692 0
-578 -640 -693 0
-578 -640 -694 0
-578 -641 -670 0
-578 -641 -671 0
-578 -641 -672 0
-578 -641 -673 0
-578 -641 -674 0
-578 -641 -675 0
-578 -641 -676 0
-578 -641 -677 0
-578 -641 -678 0
-578 -641 -679 0
-578 -641 -680 0
-578 -641 -681 0
-578 -641 -682 0
-578 -641 -683 0
-578 -641 -684 0
-578 -641 -685 0
-578 -641 -686 0
-578 -641 -687 0
-578 -641 -688 0
-578 -641 -689 0
-578 -641 -690 0
-578 -641 -691 0
-578 -641 -692 0
-578 -641 -693 0
-578 -641 -694 0
-578 -642 -670 0
-578 -642 -671 0
-578 -642 -672 0
-578 -642 -673 0
-578 -642 -674 0
-578 -642 -675 0
-578 -642 -676 0
-578 -642 -677 0
-578 -642 -678 0
-578 -642 -679 0
-578 -642 -680 0
-578 -642 -681 0
-578 -642 -682 0
-578 -642 -683 0
-578 -642 -684 0
-578 -642 -685 0
-578 -642 -686 0
-578 -642 -687 0
-578 -642 -688 0
-578 -642 -689 0
-578 -642 -690 0
-578 -642 -691 0
-578 -642 -692 0
-578 -642 -693 0
-578 -642 -694 0
-578 -643 -670 0
-578 -643 -671 0
-578 -643 -672 0
-578 -643 -673 0
-578 -643 -674 0
-578 -643 -675 0
-578 -643 -676 0
-578 -643 -677 0
-578 -643 -678 0
-578 -643 -679 0
-578 -643 -680 0
-578 -643 -681 0
-578 -643 -682 0
-578 -643 -683 0
-578 -643 -684 0
-578 -643 -685 0
-578 -643 -686 0
-578 -643 -687 0
-578 -643 -688 0
-578 -643 -689 0
-578 -643 -690 0
-578 -643 -691 0
-578 -643 -692 0
-578 -643 -693 0
-578 -643 -694 0
-578 -644 -670 0
-578 -644 -671 0
-578 -644 -672 0
-578 -644 -673 0
-578 -644 -674 0
-578 -644 -675 0
-578 -644 -676 0
-578 -644 -677 0
-578 -644 -678 0
-578 -644 -679 0
-578 -644 -680 0
-578 -644 -681 0
-578 -644 -682 0
-578 -644 -683 0
-578 -644 -684 0
-578 -644 -685 0
-578 -644 -686 0
-578 -644 -687 0
-578 -644 -688 0
-578 -644 -689 0
-578 -644 -690 0
-578 -644 -691 0
-578 -644 -692 0
-578 -644 -693 0
-578 -644 -694 0
-579 -620 -670 732 0
-579 -620 -671 733 0
-579 -620 -672 734 0
-579 -620 -673 735 0
-579 -620 -674 736 0
-579 -620 -675 737 0
-579 -620 -676 738 0
-579 -620 -677 739 0
-579 -620 -678 740 0
-579 -620 -679 741 0
-579 -620 -680 742 0
-579 -620 -681 743 0
-579 -620 -682 744 0
-579 -620 -683 0
-579 -620 -684 0
-579 -620 -685 0
-579 -620 -686 0
-579 -620 -687 0
-579 -620 -688 0
-579 -620 -689 0
-579 -620 -690 0
-579 -620 -691 0
-579 -620 -692 0
-579 -620 -693 0
-579 -620 -694 0
-579 -621 -670 733 0
-579 -621 -671 734 0
-579 -621 -672 735 0
-579 -621 -673 736 0
-579 -621 -674 737 0
-579 -621 -675 738 0
-579 -621 -676 739 0
-579 -621 -677 740 0
-579 -621 -678 741 0
-579 -621 -679 742 0
-579 -621 -680 743 0
-579 -621 -681 744 0
-579 -621 -682 0
-579 -621 -683 0
-579 -621 -684 0
-579 -621 -685 0
-579 -621 -686 0
-579 -621 -687 0
-579 -621 -688 0
-579 -621 -689 0
-579 -621 -690 0
-579 -621 -691 0
-579 -621 -692 0
-579 -621 -693 0
-579 -621 -694 0
-579 -622 -670 734 0
-579 -622 -671 735 0
-579 -622 -672 736 0
-579 -622 -673 737 0
-579 -622 -674 738 0
-579 -622 -675 739 0
-579 -622 -676 740 0
-579 -622 -677 741 0
-579 -622 -678 742 0
-579 -622 -679 743 0
-579 -622 -680 744 0
-579 -622 -681 0
-579 -622 -682 0
-579 -622 -683 0
-579 -622 -684 0
-579 -622 -685 0
-579 -622 -686 0
-579 -622 -687 0
-579 -622 -688 0
-579 -622 -689 0
-579 -622 -690 0
-579 -622 -691 0
-579 -622 -692 0
-579 -622 -693 0
-579 -622 -694 0
-579 -623 -670 735 0
-579 -623 -671 736 0
-579 -623 -672 737 0
-579 -623 -673 738 0
-579 -623 -674 739 0
-579 -623 -675 740 0
-579 -623 -676 741 0
-579 -623 -677 742 0
-579 -623 -678 743 0
-579 -623 -679 744 0
-579 -623 -680 0
-579 -623 -681 0
-579 -623 -682 0
-579 -623 -683 0
-579 -623 -684 0
-579 -623 -685 0
-579 -623 -686 0
-579 -623 -687 0
-579 -623 -688 0
-579 -623 -689 0
-579 -623 -690 0
-579 -623 -691 0
-579 -623 -692 0
-579 -623 -693 0
-579 -623 -694 0
-579 -624 -670 736 0
-579 -624 -671 737 0
-579 -624 -672 738 0
-579 -624 -673 739 0
-579 -624 -674 740 0
-579 -624 -675 741 0
-579 -624 -676 742 0
-579 -624 -677 743 0
-579 -624 -678 744 0
-579 -624 -679 0
-579 -624 -680 0
-579 -624 -681 0
-579 -624 -682 0
-579 -624 -683 0
-579 -624 -684 0
-579 -624 -685 0
-579 -624 -686 0
-579 -624 -687 0
-579 -624 -688 0
-579 -624 -689 0
-579 -624 -690 0
-579 -624 -691 0
-579 -624 -692 0
-579 -624 -693 0
-579 -624 -694 0
-579 -625 -670 737 0
-579 -625 -671 738 0
-579 -625 -672 739 0
-579 -625 -673 740 0
-579 -625 -674 741 0
-579 -625 -675 742 0
-579 -625 -676 743 0
-579 -625 -677 744 0
-579 -625 -678 0
-579 -625 -679 0
-579 -625 -680 0
-579 -625 -681 0
-579 -625 -682 0
-579 -625 -683 0
-579 -625 -684 0
-579 -625 -685 0
-579 -625 -686 0
-579 -625 -687 0
-579 -625 -688 0
-579 -625 -689 0
-579 -625 -690 0
-579 -625 -691 0
-579 -625 -692 0
-579 -625 -693 0
-579 -625 -694 0
-579 -626 -670 738 0
-579 -626 -671 739 0
-579 -626 -672 740 0
-579 -626 -673 741 0
-579 -626 -674 742 0
-579 -626 -675 743 0
-579 -626 -676 744 0
-579 -626 -677 0
-579 -626 -678 0
-579 -626 -679 0
-579 -626 -680 0
-579 -626 -681 0
-579 -626 -682 0
-579 -626 -683 0
-579 -626 -684 0
-579 -626 -685 0
-579 -626 -686 0
-579 -626 -687 0
-579 -626 -688 0
-579 -626 -689 0
-579 -626 -690 0
-579 -626 -691 0
-579 -626 -692 0
-579 -626 -693 0
-579 -626 -694 0
-579 -627 -670 739 0
-579 -627 -671 740 0
-579 -627 -672 741 0
-579 -627 -673 742 0
-579 -627 -674 743 0
-579 -627 -675 744 0
-579 -627 -676 0
-579 -627 -677 0
-579 -627 -678 0
-579 -627 -679 0
-579 -627 -680 0
-579 -627 -681 0
-579 -627 -682 0
-579 -627 -683 0
-579 -627 -684 0
-579 -627 -685 0
-579 -627 -686 0
-579 -627 -687 0
-579 -627 -688 0
-579 -627 -689 0
-579 -627 -690 0
-579 -627 -691 0
-579 -627 -692 0
-579 -627 -693 0
-579 -627 -694 0
-579 -628 -670 740 0
-579 -628 -671 741 0
-579 -628 -672 742 0
-579 -628 -673 743 0
-579 -628 -674 744 0
-579 -628 -675 0
-579 -628 -676 0
-579 -628 -677 0
-579 -628 -678 0
-579 -628 -679 0
-579 -628 -680 0
-579 -628 -681 0
-579 -628 -682 0
-579 -628 -683 0
-579 -628 -684 0
-579 -628 -685 0
-579 -628 -686 0
-579 -628 -687 0
-579 -628 -688 0
-579 -628 -689 0
-579 -628 -690 0
-579 -628 -691 0
-579 -628 -692 0
-579 -628 -693 0
-579 -628 -694 0
-579 -629 -670 741 0
-579 -629 -671 742 0
-579 -629 -672 743 0
-579 -629 -673 744 0
-579 -629 -674 0
-579 -629 -675 0
-579 -629 -676 0
-579 -629 -677 0
-579 -629 -678 0
-579 -629 -679 0
-579 -629 -680 0
-579 -629 -681 0
-579 -629 -682 0
-579 -629 -683 0
-579 -629 -684 0
-579 -629 -685 0
-579 -629 -686 0
-579 -629 -687 0
-579 -629 -688 0
-579 -629 -689 0
-579 -629 -690 0
-579 -629 -691 0
-579 -629 -692 0
-579 -629 -693 0
-579 -629 -694 0
-579 -630 -670 742 0
-579 -630 -671 743 0
-579 -630 -672 744 0
-579 -630 -673 0
-579 -630 -674 0
-579 -630 -675 0
-579 -630 -676 0
-579 -630 -677 0
-579 -630 -678 0
-579 -630 -679 0
-579 -630 -680 0
-579 -630 -681 0
-579 -630 -682 0
-579 -630 -683 0
-579 -630 -684 0
-579 -630 -685 0
-579 -630 -686 0
-579 -630 -687 0
-579 -630 -688 0
-579 -630 -689 0
-579 -630 -690 0
-579 -630 -691 0
-579 -630 -692 0
-579 -630 -693 0
-579 -630 -694 0
-579 -631 -670 743 0
-579 -631 -671 744 0
-579 -631 -672 0
-579 -631 -673 0
-579 -631 -674 0
-579 -631 -675 0
-579 -631 -676 0
-579 -631 -677 0
-579 -631 -678 0
-579 -631 -679 0
-579 -631 -680 0
-579 -631 -681 0
-579 -631 -682 0
-579 -631 -683 0
-579 -631 -684 0
-579 -631 -685 0
-579 -631 -686 0
-579 -631 -687 0
-579 -631 -688 0
-579 -631 -689 0
-579 -631 -690 0
-579 -631 -691 0
-579 -631 -692 0
-579 -631 -693 0
-579 -631 -694 0
-579 -632 -670 744 0
-579 -632 -671 0
-579 -632 -672 0
-579 -632 -673 0
-579 -632 -674 0
-579 -632 -675 0
-579 -632 -676 0
-579 -632 -677 0
-579 -632 -678 0
-579 -632 -679 0
-579 -632 -680 0
-579 -632 -681 0
-579 -632 -682 0
-579 -632 -683 0
-579 -632 -684 0
-579 -632 -685 0
-579 -632 -686 0
-579 -632 -687 0
-579 -632 -688 0
-579 -632 -689 0
-579 -632 -690 0
-579 -632 -691 0
-579 -632 -692 0
-579 -632 -693 0
-579 -632 -694 0
-579 -633 -670 0
-579 -633 -671 0
-579 -633 -672 0
-579 -633 -673 0
-579 -633 -674 0
-579 -633 -675 0
-579 -633 -676 0
-579 -633 -677 0
-579 -633 -678 0
-579 -633 -679 0
-579 -633 -680 0
-579 -633 -681 0
-579 -633 -682 0
-579 -633 -683 0
-579 -633 -684 0
-579 -633 -685 0
-579 -633 -686 0
-579 -633 -687 0
-579 -633 -688 0
-579 -633 -689 0
-579 -633 -690 0
-579 -633 -691 0
-579 -633 -692 0
-579 -633 -693 0
-579 -633 -694 0
-579 -634 -670 0
-579 -634 -671 0
-579 -634 -672 0
-579 -634 -673 0
-579 -634 -674 0
-579 -634 -675 0
-579 -634 -676 0
-579 -634 -677 0
-579 -634 -678 0
-579 -634 -679 0
-579 -634 -680 0
-579 -634 -681 0
-579 -634 -682 0
-579 -634 -683 0
-579 -634 -684 0
-579 -634 -685 0
-579 -634 -686 0
-579 -634 -687 0
-579 -634 -688 0
-579 -634 -689 0
-579 -634 -690 0
-579 -634 -691 0
-579 -634 -692 0
-579 -634 -693 0
-579 -634 -694 0
-579 -635 -670 0
-579 -635 -671 0
-579 -635 -672 0
-579 -635 -673 0
-579 -635 -674 0
-579 -635 -675 0
-579 -635 -676 0
-579 -635 -677 0
-579 -635 -678 0
-579 -635 -679 0
-579 -635 -680 0
-579 -635 -681 0
-579 -635 -682 0
-579 -635 -683 0
-579 -635 -684 0
-579 -635 -685 0
-579 -635 -686 0
-579 -635 -687 0
-579 -635 -688 0
-579 -635 -689 0
-579 -635 -690 0
-579 -635 -691 0
-579 -635 -692 0
-579 -635 -693 0
-579 -635 -694 0
-579 -636 -670 0
-579 -636 -671 0
-579 -636 -672 0
-579 -636 -673 0
-579 -636 -674 0
-579 -636 -675 0
-579 -636 -676 0
-579 -636 -677 0
-579 -636 -678 0
-579 -636 -679 0
-579 -636 -680 0
-579 -636 -681 0
-579 -636 -682 0
-579 -636 -683 0
-579 -636 -684 0
-579 -636 -685 0
-579 -636 -686 0
-579 -636 -687 0
-579 -636 -688 0
-579 -636 -689 0
-579 -636 -690 0
-579 -636 -691 0
-579 -636 -692 0
-579 -636 -693 0
-579 -636 -694 0
-579 -637 -670 0
-579 -637 -671 0
-579 -637 -672 0
-579 -637 -673 0
-579 -637 -674 0
-579 -637 -675 0
-579 -637 -676 0
-579 -637 -677 0
-579 -637 -678 0
-579 -637 -679 0
-579 -637 -680 0
-579 -637 -681 0
-579 -637 -682 0
-579 -637 -683 0
-579 -637 -684 0
-579 -637 -685 0
-579 -637 -686 0
-579 -637 -687 0
-579 -637 -688 0
-579 -637 -689 0
-579 -637 -690 0
-579 -637 -691 0
-579 -637 -692 0
-579 -637 -693 0
-579 -637 -694 0
-579 -638 -670 0
-579 -638 -671 0
-579 -638 -672 0
-579 -638 -673 0
-579 -638 -674 0
-579 -638 -675 0
-579 -638 -676 0
-579 -638 -677 0
-579 -638 -678 0
-579 -638 -679 0
-579 -638 -680 0
-579 -638 -681 0
-579 -638 -682 0
-579 -638 -683 0
-579 -638 -684 0
-579 -638 -685 0
-579 -638 -686 0
-579 -638 -687 0
-579 -638 -688 0
-579 -638 -689 0
-579 -638 -690 0
-579 -638 -691 0
-579 -638 -692 0
-579 -638 -693 0
-579 -638 -694 0
-579 -639 -670 0
-579 -639 -671 0
-579 -639 -672 0
-579 -639 -673 0
-579 -639 -674 0
-579 -639 -675 0
-579 -639 -676 0
-579 -639 -677 0
-579 -639 -678 0
-579 -639 -679 0
-579 -639 -680 0
-579 -639 -681 0
-579 -639 -682 0
-579 -639 -683 0
-579 -639 -684 0
-579 -639 -685 0
-579 -639 -686 0
-579 -639 -687 0
-579 -639 -688 0
-579 -639 -689 0
-579 -639 -690 0
-579 -639 -691 0
-579 -639 -692 0
-579 -639 -693 0
-579 -639 -694 0
-579 -640 -670 0
-579 -640 -671 0
-579 -640 -672 0
-579 -640 -673 0
-579 -640 -674 0
-579 -640 -675 0
-579 -640 -676 0
-579 -640 -677 0
-579 -640 -678 0
-579 -640 -679 0
-579 -640 -680 0
-579 -640 -681 0
-579 -640 -682 0
-579 -640 -683 0
-579 -640 -684 0
-579 -640 -685 0
-579 -640 -686 0
-579 -640 -687 0
-579 -640 -688 0
-579 -640 -689 0
-579 -640 -690 0
-579 -640 -691 0
-579 -640 -692 0
-579 -640 -693 0
-579 -640 -694 0
-579 -641 -670 0
-579 -641 -671 0
-579 -641 -672 0
-579 -641 -673 0
-579 -641 -674 0
-579 -641 -675 0
-579 -641 -676 0
-579 -641 -677 0
-579 -641 -678 0
-579 -641 -679 0
-579 -641 -680 0
-579 -641 -681 0
-579 -641 -682 0
-579 -641 -683 0
-579 -641 -684 0
-579 -641 -685 0
-579 -641 -686 0
-579 -641 -687 0
-579 -641 -688 0
-579 -641 -689 0
-579 -641 -690 0
-579 -641 -691 0
-579 -641 -692 0
-579 -641 -693 0
-579 -641 -694 0
-579 -642 -670 0
-579 -642 -671 0
-579 -642 -672 0
-579 -642 -673 0
-579 -642 -674 0
-579 -642 -675 0
-579 -642 -676 0
-579 -642 -677 0
-579 -642 -678 0
-579 -642 -679 0
-579 -642 -680 0
-579 -642 -681 0
-579 -642 -682 0
-579 -642 -683 0
-579 -642 -684 0
-579 -642 -685 0
-579 -642 -686 0
-579 -642 -687 0
-579 -642 -688 0
-579 -642 -689 0
-579 -642 -690 0
-579 -642 -691 0
-579 -642 -692 0
-579 -642 -693 0
-579 -642 -694 0
-579 -643 -670 0
-579 -643 -671 0
-579 -643 -672 0
-579 -643 -673 0
-579 -643 -674 0
-579 -643 -675 0
-579 -643 -676 0
-579 -643 -677 0
-579 -643 -678 0
-579 -643 -679 0
-579 -643 -680 0
-579 -643 -681 0
-579 -643 -682 0
-579 -643 -683 0
-579 -643 -684 0
-579 -643 -685 0
-579 -643 -686 0
-579 -643 -687 0
-579 -643 -688 0
-579 -643 -689 0
-579 -643 -690 0
-579 -643 -691 0
-579 -643 -692 0
-579 -643 -693 0
-579 -643 -694 0
-579 -644 -670 0
-579 -644 -671 0
-579 -644 -672 0
-579 -644 -673 0
-579 -644 -674 0
-579 -644 -675 0
-579 -644 -676 0
-579 -644 -677 0
-579 -644 -678 0
-579 -644 -679 0
-579 -644 -680 0
-579 -644 -681 0
-579 -644 -682 0
-579 -644 -683 0
-579 -644 -684 0
-579 -644 -685 0
-579 -644 -686 0
-579 -644 -687 0
-579 -644 -688 0
-579 -644 -689 0
-579 -644 -690 0
-579 -644 -691 0
-579 -644 -692 0
-579 -644 -693 0
-579 -644 -694 0
-580 -620 -670 733 0
-580 -620 -671 734 0
-580 -620 -672 735 0
-580 -620 -673 736 0
-580 -620 -674 737 0
-580 -620 -675 738 0
-580 -620 -676 739 0
-580 -620 -677 740 0
-580 -620 -678 741 0
-580 -620 -679 742 0
-580 -620 -680 743 0
-580 -620 -681 744 0
-580 -620 -682 0
-580 -620 -683 0
-580 -620 -684 0
-580 -620 -685 0
-580 -620 -686 0
-580 -620 -687 0
-580 -620 -688 0
-580 -620 -689 0
-580 -620 -690 0
-580 -620 -691 0
-580 -620 -692 0
-580 -620 -693 0
-580 -620 -694 0
-580 -621 -670 734 0
-580 -621 -671 735 0
-580 -621 -672 736 0
-580 -621 -673 737 0
-580 -621 -674 738 0
-580 -621 -675 739 0
-580 -621 -676 740 0
-580 -621 -677 741 0
-580 -621 -678 742 0
-580 -621 -679 743 0
-580 -621 -680 744 0
-580 -621 -681 0
-580 -621 -682 0
-580 -621 -683 0
-580 -621 -684 0
-580 -621 -685 0
-580 -621 -686 0
-580 -621 -687 0
-580 -621 -688 0
-580 -621 -689 0
-580 -621 -690 0
-580 -621 -691 0
-580 -621 -692 0
-580 -621 -693 0
-580 -621 -694 0
-580 -622 -670 735 0
-580 -622 -671 736 0
-580 -622 -672 737 0
-580 -622 -673 738 0
-580 -622 -674 739 0
-580 -622 -675 740 0
-580 -622 -676 741 0
-580 -622 -677 742 0
-580 -622 -678 743 0
-580 -622 -679 744 0
-580 -622 -680 0
-580 -622 -681 0
-580 -622 -682 0
-580 -622 -683 0
-580 -622 -684 0
-580 -622 -685 0
-580 -622 -686 0
-580 -622 -687 0
-580 -622 -688 0
-580 -622 -689 0
-580 -622 -690 0
-580 -622 -691 0
-580 -622 -692 0
-580 -622 -693 0
-580 -622 -694 0
-580 -623 -670 736 0
-580 -623 -671 737 0
-580 -623 -672 738 0
-580 -623 -673 739 0
-580 -623 -674 740 0
-580 -623 -675 741 0
-580 -623 -676 742 0
-580 -623 -677 743 0
-580 -623 -678 744 0
-580 -623 -679 0
-580 -623 -680 0
-580 -623 -681 0
-580 -623 -682 0
-580 -623 -683 0
-580 -623 -684 0
-580 -623 -685 0
-580 -623 -686 0
-580 -623 -687 0
-580 -623 -688 0
-580 -623 -689 0
-580 -623 -690 0
-580 -623 -691 0
-580 -623 -692 0
-580 -623 -693 0
-580 -623 -694 0
-580 -624 -670 737 0
-580 -624 -671 738 0
-580 -624 -672 739 0
-580 -624 -673 740 0
-580 -624 -674 741 0
-580 -624 -675 742 0
-580 -624 -676 743 0
-580 -624 -677 744 0
-580 -624 -678 0
-580 -624 -679 0
-580 -624 -680 0
-580 -624 -681 0
-580 -624 -682 0
-580 -624 -683 0
-580 -624 -684 0
-580 -624 -685 0
-580 -624 -686 0
-580 -624 -687 0
-580 -624 -688 0
-580 -624 -689 0
-580 -624 -690 0
-580 -624 -691 0
-580 -624 -692 0
-580 -624 -693 0
-580 -624 -694 0
-580 -625 -670 738 0
-580 -625 -671 739 0
-580 -625 -672 740 0
-580 -625 -673 741 0
-580 -625 -674 742 0
-580 -625 -675 743 0
-580 -625 -676 744 0
-580 -625 -677 0
-580 -625 -678 0
-580 -625 -679 0
-580 -625 -680 0
-580 -625 -681 0
-580 -625 -682 0
-580 -625 -683 0
-580 -625 -684 0
-580 -625 -685 0
-580 -625 -686 0
-580 -625 -687 0
-580 -625 -688 0
-580 -625 -689 0
-580 -625 -690 0
-580 -625 -691 0
-580 -625 -692 0
-580 -625 -693 0
-580 -625 -694 0
-580 -626 -670 739 0
-580 -626 -671 740 0
-580 -626 -672 741 0
-580 -626 -673 742 0
-580 -626 -674 743 0
-580 -626 -675 744 0
-580 -626 -676 0
-580 -626 -677 0
-580 -626 -678 0
-580 -626 -679 0
-580 -626 -680 0
-580 -626 -681 0
-580 -626 -682 0
-580 -626 -683 0
-580 -626 -684 0
-580 -626 -685 0
-580 -626 -686 0
-580 -626 -687 0
-580 -626 -688 0
-580 -626 -689 0
-580 -626 -690 0
-580 -626 -691 0
-580 -626 -692 0
-580 -626 -693 0
-580 -626 -694 0
-580 -627 -670 740 0
-580 -627 -671 741 0
-580 -627 -672 742 0
-580 -627 -673 743 0
-580 -627 -674 744 0
-580 -627 -675 0
-580 -627 -676 0
-580 -627 -677 0
-580 -627 -678 0
-580 -627 -679 0
-580 -627 -680 0
-580 -627 -681 0
-580 -627 -682 0
-580 -627 -683 0
-580 -627 -684 0
-580 -627 -685 0
-580 -627 -686 0
-580 -627 -687 0
-580 -627 -688 0
-580 -627 -689 0
-580 -627 -690 0
-580 -627 -691 0
-580 -627 -692 0
-580 -627 -693 0
-580 -627 -694 0
-580 -628 -670 741 0
-580 -628 -671 742 0
-580 -628 -672 743 0
-580 -628 -673 744 0
-580 -628 -674 0
-580 -628 -675 0
-580 -628 -676 0
-580 -628 -677 0
-580 -628 -678 0
-580 -628 -679 0
-580 -628 -680 0
-580 -628 -681 0
-580 -628 -682 0
-580 -628 -683 0
-580 -628 -684 0
-580 -628 -685 0
-580 -628 -686 0
-580 -628 -687 0
-580 -628 -688 0
-580 -628 -689 0
-580 -628 -690 0
-580 -628 -691 0
-580 -628 -692 0
-580 -628 -693 0
-580 -628 -694 0
-580 -629 -670 742 0
-580 -629 -671 743 0
-580 -629 -672 744 0
-580 -629 -673 0
-580 -629 -674 0
-580 -629 -675 0
-580 -629 -676 0
-580 -629 -677 0
-580 -629 -678 0
-580 -629 -679 0
-580 -629 -680 0
-580 -629 -681 0
-580 -629 -682 0
-580 -629 -683 0
-580 -629 -684 0
-580 -629 -685 0
-580 -629 -686 0
-580 -629 -687 0
-580 -629 -688 0
-580 -629 -689 0
-580 -629 -690 0
-580 -629 -691 0
-580 -629 -692 0
-580 -629 -693 0
-580 -629 -694 0
-580 -630 -670 743 0
-580 -630 -671 744 0
-580 -630 -672 0
-580 -630 -673 0
-580 -630 -674 0
-580 -630 -675 0
-580 -630 -676 0
-580 -630 -677 0
-580 -630 -678 0
-580 -630 -679 0
-580 -630 -680 0
-580 -630 -681 0
-580 -630 -682 0
-580 -630 -683 0
-580 -630 -684 0
-580 -630 -685 0
-580 -630 -686 0
-580 -630 -687 0
-580 -630 -688 0
-580 -630 -689 0
-580 -630 -690 0
-580 -630 -691 0
-580 -630 -692 0
-580 -630 -693 0
-580 -630 -694 0
-580 -631 -670 744 0
-580 -631 -671 0
-580 -631 -672 0
-580 -631 -673 0
-580 -631 -674 0
-580 -631 -675 0
-580 -631 -676 0
-580 -631 -677 0
-580 -631 -678 0
-580 -631 -679 0
-580 -631 -680 0
-580 -631 -681 0
-580 -631 -682 0
-580 -631 -683 0
-580 -631 -684 0
-580 -631 -685 0
-580 -631 -686 0
-580 -631 -687 0
-580 -631 -688 0
-580 -631 -689 0
-580 -631 -690 0
-580 -631 -691 0
-580 -631 -692 0
-580 -631 -693 0
-580 -631 -694 0
-580 -632 -670 0
-580 -632 -671 0
-580 -632 -672 0
-580 -632 -673 0
-580 -632 -674 0
-580 -632 -675 0
-580 -632 -676 0
-580 -632 -677 0
-580 -632 -678 0
-580 -632 -679 0
-580 -632 -680 0
-580 -632 -681 0
-580 -632 -682 0
-580 -632 -683 0
-580 -632 -684 0
-580 -632 -685 0
-580 -632 -686 0
-580 -632 -687 0
-580 -632 -688 0
-580 -632 -689 0
-580 -632 -690 0
-580 -632 -691 0
-580 -632 -692 0
-580 -632 -693 0
-580 -632 -694 0
-580 -633 -670 0
-580 -633 -671 0
-580 -633 -672 0
-580 -633 -673 0
-580 -633 -674 0
-580 -633 -675 0
-580 -633 -676 0
-580 -633 -677 0
-580 -633 -678 0
-580 -633 -679 0
-580 -633 -680 0
-580 -633 -681 0
-580 -633 -682 0
-580 -633 -683 0
-580 -633 -684 0
-580 -633 -685 0
-580 -633 -686 0
-580 -633 -687 0
-580 -633 -688 0
-580 -633 -689 0
-580 -633 -690 0
-580 -633 -691 0
-580 -633 -692 0
-580 -633 -693 0
-580 -633 -694 0
-580 -634 -670 0
-580 -634 -671 0
-580 -634 -672 0
-580 -634 -673 0
-580 -634 -674 0
-580 -634 -675 0
-580 -634 -676 0
-580 -634 -677 0
-580 -634 -678 0
-580 -634 -679 0
-580 -634 -680 0
-580 -634 -681 0
-580 -634 -682 0
-580 -634 -683 0
-580 -634 -684 0
-580 -634 -685 0
-580 -634 -686 0
-580 -634 -687 0
-580 -634 -688 0
-580 -634 -689 0
-580 -634 -690 0
-580 -634 -691 0
-580 -634 -692 0
-580 -634 -693 0
-580 -634 -694 0
-580 -635 -670 0
-580 -635 -671 0
-580 -635 -672 0
-580 -635 -673 0
-580 -635 -674 0
-580 -635 -675 0
-580 -635 -676 0
-580 -635 -677 0
-580 -635 -678 0
-580 -635 -679 0
-580 -635 -680 0
-580 -635 -681 0
-580 -635 -682 0
-580 -635 -683 0
-580 -635 -684 0
-580 -635 -685 0
-580 -635 -686 0
-580 -635 -687 0
-580 -635 -688 0
-580 -635 -689 0
-580 -635 -690 0
-580 -635 -691 0
-580 -635 -692 0
-580 -635 -693 0
-580 -635 -694 0
-580 -636 -670 0
-580 -636 -671 0
-580 -636 -672 0
-580 -636 -673 0
-580 -636 -674 0
-580 -636 -675 0
-580 -636 -676 0
-580 -636 -677 0
-580 -636 -678 0
-580 -636 -679 0
-580 -636 -680 0
-580 -636 -681 0
-580 -636 -682 0
-580 -636 -683 0
-580 -636 -684 0
-580 -636 -685 0
-580 -636 -686 0
-580 -636 -687 0
-580 -636 -688 0
-580 -636 -689 0
-580 -636 -690 0
-580 -636 -691 0
-580 -636 -692 0
-580 -636 -693 0
-580 -636 -694 0
-580 -637 -670 0
-580 -637 -671 0
-580 -637 -672 0
-580 -637 -673 0
-580 -637 -674 0
-580 -637 -675 0
-580 -637 -676 0
-580 -637 -677 0
-580 -637 -678 0
-580 -637 -679 0
-580 -637 -680 0
-580 -637 -681 0
-580 -637 -682 0
-580 -637 -683 0
-580 -637 -684 0
-580 -637 -685 0
-580 -637 -686 0
-580 -637 -687 0
-580 -637 -688 0
-580 -637 -689 0
-580 -637 -690 0
-580 -637 -691 0
-580 -637 -692 0
-580 -637 -693 0
-580 -637 -694 0
-580 -638 -670 0
-580 -638 -671 0
-580 -638 -672 0
-580 -638 -673 0
-580 -638 -674 0
-580 -638 -675 0
-580 -638 -676 0
-580 -638 -677 0
-580 -638 -678 0
-580 -638 -679 0
-580 -638 -680 0
-580 -638 -681 0
-580 -638 -682 0
-580 -638 -683 0
-580 -638 -684 0
-580 -638 -685 0
-580 -638 -686 0
-580 -638 -687 0
-580 -638 -688 0
-580 -638 -689 0
-580 -638 -690 0
-580 -638 -691 0
-580 -638 -692 0
-580 -638 -693 0
-580 -638 -694 0
-580 -639 -670 0
-580 -639 -671 0
-580 -639 -672 0
-580 -639 -673 0
-580 -639 -674 0
-580 -639 -675 0
-580 -639 -676 0
-580 -639 -677 0
-580 -639 -678 0
-580 -639 -679 0
-580 -639 -680 0
-580 -639 -681 0
-580 -639 -682 0
-580 -639 -683 0
-580 -639 -684 0
-580 -639 -685 0
-580 -639 -686 0
-580 -639 -687 0
-580 -639 -688 0
-580 -639 -689 0
-580 -639 -690 0
-580 -639 -691 0
-580 -639 -692 0
-580 -639 -693 0
-580 -639 -694 0
-580 -640 -670 0
-580 -640 -671 0
-580 -640 -672 0
-580 -640 -673 0
-580 -640 -674 0
-580 -640 -675 0
-580 -640 -676 0
-580 -640 -677 0
-580 -640 -678 0
-580 -640 -679 0
-580 -640 -680 0
-580 -640 -681 0
-580 -640 -682 0
-580 -640 -683 0
-580 -640 -684 0
-580 -640 -685 0
-580 -640 -686 0
-580 -640 -687 0
-580 -640 -688 0
-580 -640 -689 0
-580 -640 -690 0
-580 -640 -691 0
-580 -640 -692 0
-580 -640 -693 0
-580 -640 -694 0
-580 -641 -670 0
-580 -641 -671 0
-580 -641 -672 0
-580 -641 -673 0
-580 -641 -674 0
-580 -641 -675 0
-580 -641 -676 0
-580 -641 -677 0
-580 -641 -678 0
-580 -641 -679 0
-580 -641 -680 0
-580 -641 -681 0
-580 -641 -682 0
-580 -641 -683 0
-580 -641 -684 0
-580 -641 -685 0
-580 -641 -686 0
-580 -641 -687 0
-580 -641 -688 0
-580 -641 -689 0
-580 -641 -690 0
-580 -641 -691 0
-580 -641 -692 0
-580 -641 -693 0
-580 -641 -694 0
-580 -642 -670 0
-580 -642 -671 0
-580 -642 -672 0
-580 -642 -673 0
-580 -642 -674 0
-580 -642 -675 0
-580 -642 -676 0
-580 -642 -677 0
-580 -642 -678 0
-580 -642 -679 0
-580 -642 -680 0
-580 -642 -681 0
-580 -642 -682 0
-580 -642 -683 0
-580 -642 -684 0
-580 -642 -685 0
-580 -642 -686 0
-580 -642 -687 0
-580 -642 -688 0
-580 -642 -689 0
-580 -642 -690 0
-580 -642 -691 0
-580 -642 -692 0
-580 -642 -693 0
-580 -642 -694 0
-580 -643 -670 0
-580 -643 -671 0
-580 -643 -672 0
-580 -643 -673 0
-580 -643 -674 0
-580 -643 -675 0
-580 -643 -676 0
-580 -643 -677 0
-580 -643 -678 0
-580 -643 -679 0
-580 -643 -680 0
-580 -643 -681 0
-580 -643 -682 0
-580 -643 -683 0
-580 -643 -684 0
-580 -643 -685 0
-580 -643 -686 0
-580 -643 -687 0
-580 -643 -688 0
-580 -643 -689 0
-580 -643 -690 0
-580 -643 -691 0
-580 -643 -692 0
-580 -643 -693 0
-580 -643 -694 0
-580 -644 -670 0
-580 -644 -671 0
-580 -644 -672 0
-580 -644 -673 0
-580 -644 -674 0
-580 -644 -675 0
-580 -644 -676 0
-580 -644 -677 0
-580 -644 -678 0
-580 -644 -679 0
-580 -644 -680 0
-580 -644 -681 0
-580 -644 -682 0
-580 -644 -683 0
-580 -644 -684 0
-580 -644 -685 0
-580 -644 -686 0
-580 -644 -687 0
-580 -644 -688 0
-580 -644 -689 0
-580 -644 -690 0
-580 -644 -691 0
-580 -644 -692 0
-580 -644 -693 0
-580 -644 -694 0
-581 -620 -670 734 0
-581 -620 -671 735 0
-581 -620 -672 736 0
-581 -620 -673 737 0
-581 -620 -674 738 0
-581 -620 -675 739 0
-581 -620 -676 740 0
-581 -620 -677 741 0
-581 -620 -678 742 0
-581 -620 -679 743 0
-581 -620 -680 744 0
-581 -620 -681 0
-581 -620 -682 0
-581 -620 -683 0
-581 -620 -684 0
-581 -620 -685 0
-581 -620 -686 0
-581 -620 -687 0
-581 -620 -688 0
-581 -620 -689 0
-581 -620 -690 0
-581 -620 -691 0
-581 -620 -692 0
-581 -620 -693 0
-581 -620 -694 0
-581 -621 -670 735 0
-581 -621 -671 736 0
-581 -621 -672 737 0
-581 -621 -673 738 0
-581 -621 -674 739 0
-581 -621 -675 740 0
-581 -621 -676 741 0
-581 -621 -677 742 0
-581 -621 -678 743 0
-581 -621 -679 744 0
-581 -621 -680 0
-581 -621 -681 0
-581 -621 -682 0
-581 -621 -683 0
-581 -621 -684 0
-581 -621 -685 0
-581 -621 -686 0
-581 -621 -687 0
-581 -621 -688 0
-581 -621 -689 0
-581 -621 -690 0
-581 -621 -691 0
-581 -621 -692 0
-581 -621 -693 0
-581 -621 -694 0
-581 -622 -670 736 0
-581 -622 -671 737 0
-581 -622 -672 738 0
-581 -622 -673 739 0
-581 -622 -674 740 0
-581 -622 -675 741 0
-581 -622 -676 742 0
-581 -622 -677 743 0
-581 -622 -678 744 0
-581 -622 -679 0
-581 -622 -680 0
-581 -622 -681 0
-581 -622 -682 0
-581 -622 -683 0
-581 -622 -684 0
-581 -622 -685 0
-581 -622 -686 0
-581 -622 -687 0
-581 -622 -688 0
-581 -622 -689 0
-581 -622 -690 0
-581 -622 -691 0
-581 -622 -692 0
-581 -622 -693 0
-581 -622 -694 0
-581 -623 -670 737 0
-581 -623 -671 738 0
-581 -623 -672 739 0
-581 -623 -673 740 0
-581 -623 -674 741 0
-581 -623 -675 742 0
-581 -623 -676 743 0
-581 -623 -677 744 0
-581 -623 -678 0
-581 -623 -679 0
-581 -623 -680 0
-581 -623 -681 0
-581 -623 -682 0
-581 -623 -683 0
-581 -623 -684 0
-581 -623 -685 0
-581 -623 -686 0
-581 -623 -687 0
-581 -623 -688 0
-581 -623 -689 0
-581 -623 -690 0
-581 -623 -691 0
-581 -623 -692 0
-581 -623 -693 0
-581 -623 -694 0
-581 -624 -670 738 0
-581 -624 -671 739 0
-581 -624 -672 740 0
-581 -624 -673 741 0
-581 -624 -674 742 0
-581 -624 -675 743 0
-581 -624 -676 744 0
-581 -624 -677 0
-581 -624 -678 0
-581 -624 -679 0
-581 -624 -680 0
-581 -624 -681 0
-581 -624 -682 0
-581 -624 -683 0
-581 -624 -684 0
-581 -624 -685 0
-581 -624 -686 0
-581 -624 -687 0
-581 -624 -688 0
-581 -624 -689 0
-581 -624 -690 0
-581 -624 -691 0
-581 -624 -692 0
-581 -624 -693 0
-581 -624 -694 0
-581 -625 -670 739 0
-581 -625 -671 740 0
-581 -625 -672 741 0
-581 -625 -673 742 0
-581 -625 -674 743 0
-581 -625 -675 744 0
-581 -625 -676 0
-581 -625 -677 0
-581 -625 -678 0
-581 -625 -679 0
-581 -625 -680 0
-581 -625 -681 0
-581 -625 -682 0
-581 -625 -683 0
-581 -625 -684 0
-581 -625 -685 0
-581 -625 -686 0
-581 -625 -687 0
-581 -625 -688 0
-581 -625 -689 0
-581 -625 -690 0
-581 -625 -691 0
-581 -625 -692 0
-581 -625 -693 0
-581 -625 -694 0
-581 -626 -670 740 0
-581 -626 -671 741 0
-581 -626 -672 742 0
-581 -626 -673 743 0
-581 -626 -674 744 0
-581 -626 -675 0
-581 -626 -676 0
-581 -626 -677 0
-581 -626 -678 0
-581 -626 -679 0
-581 -626 -680 0
-581 -626 -681 0
-581 -626 -682 0
-581 -626 -683 0
-581 -626 -684 0
-581 -626 -685 0
-581 -626 -686 0
-581 -626 -687 0
-581 -626 -688 0
-581 -626 -689 0
-581 -626 -690 0
-581 -626 -691 0
-581 -626 -692 0
-581 -626 -693 0
-581 -626 -694 0
-581 -627 -670 741 0
-581 -627 -671 742 0
-581 -627 -672 743 0
-581 -627 -673 744 0
-581 -627 -674 0
-581 -627 -675 0
-581 -627 -676 0
-581 -627 -677 0
-581 -627 -678 0
-581 -627 -679 0
-581 -627 -680 0
-581 -627 -681 0
-581 -627 -682 0
-581 -627 -683 0
-581 -627 -684 0
-581 -627 -685 0
-581 -627 -686 0
-581 -627 -687 0
-581 -627 -688 0
-581 -627 -689 0
-581 -627 -690 0
-581 -627 -691 0
-581 -627 -692 0
-581 -627 -693 0
-581 -627 -694 0
-581 -628 -670 742 0
-581 -628 -671 743 0
-581 -628 -672 744 0
-581 -628 -673 0
-581 -628 -674 0
-581 -628 -675 0
-581 -628 -676 0
-581 -628 -677 0
-581 -628 -678 0
-581 -628 -679 0
-581 -628 -680 0
-581 -628 -681 0
-581 -628 -682 0
-581 -628 -683 0
-581 -628 -684 0
-581 -628 -685 0
-581 -628 -686 0
-581 -628 -687 0
-581 -628 -688 0
-581 -628 -689 0
-581 -628 -690 0
-581 -628 -691 0
-581 -628 -692 0
-581 -628 -693 0
-581 -628 -694 0
-581 -629 -670 743 0
-581 -629 -671 744 0
-581 -629 -672 0
-581 -629 -673 0
-581 -629 -674 0
-581 -629 -675 0
-581 -629 -676 0
-581 -629 -677 0
-581 -629 -678 0
-581 -629 -679 0
-581 -629 -680 0
-581 -629 -681 0
-581 -629 -682 0
-581 -629 -683 0
-581 -629 -684 0
-581 -629 -685 0
-581 -629 -686 0
-581 -629 -687 0
-581 -629 -688 0
-581 -629 -689 0
-581 -629 -690 0
-581 -629 -691 0
-581 -629 -692 0
-581 -629 -693 0
-581 -629 -694 0
-581 -630 -670 744 0
-581 -630 -671 0
-581 -630 -672 0
-581 -630 -673 0
-581 -630 -674 0
-581 -630 -675 0
-581 -630 -676 0
-581 -630 -677 0
-581 -630 -678 0
-581 -630 -679 0
-581 -630 -680 0
-581 -630 -681 0
-581 -630 -682 0
-581 -630 -683 0
-581 -630 -684 0
-581 -630 -685 0
-581 -630 -686 0
-581 -630 -687 0
-581 -630 -688 0
-581 -630 -689 0
-581 -630 -690 0
-581 -630 -691 0
-581 -630 -692 0
-581 -630 -693 0
-581 -630 -694 0
-581 -631 -670 0
-581 -631 -671 0
-581 -631 -672 0
-581 -631 -673 0
-581 -631 -674 0
-581 -631 -675 0
-581 -631 -676 0
-581 -631 -677 0
-581 -631 -678 0
-581 -631 -679 0
-581 -631 -680 0
-581 -631 -681 0
-581 -631 -682 0
-581 -631 -683 0
-581 -631 -684 0
-581 -631 -685 0
-581 -631 -686 0
-581 -631 -687 0
-581 -631 -688 0
-581 -631 -689 0
-581 -631 -690 0
-581 -631 -691 0
-581 -631 -692 0
-581 -631 -693 0
-581 -631 -694 0
-581 -632 -670 0
-581 -632 -671 0
-581 -632 -672 0
-581 -632 -673 0
-581 -632 -674 0
-581 -632 -675 0
-581 -632 -676 0
-581 -632 -677 0
-581 -632 -678 0
-581 -632 -679 0
-581 -632 -680 0
-581 -632 -681 0
-581 -632 -682 0
-581 -632 -683 0
-581 -632 -684 0
-581 -632 -685 0
-581 -632 -686 0
-581 -632 -687 0
-581 -632 -688 0
-581 -632 -689 0
-581 -632 -690 0
-581 -632 -691 0
-581 -632 -692 0
-581 -632 -693 0
-581 -632 -694 0
-581 -633 -670 0
-581 -633 -671 0
-581 -633 -672 0
-581 -633 -673 0
-581 -633 -674 0
-581 -633 -675 0
-581 -633 -676 0
-581 -633 -677 0
-581 -633 -678 0
-581 -633 -679 0
-581 -633 -680 0
-581 -633 -681 0
-581 -633 -682 0
-581 -633 -683 0
-581 -633 -684 0
-581 -633 -685 0
-581 -633 -686 0
-581 -633 -687 0
-581 -633 -688 0
-581 -633 -689 0
-581 -633 -690 0
-581 -633 -691 0
-581 -633 -692 0
-581 -633 -693 0
-581 -633 -694 0
-581 -634 -670 0
-581 -634 -671 0
-581 -634 -672 0
-581 -634 -673 0
-581 -634 -674 0
-581 -634 -675 0
-581 -634 -676 0
-581 -634 -677 0
-581 -634 -678 0
-581 -634 -679 0
-581 -634 -680 0
-581 -634 -681 0
-581 -634 -682 0
-581 -634 -683 0
-581 -634 -684 0
-581 -634 -685 0
-581 -634 -686 0
-581 -634 -687 0
-581 -634 -688 0
-581 -634 -689 0
-581 -634 -690 0
-581 -634 -691 0
-581 -634 -692 0
-581 -634 -693 0
-581 -634 -694 0
-581 -635 -670 0
-581 -635 -671 0
-581 -635 -672 0
-581 -635 -673 0
-581 -635 -674 0
-581 -635 -675 0
-581 -635 -676 0
-581 -635 -677 0
-581 -635 -678 0
-581 -635 -679 0
-581 -635 -680 0
-581 -635 -681 0
-581 -635 -682 0
-581 -635 -683 0
-581 -635 -684 0
-581 -635 -685 0
-581 -635 -686 0
-581 -635 -687 0
-581 -635 -688 0
-581 -635 -689 0
-581 -635 -690 0
-581 -635 -691 0
-581 -635 -692 0
-581 -635 -693 0
-581 -635 -694 0
-581 -636 -670 0
-581 -636 -671 0
-581 -636 -672 0
-581 -636 -673 0
-581 -636 -674 0
-581 -636 -675 0
-581 -636 -676 0
-581 -636 -677 0
-581 -636 -678 0
-581 -636 -679 0
-581 -636 -680 0
-581 -636 -681 0
-581 -636 -682 0
-581 -636 -683 0
-581 -636 -684 0
-581 -636 -685 0
-581 -636 -686 0
-581 -636 -687 0
-581 -636 -688 0
-581 -636 -689 0
-581 -636 -690 0
-581 -636 -691 0
-581 -636 -692 0
-581 -636 -693 0
-581 -636 -694 0
-581 -637 -670 0
-581 -637 -671 0
-581 -637 -672 0
-581 -637 -673 0
-581 -637 -674 0
-581 -637 -675 0
-581 -637 -676 0
-581 -637 -677 0
-581 -637 -678 0
-581 -637 -679 0
-581 -637 -680 0
-581 -637 -681 0
-581 -637 -682 0
-581 -637 -683 0
-581 -637 -684 0
-581 -637 -685 0
-581 -637 -686 0
-581 -637 -687 0
-581 -637 -688 0
-581 -637 -689 0
-581 -637 -690 0
-581 -637 -691 0
-581 -637 -692 0
-581 -637 -693 0
-581 -637 -694 0
-581 -638 -670 0
-581 -638 -671 0
-581 -638 -672 0
-581 -638 -673 0
-581 -638 -674 0
-581 -638 -675 0
-581 -638 -676 0
-581 -638 -677 0
-581 -638 -678 0
-581 -638 -679 0
-581 -638 -680 0
-581 -638 -681 0
-581 -638 -682 0
-581 -638 -683 0
-581 -638 -684 0
-581 -638 -685 0
-581 -638 -686 0
-581 -638 -687 0
-581 -638 -688 0
-581 -638 -689 0
-581 -638 -690 0
-581 -638 -691 0
-581 -638 -692 0
-581 -638 -693 0
-581 -638 -694 0
-581 -639 -670 0
-581 -639 -671 0
-581 -639 -672 0
-581 -639 -673 0
-581 -639 -674 0
-581 -639 -675 0
-581 -639 -676 0
-581 -639 -677 0
-581 -639 -678 0
-581 -639 -679 0
-581 -639 -680 0
-581 -639 -681 0
-581 -639 -682 0
-581 -639 -683 0
-581 -639 -684 0
-581 -639 -685 0
-581 -639 -686 0
-581 -639 -687 0
-581 -639 -688 0
-581 -639 -689 0
-581 -639 -690 0
-581 -639 -691 0
-581 -639 -692 0
-581 -639 -693 0
-581 -639 -694 0
-581 -640 -670 0
-581 -640 -671 0
-581 -640 -672 0
-581 -640 -673 0
-581 -640 -674 0
-581 -640 -675 0
-581 -640 -676 0
-581 -640 -677 0
-581 -640 -678 0
-581 -640 -679 0
-581 -640 -680 0
-581 -640 -681 0
-581 -640 -682 0
-581 -640 -683 0
-581 -640 -684 0
-581 -640 -685 0
-581 -640 -686 0
-581 -640 -687 0
-581 -640 -688 0
-581 -640 -689 0
-581 -640 -690 0
-581 -640 -691 0
-581 -640 -692 0
-581 -640 -693 0
-581 -640 -694 0
-581 -641 -670 0
-581 -641 -671 0
-581 -641 -672 0
-581 -641 -673 0
-581 -641 -674 0
-581 -641 -675 0
-581 -641 -676 0
-581 -641 -677 0
-581 -641 -678 0
-581 -641 -679 0
-581 -641 -680 0
-581 -641 -681 0
-581 -641 -682 0
-581 -641 -683 0
-581 -641 -684 0
-581 -641 -685 0
-581 -641 -686 0
-581 -641 -687 0
-581 -641 -688 0
-581 -641 -689 0
-581 -641 -690 0
-581 -641 -691 0
-581 -641 -692 0
-581 -641 -693 0
-581 -641 -694 0
-581 -642 -670 0
-581 -642 -671 0
-581 -642 -672 0
-581 -642 -673 0
-581 -642 -674 0
-581 -642 -675 0
-581 -642 -676 0
-581 -642 -677 0
-581 -642 -678 0
-581 -642 -679 0
-581 -642 -680 0
-581 -642 -681 0
-581 -642 -682 0
-581 -642 -683 0
-581 -642 -684 0
-581 -642 -685 0
-581 -642 -686 0
-581 -642 -687 0
-581 -642 -688 0
-581 -642 -689 0
-581 -642 -690 0
-581 -642 -691 0
-581 -642 -692 0
-581 -642 -693 0
-581 -642 -694 0
-581 -643 -670 0
-581 -643 -671 0
-581 -643 -672 0
-581 -643 -673 0
-581 -643 -674 0
-581 -643 -675 0
-581 -643 -676 0
-581 -643 -677 0
-581 -643 -678 0
-581 -643 -679 0
-581 -643 -680 0
-581 -643 -681 0
-581 -643 -682 0
-581 -643 -683 0
-581 -643 -684 0
-581 -643 -685 0
-581 -643 -686 0
-581 -643 -687 0
-581 -643 -688 0
-581 -643 -689 0
-581 -643 -690 0
-581 -643 -691 0
-581 -643 -692 0
-581 -643 -693 0
-581 -643 -694 0
-581 -644 -670 0
-581 -644 -671 0
-581 -644 -672 0
-581 -644 -673 0
-581 -644 -674 0
-581 -644 -675 0
-581 -644 -676 0
-581 -644 -677 0
-581 -644 -678 0
-581 -644 -679 0
-581 -644 -680 0
-581 -644 -681 0
-581 -644 -682 0
-581 -644 -683 0
-581 -644 -684 0
-581 -644 -685 0
-581 -644 -686 0
-581 -644 -687 0
-581 -644 -688 0
-581 -644 -689 0
-581 -644 -690 0
-581 -644 -691 0
-581 -644 -692 0
-581 -644 -693 0
-581 -644 -694 0
-582 -620 -670 735 0
-582 -620 -671 736 0
-582 -620 -672 737 0
-582 -620 -673 738 0
-582 -620 -674 739 0
-582 -620 -675 740 0
-582 -620 -676 741 0
-582 -620 -677 742 0
-582 -620 -678 743 0
-582 -620 -679 744 0
-582 -620 -680 0
-582 -620 -681 0
-582 -620 -682 0
-582 -620 -683 0
-582 -620 -684 0
-582 -620 -685 0
-582 -620 -686 0
-582 -620 -687 0
-582 -620 -688 0
-582 -620 -689 0
-582 -620 -690 0
-582 -620 -691 0
-582 -620 -692 0
-582 -620 -693 0
-582 -620 -694 0
-582 -621 -670 736 0
-582 -621 -671 737 0
-582 -621 -672 738 0
-582 -621 -673 739 0
-582 -621 -674 740 0
-582 -621 -675 741 0
-582 -621 -676 742 0
-582 -621 -677 743 0
-582 -621 -678 744 0
-582 -621 -679 0
-582 -621 -680 0
-582 -621 -681 0
-582 -621 -682 0
-582 -621 -683 0
-582 -621 -684 0
-582 -621 -685 0
-582 -621 -686 0
-582 -621 -687 0
-582 -621 -688 0
-582 -621 -689 0
-582 -621 -690 0
-582 -621 -691 0
-582 -621 -692 0
-582 -621 -693 0
-582 -621 -694 0
-582 -622 -670 737 0
-582 -622 -671 738 0
-582 -622 -672 739 0
-582 -622 -673 740 0
-582 -622 -674 741 0
-582 -622 -675 742 0
-582 -622 -676 743 0
-582 -622 -677 744 0
-582 -622 -678 0
-582 -622 -679 0
-582 -622 -680 0
-582 -622 -681 0
-582 -622 -682 0
-582 -622 -683 0
-582 -622 -684 0
-582 -622 -685 0
-582 -622 -686 0
-582 -622 -687 0
-582 -622 -688 0
-582 -622 -689 0
-582 -622 -690 0
-582 -622 -691 0
-582 -622 -692 0
-582 -622 -693 0
-582 -622 -694 0
-582 -623 -670 738 0
-582 -623 -671 739 0
-582 -623 -672 740 0
-582 -623 -673 741 0
-582 -623 -674 742 0
-582 -623 -675 743 0
-582 -623 -676 744 0
-582 -623 -677 0
-582 -623 -678 0
-582 -623 -679 0
-582 -623 -680 0
-582 -623 -681 0
-582 -623 -682 0
-582 -623 -683 0
-582 -623 -684 0
-582 -623 -685 0
-582 -623 -686 0
-582 -623 -687 0
-582 -623 -688 0
-582 -623 -689 0
-582 -623 -690 0
-582 -623 -691 0
-582 -623 -692 0
-582 -623 -693 0
-582 -623 -694 0
-582 -624 -670 739 0
-582 -624 -671 740 0
-582 -624 -672 741 0
-582 -624 -673 742 0
-582 -624 -674 743 0
-582 -624 -675 744 0
-582 -624 -676 0
-582 -624 -677 0
-582 -624 -678 0
-582 -624 -679 0
-582 -624 -680 0
-582 -624 -681 0
-582 -624 -682 0
-582 -624 -683 0
-582 -624 -684 0
-582 -624 -685 0
-582 -624 -686 0
-582 -624 -687 0
-582 -624 -688 0
-582 -624 -689 0
-582 -624 -690 0
-582 -624 -691 0
-582 -624 -692 0
-582 -624 -693 0
-582 -624 -694 0
-582 -625 -670 740 0
-582 -625 -671 741 0
-582 -625 -672 742 0
-582 -625 -673 743 0
-582 -625 -674 744 0
-582 -625 -675 0
-582 -625 -676 0
-582 -625 -677 0
-582 -625 -678 0
-582 -625 -679 0
-582 -625 -680 0
-582 -625 -681 0
-582 -625 -682 0
-582 -625 -683 0
-582 -625 -684 0
-582 -625 -685 0
-582 -625 -686 0
-582 -625 -687 0
-582 -625 -688 0
-582 -625 -689 0
-582 -625 -690 0
-582 -625 -691 0
-582 -625 -692 0
-582 -625 -693 0
-582 -625 -694 0
-582 -626 -670 741 0
-582 -626 -671 742 0
-582 -626 -672 743 0
-582 -626 -673 744 0
-582 -626 -674 0
-582 -626 -675 0
-582 -626 -676 0
-582 -626 -677 0
-582 -626 -678 0
-582 -626 -679 0
-582 -626 -680 0
-582 -626 -681 0
-582 -626 -682 0
-582 -626 -683 0
-582 -626 -684 0
-582 -626 -685 0
-582 -626 -686 0
-582 -626 -687 0
-582 -626 -688 0
-582 -626 -689 0
-582 -626 -690 0
-582 -626 -691 0
-582 -626 -692 0
-582 -626 -693 0
-582 -626 -694 0
-582 -627 -670 742 0
-582 -627 -671 743 0
-582 -627 -672 744 0
-582 -627 -673 0
-582 -627 -674 0
-582 -627 -675 0
-582 -627 -676 0
-582 -627 -677 0
-582 -627 -678 0
-582 -627 -679 0
-582 -627 -680 0
-582 -627 -681 0
-582 -627 -682 0
-582 -627 -683 0
-582 -627 -684 0
-582 -627 -685 0
-582 -627 -686 0
-582 -627 -687 0
-582 -627 -688 0
-582 -627 -689 0
-582 -627 -690 0
-582 -627 -691 0
-582 -627 -692 0
-582 -627 -693 0
-582 -627 -694 0
-582 -628 -670 743 0
-582 -628 -671 744 0
-582 -628 -672 0
-582 -628 -673 0
-582 -628 -674 0
-582 -628 -675 0
-582 -628 -676 0
-582 -628 -677 0
-582 -628 -678 0
-582 -628 -679 0
-582 -628 -680 0
-582 -628 -681 0
-582 -628 -682 0
-582 -628 -683 0
-582 -628 -684 0
-582 -628 -685 0
-582 -628 -686 0
-582 -628 -687 0
-582 -628 -688 0
-582 -628 -689 0
-582 -628 -690 0
-582 -628 -691 0
-582 -628 -692 0
-582 -628 -693 0
-582 -628 -694 0
-582 -629 -670 744 0
-582 -629 -671 0
-582 -629 -672 0
-582 -629 -673 0
-582 -629 -674 0
-582 -629 -675 0
-582 -629 -676 0
-582 -629 -677 0
-582 -629 -678 0
-582 -629 -679 0
-582 -629 -680 0
-582 -629 -681 0
-582 -629 -682 0
-582 -629 -683 0
-582 -629 -684 0
-582 -629 -685 0
-582 -629 -686 0
-582 -629 -687 0
-582 -629 -688 0
-582 -629 -689 0
-582 -629 -690 0
-582 -629 -691 0
-582 -629 -692 0
-582 -629 -693 0
-582 -629 -694 0
-582 -630 -670 0
-582 -630 -671 0
-582 -630 -672 0
-582 -630 -673 0
-582 -630 -674 0
-582 -630 -675 0
-582 -630 -676 0
-582 -630 -677 0
-582 -630 -678 0
-582 -630 -679 0
-582 -630 -680 0
-582 -630 -681 0
-582 -630 -682 0
-582 -630 -683 0
-582 -630 -684 0
-582 -630 -685 0
-582 -630 -686 0
-582 -630 -687 0
-582 -630 -688 0
-582 -630 -689 0
-582 -630 -690 0
-582 -630 -691 0
-582 -630 -692 0
-582 -630 -693 0
-582 -630 -694 0
-582 -631 -670 0
-582 -631 -671 0
-582 -631 -672 0
-582 -631 -673 0
-582 -631 -674 0
-582 -631 -675 0
-582 -631 -676 0
-582 -631 -677 0
-582 -631 -678 0
-582 -631 -679 0
-582 -631 -680 0
-582 -631 -681 0
-582 -631 -682 0
-582 -631 -683 0
-582 -631 -684 0
-582 -631 -685 0
-582 -631 -686 0
-582 -631 -687 0
-582 -631 -688 0
-582 -631 -689 0
-582 -631 -690 0
-582 -631 -691 0
-582 -631 -692 0
-582 -631 -693 0
-582 -631 -694 0
-582 -632 -670 0
-582 -632 -671 0
-582 -632 -672 0
-582 -632 -673 0
-582 -632 -674 0
-582 -632 -675 0
-582 -632 -676 0
-582 -632 -677 0
-582 -632 -678 0
-582 -632 -679 0
-582 -632 -680 0
-582 -632 -681 0
-582 -632 -682 0
-582 -632 -683 0
-582 -632 -684 0
-582 -632 -685 0
-582 -632 -686 0
-582 -632 -687 0
-582 -632 -688 0
-582 -632 -689 0
-582 -632 -690 0
-582 -632 -691 0
-582 -632 -692 0
-582 -632 -693 0
-582 -632 -694 0
-582 -633 -670 0
-582 -633 -671 0
-582 -633 -672 0
-582 -633 -673 0
-582 -633 -674 0
-582 -633 -675 0
-582 -633 -676 0
-582 -633 -677 0
-582 -633 -678 0
-582 -633 -679 0
-582 -633 -680 0
-582 -633 -681 0
-582 -633 -682 0
-582 -633 -683 0
-582 -633 -684 0
-582 -633 -685 0
-582 -633 -686 0
-582 -633 -687 0
-582 -633 -688 0
-582 -633 -689 0
-582 -633 -690 0
-582 -633 -691 0
-582 -633 -692 0
-582 -633 -693 0
-582 -633 -694 0
-582 -634 -670 0
-582 -634 -671 0
-582 -634 -672 0
-582 -634 -673 0
-582 -634 -674 0
-582 -634 -675 0
-582 -634 -676 0
-582 -634 -677 0
-582 -634 -678 0
-582 -634 -679 0
-582 -634 -680 0
-582 -634 -681 0
-582 -634 -682 0
-582 -634 -683 0
-582 -634 -684 0
-582 -634 -685 0
-582 -634 -686 0
-582 -634 -687 0
-582 -634 -688 0
-582 -634 -689 0
-582 -634 -690 0
-582 -634 -691 0
-582 -634 -692 0
-582 -634 -693 0
-582 -634 -694 0
-582 -635 -670 0
-582 -635 -671 0
-582 -635 -672 0
-582 -635 -673 0
-582 -635 -674 0
-582 -635 -675 0
-582 -635 -676 0
-582 -635 -677 0
-582 -635 -678 0
-582 -635 -679 0
-582 -635 -680 0
-582 -635 -681 0
-582 -635 -682 0
-582 -635 -683 0
-582 -635 -684 0
-582 -635 -685 0
-582 -635 -686 0
-582 -635 -687 0
-582 -635 -688 0
-582 -635 -689 0
-582 -635 -690 0
-582 -635 -691 0
-582 -635 -692 0
-582 -635 -693 0
-582 -635 -694 0
-582 -636 -670 0
-582 -636 -671 0
-582 -636 -672 0
-582 -636 -673 0
-582 -636 -674 0
-582 -636 -675 0
-582 -636 -676 0
-582 -636 -677 0
-582 -636 -678 0
-582 -636 -679 0
-582 -636 -680 0
-582 -636 -681 0
-582 -636 -682 0
-582 -636 -683 0
-582 -636 -684 0
-582 -636 -685 0
-582 -636 -686 0
-582 -636 -687 0
-582 -636 -688 0
-582 -636 -689 0
-582 -636 -690 0
-582 -636 -691 0
-582 -636 -692 0
-582 -636 -693 0
-582 -636 -694 0
-582 -637 -670 0
-582 -637 -671 0
-582 -637 -672 0
-582 -637 -673 0
-582 -637 -674 0
-582 -637 -675 0
-582 -637 -676 0
-582 -637 -677 0
-582 -637 -678 0
-582 -637 -679 0
-582 -637 -680 0
-582 -637 -681 0
-582 -637 -682 0
-582 -637 -683 0
-582 -637 -684 0
-582 -637 -685 0
-582 -637 -686 0
-582 -637 -687 0
-582 -637 -688 0
-582 -637 -689 0
-582 -637 -690 0
-582 -637 -691 0
-582 -637 -692 0
-582 -637 -693 0
-582 -637 -694 0
-582 -638 -670 0
-582 -638 -671 0
-582 -638 -672 0
-582 -638 -673 0
-582 -638 -674 0
-582 -638 -675 0
-582 -638 -676 0
-582 -638 -677 0
-582 -638 -678 0
-582 -638 -679 0
-582 -638 -680 0
-582 -638 -681 0
-582 -638 -682 0
-582 -638 -683 0
-582 -638 -684 0
-582 -638 -685 0
-582 -638 -686 0
-582 -638 -687 0
-582 -638 -688 0
-582 -638 -689 0
-582 -638 -690 0
-582 -638 -691 0
-582 -638 -692 0
-582 -638 -693 0
-582 -638 -694 0
-582 -639 -670 0
-582 -639 -671 0
-582 -639 -672 0
-582 -639 -673 0
-582 -639 -674 0
-582 -639 -675 0
-582 -639 -676 0
-582 -639 -677 0
-582 -639 -678 0
-582 -639 -679 0
-582 -639 -680 0
-582 -639 -681 0
-582 -639 -682 0
-582 -639 -683 0
-582 -639 -684 0
-582 -639 -685 0
-582 -639 -686 0
-582 -639 -687 0
-582 -639 -688 0
-582 -639 -689 0
-582 -639 -690 0
-582 -639 -691 0
-582 -639 -692 0
-582 -639 -693 0
-582 -639 -694 0
-582 -640 -670 0
-582 -640 -671 0
-582 -640 -672 0
-582 -640 -673 0
-582 -640 -674 0
-582 -640 -675 0
-582 -640 -676 0
-582 -640 -677 0
-582 -640 -678 0
-582 -640 -679 0
-582 -640 -680 0
-582 -640 -681 0
-582 -640 -682 0
-582 -640 -683 0
-582 -640 -684 0
-582 -640 -685 0
-582 -640 -686 0
-582 -640 -687 0
-582 -640 -688 0
-582 -640 -689 0
-582 -640 -690 0
-582 -640 -691 0
-582 -640 -692 0
-582 -640 -693 0
-582 -640 -694 0
-582 -641 -670 0
-582 -641 -671 0
-582 -641 -672 0
-582 -641 -673 0
-582 -641 -674 0
-582 -641 -675 0
-582 -641 -676 0
-582 -641 -677 0
-582 -641 -678 0
-582 -641 -679 0
-582 -641 -680 0
-582 -641 -681 0
-582 -641 -682 0
-582 -641 -683 0
-582 -641 -684 0
-582 -641 -685 0
-582 -641 -686 0
-582 -641 -687 0
-582 -641 -688 0
-582 -641 -689 0
-582 -641 -690 0
-582 -641 -691 0
-582 -641 -692 0
-582 -641 -693 0
-582 -641 -694 0
-582 -642 -670 0
-582 -642 -671 0
-582 -642 -672 0
-582 -642 -673 0
-582 -642 -674 0
-582 -642 -675 0
-582 -642 -676 0
-582 -642 -677 0
-582 -642 -678 0
-582 -642 -679 0
-582 -642 -680 0
-582 -642 -681 0
-582 -642 -682 0
-582 -642 -683 0
-582 -642 -684 0
-582 -642 -685 0
-582 -642 -686 0
-582 -642 -687 0
-582 -642 -688 0
-582 -642 -689 0
-582 -642 -690 0
-582 -642 -691 0
-582 -642 -692 0
-582 -642 -693 0
-582 -642 -694 0
-582 -643 -670 0
-582 -643 -671 0
-582 -643 -672 0
-582 -643 -673 0
-582 -643 -674 0
-582 -643 -675 0
-582 -643 -676 0
-582 -643 -677 0
-582 -643 -678 0
-582 -643 -679 0
-582 -643 -680 0
-582 -643 -681 0
-582 -643 -682 0
-582 -643 -683 0
-582 -643 -684 0
-582 -643 -685 0
-582 -643 -686 0
-582 -643 -687 0
-582 -643 -688 0
-582 -643 -689 0
-582 -643 -690 0
-582 -643 -691 0
-582 -643 -692 0
-582 -643 -693 0
-582 -643 -694 0
-582 -644 -670 0
-582 -644 -671 0
-582 -644 -672 0
-582 -644 -673 0
-582 -644 -674 0
-582 -644 -675 0
-582 -644 -676 0
-582 -644 -677 0
-582 -644 -678 0
-582 -644 -679 0
-582 -644 -680 0
-582 -644 -681 0
-582 -644 -682 0
-582 -644 -683 0
-582 -644 -684 0
-582 -644 -685 0
-582 -644 -686 0
-582 -644 -687 0
-582 -644 -688 0
-582 -644 -689 0
-582 -644 -690 0
-582 -644 -691 0
-582 -644 -692 0
-582 -644 -693 0
-582 -644 -694 0
-583 -620 -670 736 0
-583 -620 -671 737 0
-583 -620 -672 738 0
-583 -620 -673 739 0
-583 -620 -674 740 0
-583 -620 -675 741 0
-583 -620 -676 742 0
-583 -620 -677 743 0
-583 -620 -678 744 0
-583 -620 -679 0
-583 -620 -680 0
-583 -620 -681 0
-583 -620 -682 0
-583 -620 -683 0
-583 -620 -684 0
-583 -620 -685 0
-583 -620 -686 0
-583 -620 -687 0
-583 -620 -688 0
-583 -620 -689 0
-583 -620 -690 0
-583 -620 -691 0
-583 -620 -692 0
-583 -620 -693 0
-583 -620 -694 0
-583 -621 -670 737 0
-583 -621 -671 738 0
-583 -621 -672 739 0
-583 -621 -673 740 0
-583 -621 -674 741 0
-583 -621 -675 742 0
-583 -621 -676 743 0
-583 -621 -677 744 0
-583 -621 -678 0
-583 -621 -679 0
-583 -621 -680 0
-583 -621 -681 0
-583 -621 -682 0
-583 -621 -683 0
-583 -621 -684 0
-583 -621 -685 0
-583 -621 -686 0
-583 -621 -687 0
-583 -621 -688 0
-583 -621 -689 0
-583 -621 -690 0
-583 -621 -691 0
-583 -621 -692 0
-583 -621 -693 0
-583 -621 -694 0
-583 -622 -670 738 0
-583 -622 -671 739 0
-583 -622 -672 740 0
-583 -622 -673 741 0
-583 -622 -674 742 0
-583 -622 -675 743 0
-583 -622 -676 744 0
-583 -622 -677 0
-583 -622 -678 0
-583 -622 -679 0
-583 -622 -680 0
-583 -622 -681 0
-583 -622 -682 0
-583 -622 -683 0
-583 -622 -684 0
-583 -622 -685 0
-583 -622 -686 0
-583 -622 -687 0
-583 -622 -688 0
-583 -622 -689 0
-583 -622 -690 0
-583 -622 -691 0
-583 -622 -692 0
-583 -622 -693 0
-583 -622 -694 0
-583 -623 -670 739 0
-583 -623 -671 740 0
-583 -623 -672 741 0
-583 -623 -673 742 0
-583 -623 -674 743 0
-583 -623 -675 744 0
-583 -623 -676 0
-583 -623 -677 0
-583 -623 -678 0
-583 -623 -679 0
-583 -623 -680 0
-583 -623 -681 0
-583 -623 -682 0
-583 -623 -683 0
-583 -623 -684 0
-583 -623 -685 0
-583 -623 -686 0
-583 -623 -687 0
-583 -623 -688 0
-583 -623 -689 0
-583 -623 -690 0
-583 -623 -691 0
-583 -623 -692 0
-583 -623 -693 0
-583 -623 -694 0
-583 -624 -670 740 0
-583 -624 -671 741 0
-583 -624 -672 742 0
-583 -624 -673 743 0
-583 -624 -674 744 0
-583 -624 -675 0
-583 -624 -676 0
-583 -624 -677 0
-583 -624 -678 0
-583 -624 -679 0
-583 -624 -680 0
-583 -624 -681 0
-583 -624 -682 0
-583 -624 -683 0
-583 -624 -684 0
-583 -624 -685 0
-583 -624 -686 0
-583 -624 -687 0
-583 -624 -688 0
-583 -624 -689 0
-583 -624 -690 0
-583 -624 -691 0
-583 -624 -692 0
-583 -624 -693 0
-583 -624 -694 0
-583 -625 -670 741 0
-583 -625 -671 742 0
-583 -625 -672 743 0
-583 -625 -673 744 0
-583 -625 -674 0
-583 -625 -675 0
-583 -625 -676 0
-583 -625 -677 0
-583 -625 -678 0
-583 -625 -679 0
-583 -625 -680 0
-583 -625 -681 0
-583 -625 -682 0
-583 -625 -683 0
-583 -625 -684 0
-583 -625 -685 0
-583 -625 -686 0
-583 -625 -687 0
-583 -625 -688 0
-583 -625 -689 0
-583 -625 -690 0
-583 -625 -691 0
-583 -625 -692 0
-583 -625 -693 0
-583 -625 -694 0
-583 -626 -670 742 0
-583 -626 -671 743 0
-583 -626 -672 744 0
-583 -626 -673 0
-583 -626 -674 0
-583 -626 -675 0
-583 -626 -676 0
-583 -626 -677 0
-583 -626 -678 0
-583 -626 -679 0
-583 -626 -680 0
-583 -626 -681 0
-583 -626 -682 0
-583 -626 -683 0
-583 -626 -684 0
-583 -626 -685 0
-583 -626 -686 0
-583 -626 -687 0
-583 -626 -688 0
-583 -626 -689 0
-583 -626 -690 0
-583 -626 -691 0
-583 -626 -692 0
-583 -626 -693 0
-583 -626 -694 0
-583 -627 -670 743 0
-583 -627 -671 744 0
-583 -627 -672 0
-583 -627 -673 0
-583 -627 -674 0
-583 -627 -675 0
-583 -627 -676 0
-583 -627 -677 0
-583 -627 -678 0
-583 -627 -679 0
-583 -627 -680 0
-583 -627 -681 0
-583 -627 -682 0
-583 -627 -683 0
-583 -627 -684 0
-583 -627 -685 0
-583 -627 -686 0
-583 -627 -687 0
-583 -627 -688 0
-583 -627 -689 0
-583 -627 -690 0
-583 -627 -691 0
-583 -627 -692 0
-583 -627 -693 0
-583 -627 -694 0
-583 -628 -670 744 0
-583 -628 -671 0
-583 -628 -672 0
-583 -628 -673 0
-583 -628 -674 0
-583 -628 -675 0
-583 -628 -676 0
-583 -628 -677 0
-583 -628 -678 0
-583 -628 -679 0
-583 -628 -680 0
-583 -628 -681 0
-583 -628 -682 0
-583 -628 -683 0
-583 -628 -684 0
-583 -628 -685 0
-583 -628 -686 0
-583 -628 -687 0
-583 -628 -688 0
-583 -628 -689 0
-583 -628 -690 0
-583 -628 -691 0
-583 -628 -692 0
-583 -628 -693 0
-583 -628 -694 0
-583 -629 -670 0
-583 -629 -671 0
-583 -629 -672 0
-583 -629 -673 0
-583 -629 -674 0
-583 -629 -675 0
-583 -629 -676 0
-583 -629 -677 0
-583 -629 -678 0
-583 -629 -679 0
-583 -629 -680 0
-583 -629 -681 0
-583 -629 -682 0
-583 -629 -683 0
-583 -629 -684 0
-583 -629 -685 0
-583 -629 -686 0
-583 -629 -687 0
-583 -629 -688 0
-583 -629 -689 0
-583 -629 -690 0
-583 -629 -691 0
-583 -629 -692 0
-583 -629 -693 0
-583 -629 -694 0
-583 -630 -670 0
-583 -630 -671 0
-583 -630 -672 0
-583 -630 -673 0
-583 -630 -674 0
-583 -630 -675 0
-583 -630 -676 0
-583 -630 -677 0
-583 -630 -678 0
-583 -630 -679 0
-583 -630 -680 0
-583 -630 -681 0
-583 -630 -682 0
-583 -630 -683 0
-583 -630 -684 0
-583 -630 -685 0
-583 -630 -686 0
-583 -630 -687 0
-583 -630 -688 0
-583 -630 -689 0
-583 -630 -690 0
-583 -630 -691 0
-583 -630 -692 0
-583 -630 -693 0
-583 -630 -694 0
-583 -631 -670 0
-583 -631 -671 0
-583 -631 -672 0
-583 -631 -673 0
-583 -631 -674 0
-583 -631 -675 0
-583 -631 -676 0
-583 -631 -677 0
-583 -631 -678 0
-583 -631 -679 0
-583 -631 -680 0
-583 -631 -681 0
-583 -631 -682 0
-583 -631 -683 0
-583 -631 -684 0
-583 -631 -685 0
-583 -631 -686 0
-583 -631 -687 0
-583 -631 -688 0
-583 -631 -689 0
-583 -631 -690 0
-583 -631 -691 0
-583 -631 -692 0
-583 -631 -693 0
-583 -631 -694 0
-583 -632 -670 0
-583 -632 -671 0
-583 -632 -672 0
-583 -632 -673 0
-583 -632 -674 0
-583 -632 -675 0
-583 -632 -676 0
-583 -632 -677 0
-583 -632 -678 0
-583 -632 -679 0
-583 -632 -680 0
-583 -632 -681 0
-583 -632 -682 0
-583 -632 -683 0
-583 -632 -684 0
-583 -632 -685 0
-583 -632 -686 0
-583 -632 -687 0
-583 -632 -688 0
-583 -632 -689 0
-583 -632 -690 0
-583 -632 -691 0
-583 -632 -692 0
-583 -632 -693 0
-583 -632 -694 0
-583 -633 -670 0
-583 -633 -671 0
-583 -633 -672 0
-583 -633 -673 0
-583 -633 -674 0
-583 -633 -675 0
-583 -633 -676 0
-583 -633 -677 0
-583 -633 -678 0
-583 -633 -679 0
-583 -633 -680 0
-583 -633 -681 0
-583 -633 -682 0
-583 -633 -683 0
-583 -633 -684 0
-583 -633 -685 0
-583 -633 -686 0
-583 -633 -687 0
-583 -633 -688 0
-583 -633 -689 0
-583 -633 -690 0
-583 -633 -691 0
-583 -633 -692 0
-583 -633 -693 0
-583 -633 -694 0
-583 -634 -670 0
-583 -634 -671 0
-583 -634 -672 0
-583 -634 -673 0
-583 -634 -674 0
-583 -634 -675 0
-583 -634 -676 0
-583 -634 -677 0
-583 -634 -678 0
-583 -634 -679 0
-583 -634 -680 0
-583 -634 -681 0
-583 -634 -682 0
-583 -634 -683 0
-583 -634 -684 0
-583 -634 -685 0
-583 -634 -686 0
-583 -634 -687 0
-583 -634 -688 0
-583 -634 -689 0
-583 -634 -690 0
-583 -634 -691 0
-583 -634 -692 0
-583 -634 -693 0
-583 -634 -694 0
-583 -635 -670 0
-583 -635 -671 0
-583 -635 -672 0
-583 -635 -673 0
-583 -635 -674 0
-583 -635 -675 0
-583 -635 -676 0
-583 -635 -677 0
-583 -635 -678 0
-583 -635 -679 0
-583 -635 -680 0
-583 -635 -681 0
-583 -635 -682 0
-583 -635 -683 0
-583 -635 -684 0
-583 -635 -685 0
-583 -635 -686 0
-583 -635 -687 0
-583 -635 -688 0
-583 -635 -689 0
-583 -635 -690 0
-583 -635 -691 0
-583 -635 -692 0
-583 -635 -693 0
-583 -635 -694 0
-583 -636 -670 0
-583 -636 -671 0
-583 -636 -672 0
-583 -636 -673 0
-583 -636 -674 0
-583 -636 -675 0
-583 -636 -676 0
-583 -636 -677 0
-583 -636 -678 0
-583 -636 -679 0
-583 -636 -680 0
-583 -636 -681 0
-583 -636 -682 0
-583 -636 -683 0
-583 -636 -684 0
-583 -636 -685 0
-583 -636 -686 0
-583 -636 -687 0
-583 -636 -688 0
-583 -636 -689 0
-583 -636 -690 0
-583 -636 -691 0
-583 -636 -692 0
-583 -636 -693 0
-583 -636 -694 0
-583 -637 -670 0
-583 -637 -671 0
-583 -637 -672 0
-583 -637 -673 0
-583 -637 -674 0
-583 -637 -675 0
-583 -637 -676 0
-583 -637 -677 0
-583 -637 -678 0
-583 -637 -679 0
-583 -637 -680 0
-583 -637 -681 0
-583 -637 -682 0
-583 -637 -683 0
-583 -637 -684 0
-583 -637 -685 0
-583 -637 -686 0
-583 -637 -687 0
-583 -637 -688 0
-583 -637 -689 0
-583 -637 -690 0
-583 -637 -691 0
-583 -637 -692 0
-583 -637 -693 0
-583 -637 -694 0
-583 -638 -670 0
-583 -638 -671 0
-583 -638 -672 0
-583 -638 -673 0
-583 -638 -674 0
-583 -638 -675 0
-583 -638 -676 0
-583 -638 -677 0
-583 -638 -678 0
-583 -638 -679 0
-583 -638 -680 0
-583 -638 -681 0
-583 -638 -682 0
-583 -638 -683 0
-583 -638 -684 0
-583 -638 -685 0
-583 -638 -686 0
-583 -638 -687 0
-583 -638 -688 0
-583 -638 -689 0
-583 -638 -690 0
-583 -638 -691 0
-583 -638 -692 0
-583 -638 -693 0
-583 -638 -694 0
-583 -639 -670 0
-583 -639 -671 0
-583 -639 -672 0
-583 -639 -673 0
-583 -639 -674 0
-583 -639 -675 0
-583 -639 -676 0
-583 -639 -677 0
-583 -639 -678 0
-583 -639 -679 0
-583 -639 -680 0
-583 -639 -681 0
-583 -639 -682 0
-583 -639 -683 0
-583 -639 -684 0
-583 -639 -685 0
-583 -639 -686 0
-583 -639 -687 0
-583 -639 -688 0
-583 -639 -689 0
-583 -639 -690 0
-583 -639 -691 0
-583 -639 -692 0
-583 -639 -693 0
-583 -639 -694 0
-583 -640 -670 0
-583 -640 -671 0
-583 -640 -672 0
-583 -640 -673 0
-583 -640 -674 0
-583 -640 -675 0
-583 -640 -676 0
-583 -640 -677 0
-583 -640 -678 0
-583 -640 -679 0
-583 -640 -680 0
-583 -640 -681 0
-583 -640 -682 0
-583 -640 -683 0
-583 -640 -684 0
-583 -640 -685 0
-583 -640 -686 0
-583 -640 -687 0
-583 -640 -688 0
-583 -640 -689 0
-583 -640 -690 0
-583 -640 -691 0
-583 -640 -692 0
-583 -640 -693 0
-583 -640 -694 0
-583 -641 -670 0
-583 -641 -671 0
-583 -641 -672 0
-583 -641 -673 0
-583 -641 -674 0
-583 -641 -675 0
-583 -641 -676 0
-583 -641 -677 0
-583 -641 -678 0
-583 -641 -679 0
-583 -641 -680 0
-583 -641 -681 0
-583 -641 -682 0
-583 -641 -683 0
-583 -641 -684 0
-583 -641 -685 0
-583 -641 -686 0
-583 -641 -687 0
-583 -641 -688 0
-583 -641 -689 0
-583 -641 -690 0
-583 -641 -691 0
-583 -641 -692 0
-583 -641 -693 0
-583 -641 -694 0
-583 -642 -670 0
-583 -642 -671 0
-583 -642 -672 0
-583 -642 -673 0
-583 -642 -674 0
-583 -642 -675 0
-583 -642 -676 0
-583 -642 -677 0
-583 -642 -678 0
-583 -642 -679 0
-583 -642 -680 0
-583 -642 -681 0
-583 -642 -682 0
-583 -642 -683 0
-583 -642 -684 0
-583 -642 -685 0
-583 -642 -686 0
-583 -642 -687 0
-583 -642 -688 0
-583 -642 -689 0
-583 -642 -690 0
-583 -642 -691 0
-583 -642 -692 0
-583 -642 -693 0
-583 -642 -694 0
-583 -643 -670 0
-583 -643 -671 0
-583 -643 -672 0
-583 -643 -673 0
-583 -643 -674 0
-583 -643 -675 0
-583 -643 -676 0
-583 -643 -677 0
-583 -643 -678 0
-583 -643 -679 0
-583 -643 -680 0
-583 -643 -681 0
-583 -643 -682 0
-583 -643 -683 0
-583 -643 -684 0
-583 -643 -685 0
-583 -643 -686 0
-583 -643 -687 0
-583 -643 -688 0
-583 -643 -689 0
-583 -643 -690 0
-583 -643 -691 0
-583 -643 -692 0
-583 -643 -693 0
-583 -643 -694 0
-583 -644 -670 0
-583 -644 -671 0
-583 -644 -672 0
-583 -644 -673 0
-583 -644 -674 0
-583 -644 -675 0
-583 -644 -676 0
-583 -644 -677 0
-583 -644 -678 0
-583 -644 -679 0
-583 -644 -680 0
-583 -644 -681 0
-583 -644 -682 0
-583 -644 -683 0
-583 -644 -684 0
-583 -644 -685 0
-583 -644 -686 0
-583 -644 -687 0
-583 -644 -688 0
-583 -644 -689 0
-583 -644 -690 0
-583 -644 -691 0
-583 -644 -692 0
-583 -644 -693 0
-583 -644 -694 0
-584 -620 -670 737 0
-584 -620 -671 738 0
-584 -620 -672 739 0
-584 -620 -673 740 0
-584 -620 -674 741 0
-584 -620 -675 742 0
-584 -620 -676 743 0
-584 -620 -677 744 0
-584 -620 -678 0
-584 -620 -679 0
-584 -620 -680 0
-584 -620 -681 0
-584 -620 -682 0
-584 -620 -683 0
-584 -620 -684 0
-584 -620 -685 0
-584 -620 -686 0
-584 -620 -687 0
-584 -620 -688 0
-584 -620 -689 0
-584 -620 -690 0
-584 -620 -691 0
-584 -620 -692 0
-584 -620 -693 0
-584 -620 -694 0
-584 -621 -670 738 0
-584 -621 -671 739 0
-584 -621 -672 740 0
-584 -621 -673 741 0
-584 -621 -674 742 0
-584 -621 -675 743 0
-584 -621 -676 744 0
-584 -621 -677 0
-584 -621 -678 0
-584 -621 -679 0
-584 -621 -680 0
-584 -621 -681 0
-584 -621 -682 0
-584 -621 -683 0
-584 -621 -684 0
-584 -621 -685 0
-584 -621 -686 0
-584 -621 -687 0
-584 -621 -688 0
-584 -621 -689 0
-584 -621 -690 0
-584 -621 -691 0
-584 -621 -692 0
-584 -621 -693 0
-584 -621 -694 0
-584 -622 -670 739 0
-584 -622 -671 740 0
-584 -622 -672 741 0
-584 -622 -673 742 0
-584 -622 -674 743 0
-584 -622 -675 744 0
-584 -622 -676 0
-584 -622 -677 0
-584 -622 -678 0
-584 -622 -679 0
-584 -622 -680 0
-584 -622 -681 0
-584 -622 -682 0
-584 -622 -683 0
-584 -622 -684 0
-584 -622 -685 0
-584 -622 -686 0
-584 -622 -687 0
-584 -622 -688 0
-584 -622 -689 0
-584 -622 -690 0
-584 -622 -691 0
-584 -622 -692 0
-584 -622 -693 0
-584 -622 -694 0
-584 -623 -670 740 0
-584 -623 -671 741 0
-584 -623 -672 742 0
-584 -623 -673 743 0
-584 -623 -674 744 0
-584 -623 -675 0
-584 -623 -676 0
-584 -623 -677 0
-584 -623 -678 0
-584 -623 -679 0
-584 -623 -680 0
-584 -623 -681 0
-584 -623 -682 0
-584 -623 -683 0
-584 -623 -684 0
-584 -623 -685 0
-584 -623 -686 0
-584 -623 -687 0
-584 -623 -688 0
-584 -623 -689 0
-584 -623 -690 0
-584 -623 -691 0
-584 -623 -692 0
-584 -623 -693 0
-584 -623 -694 0
-584 -624 -670 741 0
-584 -624 -671 742 0
-584 -624 -672 743 0
-584 -624 -673 744 0
-584 -624 -674 0
-584 -624 -675 0
-584 -624 -676 0
-584 -624 -677 0
-584 -624 -678 0
-584 -624 -679 0
-584 -624 -680 0
-584 -624 -681 0
-584 -624 -682 0
-584 -624 -683 0
-584 -624 -684 0
-584 -624 -685 0
-584 -624 -686 0
-584 -624 -687 0
-584 -624 -688 0
-584 -624 -689 0
-584 -624 -690 0
-584 -624 -691 0
-584 -624 -692 0
-584 -624 -693 0
-584 -624 -694 0
-584 -625 -670 742 0
-584 -625 -671 743 0
-584 -625 -672 744 0
-584 -625 -673 0
-584 -625 -674 0
-584 -625 -675 0
-584 -625 -676 0
-584 -625 -677 0
-584 -625 -678 0
-584 -625 -679 0
-584 -625 -680 0
-584 -625 -681 0
-584 -625 -682 0
-584 -625 -683 0
-584 -625 -684 0
-584 -625 -685 0
-584 -625 -686 0
-584 -625 -687 0
-584 -625 -688 0
-584 -625 -689 0
-584 -625 -690 0
-584 -625 -691 0
-584 -625 -692 0
-584 -625 -693 0
-584 -625 -694 0
-584 -626 -670 743 0
-584 -626 -671 744 0
-584 -626 -672 0
-584 -626 -673 0
-584 -626 -674 0
-584 -626 -675 0
-584 -626 -676 0
-584 -626 -677 0
-584 -626 -678 0
-584 -626 -679 0
-584 -626 -680 0
-584 -626 -681 0
-584 -626 -682 0
-584 -626 -683 0
-584 -626 -684 0
-584 -626 -685 0
-584 -626 -686 0
-584 -626 -687 0
-584 -626 -688 0
-584 -626 -689 0
-584 -626 -690 0
-584 -626 -691 0
-584 -626 -692 0
-584 -626 -693 0
-584 -626 -694 0
-584 -627 -670 744 0
-584 -627 -671 0
-584 -627 -672 0
-584 -627 -673 0
-584 -627 -674 0
-584 -627 -675 0
-584 -627 -676 0
-584 -627 -677 0
-584 -627 -678 0
-584 -627 -679 0
-584 -627 -680 0
-584 -627 -681 0
-584 -627 -682 0
-584 -627 -683 0
-584 -627 -684 0
-584 -627 -685 0
-584 -627 -686 0
-584 -627 -687 0
-584 -627 -688 0
-584 -627 -689 0
-584 -627 -690 0
-584 -627 -691 0
-584 -627 -692 0
-584 -627 -693 0
-584 -627 -694 0
-584 -628 -670 0
-584 -628 -671 0
-584 -628 -672 0
-584 -628 -673 0
-584 -628 -674 0
-584 -628 -675 0
-584 -628 -676 0
-584 -628 -677 0
-584 -628 -678 0
-584 -628 -679 0
-584 -628 -680 0
-584 -628 -681 0
-584 -628 -682 0
-584 -628 -683 0
-584 -628 -684 0
-584 -628 -685 0
-584 -628 -686 0
-584 -628 -687 0
-584 -628 -688 0
-584 -628 -689 0
-584 -628 -690 0
-584 -628 -691 0
-584 -628 -692 0
-584 -628 -693 0
-584 -628 -694 0
-584 -629 -670 0
-584 -629 -671 0
-584 -629 -672 0
-584 -629 -673 0
-584 -629 -674 0
-584 -629 -675 0
-584 -629 -676 0
-584 -629 -677 0
-584 -629 -678 0
-584 -629 -679 0
-584 -629 -680 0
-584 -629 -681 0
-584 -629 -682 0
-584 -629 -683 0
-584 -629 -684 0
-584 -629 -685 0
-584 -629 -686 0
-584 -629 -687 0
-584 -629 -688 0
-584 -629 -689 0
-584 -629 -690 0
-584 -629 -691 0
-584 -629 -692 0
-584 -629 -693 0
-584 -629 -694 0
-584 -630 -670 0
-584 -630 -671 0
-584 -630 -672 0
-584 -630 -673 0
-584 -630 -674 0
-584 -630 -675 0
-584 -630 -676 0
-584 -630 -677 0
-584 -630 -678 0
-584 -630 -679 0
-584 -630 -680 0
-584 -630 -681 0
-584 -630 -682 0
-584 -630 -683 0
-584 -630 -684 0
-584 -630 -685 0
-584 -630 -686 0
-584 -630 -687 0
-584 -630 -688 0
-584 -630 -689 0
-584 -630 -690 0
-584 -630 -691 0
-584 -630 -692 0
-584 -630 -693 0
-584 -630 -694 0
-584 -631 -670 0
-584 -631 -671 0
-584 -631 -672 0
-584 -631 -673 0
-584 -631 -674 0
-584 -631 -675 0
-584 -631 -676 0
-584 -631 -677 0
-584 -631 -678 0
-584 -631 -679 0
-584 -631 -680 0
-584 -631 -681 0
-584 -631 -682 0
-584 -631 -683 0
-584 -631 -684 0
-584 -631 -685 0
-584 -631 -686 0
-584 -631 -687 0
-584 -631 -688 0
-584 -631 -689 0
-584 -631 -690 0
-584 -631 -691 0
-584 -631 -692 0
-584 -631 -693 0
-584 -631 -694 0
-584 -632 -670 0
-584 -632 -671 0
-584 -632 -672 0
-584 -632 -673 0
-584 -632 -674 0
-584 -632 -675 0
-584 -632 -676 0
-584 -632 -677 0
-584 -632 -678 0
-584 -632 -679 0
-584 -632 -680 0
-584 -632 -681 0
-584 -632 -682 0
-584 -632 -683 0
-584 -632 -684 0
-584 -632 -685 0
-584 -632 -686 0
-584 -632 -687 0
-584 -632 -688 0
-584 -632 -689 0
-584 -632 -690 0
-584 -632 -691 0
-584 -632 -692 0
-584 -632 -693 0
-584 -632 -694 0
-584 -633 -670 0
-584 -633 -671 0
-584 -633 -672 0
-584 -633 -673 0
-584 -633 -674 0
-584 -633 -675 0
-584 -633 -676 0
-584 -633 -677 0
-584 -633 -678 0
-584 -633 -679 0
-584 -633 -680 0
-584 -633 -681 0
-584 -633 -682 0
-584 -633 -683 0
-584 -633 -684 0
-584 -633 -685 0
-584 -633 -686 0
-584 -633 -687 0
-584 -633 -688 0
-584 -633 -689 0
-584 -633 -690 0
-584 -633 -691 0
-584 -633 -692 0
-584 -633 -693 0
-584 -633 -694 0
-584 -634 -670 0
-584 -634 -671 0
-584 -634 -672 0
-584 -634 -673 0
-584 -634 -674 0
-584 -634 -675 0
-584 -634 -676 0
-584 -634 -677 0
-584 -634 -678 0
-584 -634 -679 0
-584 -634 -680 0
-584 -634 -681 0
-584 -634 -682 0
-584 -634 -683 0
-584 -634 -684 0
-584 -634 -685 0
-584 -634 -686 0
-584 -634 -687 0
-584 -634 -688 0
-584 -634 -689 0
-584 -634 -690 0
-584 -634 -691 0
-584 -634 -692 0
-584 -634 -693 0
-584 -634 -694 0
-584 -635 -670 0
-584 -635 -671 0
-584 -635 -672 0
-584 -635 -673 0
-584 -635 -674 0
-584 -635 -675 0
-584 -635 -676 0
-584 -635 -677 0
-584 -635 -678 0
-584 -635 -679 0
-584 -635 -680 0
-584 -635 -681 0
-584 -635 -682 0
-584 -635 -683 0
-584 -635 -684 0
-584 -635 -685 0
-584 -635 -686 0
-584 -635 -687 0
-584 -635 -688 0
-584 -635 -689 0
-584 -635 -690 0
-584 -635 -691 0
-584 -635 -692 0
-584 -635 -693 0
-584 -635 -694 0
-584 -636 -670 0
-584 -636 -671 0
-584 -636 -672 0
-584 -636 -673 0
-584 -636 -674 0
-584 -636 -675 0
-584 -636 -676 0
-584 -636 -677 0
-584 -636 -678 0
-584 -636 -679 0
-584 -636 -680 0
-584 -636 -681 0
-584 -636 -682 0
-584 -636 -683 0
-584 -636 -684 0
-584 -636 -685 0
-584 -636 -686 0
-584 -636 -687 0
-584 -636 -688 0
-584 -636 -689 0
-584 -636 -690 0
-584 -636 -691 0
-584 -636 -692 0
-584 -636 -693 0
-584 -636 -694 0
-584 -637 -670 0
-584 -637 -671 0
-584 -637 -672 0
-584 -637 -673 0
-584 -637 -674 0
-584 -637 -675 0
-584 -637 -676 0
-584 -637 -677 0
-584 -637 -678 0
-584 -637 -679 0
-584 -637 -680 0
-584 -637 -681 0
-584 -637 -682 0
-584 -637 -683 0
-584 -637 -684 0
-584 -637 -685 0
-584 -637 -686 0
-584 -637 -687 0
-584 -637 -688 0
-584 -637 -689 0
-584 -637 -690 0
-584 -637 -691 0
-584 -637 -692 0
-584 -637 -693 0
-584 -637 -694 0
-584 -638 -670 0
-584 -638 -671 0
-584 -638 -672 0
-584 -638 -673 0
-584 -638 -674 0
-584 -638 -675 0
-584 -638 -676 0
-584 -638 -677 0
-584 -638 -678 0
-584 -638 -679 0
-584 -638 -680 0
-584 -638 -681 0
-584 -638 -682 0
-584 -638 -683 0
-584 -638 -684 0
-584 -638 -685 0
-584 -638 -686 0
-584 -638 -687 0
-584 -638 -688 0
-584 -638 -689 0
-584 -638 -690 0
-584 -638 -691 0
-584 -638 -692 0
-584 -638 -693 0
-584 -638 -694 0
-584 -639 -670 0
-584 -639 -671 0
-584 -639 -672 0
-584 -639 -673 0
-584 -639 -674 0
-584 -639 -675 0
-584 -639 -676 0
-584 -639 -677 0
-584 -639 -678 0
-584 -639 -679 0
-584 -639 -680 0
-584 -639 -681 0
-584 -639 -682 0
-584 -639 -683 0
-584 -639 -684 0
-584 -639 -685 0
-584 -639 -686 0
-584 -639 -687 0
-584 -639 -688 0
-584 -639 -689 0
-584 -639 -690 0
-584 -639 -691 0
-584 -639 -692 0
-584 -639 -693 0
-584 -639 -694 0
-584 -640 -670 0
-584 -640 -671 0
-584 -640 -672 0
-584 -640 -673 0
-584 -640 -674 0
-584 -640 -675 0
-584 -640 -676 0
-584 -640 -677 0
-584 -640 -678 0
-584 -640 -679 0
-584 -640 -680 0
-584 -640 -681 0
-584 -640 -682 0
-584 -640 -683 0
-584 -640 -684 0
-584 -640 -685 0
-584 -640 -686 0
-584 -640 -687 0
-584 -640 -688 0
-584 -640 -689 0
-584 -640 -690 0
-584 -640 -691 0
-584 -640 -692 0
-584 -640 -693 0
-584 -640 -694 0
-584 -641 -670 0
-584 -641 -671 0
-584 -641 -672 0
-584 -641 -673 0
-584 -641 -674 0
-584 -641 -675 0
-584 -641 -676 0
-584 -641 -677 0
-584 -641 -678 0
-584 -641 -679 0
-584 -641 -680 0
-584 -641 -681 0
-584 -641 -682 0
-584 -641 -683 0
-584 -641 -684 0
-584 -641 -685 0
-584 -641 -686 0
-584 -641 -687 0
-584 -641 -688 0
-584 -641 -689 0
-584 -641 -690 0
-584 -641 -691 0
-584 -641 -692 0
-584 -641 -693 0
-584 -641 -694 0
-584 -642 -670 0
-584 -642 -671 0
-584 -642 -672 0
-584 -642 -673 0
-584 -642 -674 0
-584 -642 -675 0
-584 -642 -676 0
-584 -642 -677 0
-584 -642 -678 0
-584 -642 -679 0
-584 -642 -680 0
-584 -642 -681 0
-584 -642 -682 0
-584 -642 -683 0
-584 -642 -684 0
-584 -642 -685 0
-584 -642 -686 0
-584 -642 -687 0
-584 -642 -688 0
-584 -642 -689 0
-584 -642 -690 0
-584 -642 -691 0
-584 -642 -692 0
-584 -642 -693 0
-584 -642 -694 0
-584 -643 -670 0
-584 -643 -671 0
-584 -643 -672 0
-584 -643 -673 0
-584 -643 -674 0
-584 -643 -675 0
-584 -643 -676 0
-584 -643 -677 0
-584 -643 -678 0
-584 -643 -679 0
-584 -643 -680 0
-584 -643 -681 0
-584 -643 -682 0
-584 -643 -683 0
-584 -643 -684 0
-584 -643 -685 0
-584 -643 -686 0
-584 -643 -687 0
-584 -643 -688 0
-584 -643 -689 0
-584 -643 -690 0
-584 -643 -691 0
-584 -643 -692 0
-584 -643 -693 0
-584 -643 -694 0
-584 -644 -670 0
-584 -644 -671 0
-584 -644 -672 0
-584 -644 -673 0
-584 -644 -674 0
-584 -644 -675 0
-584 -644 -676 0
-584 -644 -677 0
-584 -644 -678 0
-584 -644 -679 0
-584 -644 -680 0
-584 -644 -681 0
-584 -644 -682 0
-584 -644 -683 0
-584 -644 -684 0
-584 -644 -685 0
-584 -644 -686 0
-584 -644 -687 0
-584 -644 -688 0
-584 -644 -689 0
-584 -644 -690 0
-584 -644 -691 0
-584 -644 -692 0
-584 -644 -693 0
-584 -644 -694 0
-585 -620 -670 738 0
-585 -620 -671 739 0
-585 -620 -672 740 0
-585 -620 -673 741 0
-585 -620 -674 742 0
-585 -620 -675 743 0
-585 -620 -676 744 0
-585 -620 -677 0
-585 -620 -678 0
-585 -620 -679 0
-585 -620 -680 0
-585 -620 -681 0
-585 -620 -682 0
-585 -620 -683 0
-585 -620 -684 0
-585 -620 -685 0
-585 -620 -686 0
-585 -620 -687 0
-585 -620 -688 0
-585 -620 -689 0
-585 -620 -690 0
-585 -620 -691 0
-585 -620 -692 0
-585 -620 -693 0
-585 -620 -694 0
-585 -621 -670 739 0
-585 -621 -671 740 0
-585 -621 -672 741 0
-585 -621 -673 742 0
-585 -621 -674 743 0
-585 -621 -675 744 0
-585 -621 -676 0
-585 -621 -677 0
-585 -621 -678 0
-585 -621 -679 0
-585 -621 -680 0
-585 -621 -681 0
-585 -621 -682 0
-585 -621 -683 0
-585 -621 -684 0
-585 -621 -685 0
-585 -621 -686 0
-585 -621 -687 0
-585 -621 -688 0
-585 -621 -689 0
-585 -621 -690 0
-585 -621 -691 0
-585 -621 -692 0
-585 -621 -693 0
-585 -621 -694 0
-585 -622 -670 740 0
-585 -622 -671 741 0
-585 -622 -672 742 0
-585 -622 -673 743 0
-585 -622 -674 744 0
-585 -622 -675 0
-585 -622 -676 0
-585 -622 -677 0
-585 -622 -678 0
-585 -622 -679 0
-585 -622 -680 0
-585 -622 -681 0
-585 -622 -682 0
-585 -622 -683 0
-585 -622 -684 0
-585 -622 -685 0
-585 -622 -686 0
-585 -622 -687 0
-585 -622 -688 0
-585 -622 -689 0
-585 -622 -690 0
-585 -622 -691 0
-585 -622 -692 0
-585 -622 -693 0
-585 -622 -694 0
-585 -623 -670 741 0
-585 -623 -671 742 0
-585 -623 -672 743 0
-585 -623 -673 744 0
-585 -623 -674 0
-585 -623 -675 0
-585 -623 -676 0
-585 -623 -677 0
-585 -623 -678 0
-585 -623 -679 0
-585 -623 -680 0
-585 -623 -681 0
-585 -623 -682 0
-585 -623 -683 0
-585 -623 -684 0
-585 -623 -685 0
-585 -623 -686 0
-585 -623 -687 0
-585 -623 -688 0
-585 -623 -689 0
-585 -623 -690 0
-585 -623 -691 0
-585 -623 -692 0
-585 -623 -693 0
-585 -623 -694 0
-585 -624 -670 742 0
-585 -624 -671 743 0
-585 -624 -672 744 0
-585 -624 -673 0
-585 -624 -674 0
-585 -624 -675 0
-585 -624 -676 0
-585 -624 -677 0
-585 -624 -678 0
-585 -624 -679 0
-585 -624 -680 0
-585 -624 -681 0
-585 -624 -682 0
-585 -624 -683 0
-585 -624 -684 0
-585 -624 -685 0
-585 -624 -686 0
-585 -624 -687 0
-585 -624 -688 0
-585 -624 -689 0
-585 -624 -690 0
-585 -624 -691 0
-585 -624 -692 0
-585 -624 -693 0
-585 -624 -694 0
-585 -625 -670 743 0
-585 -625 -671 744 0
-585 -625 -672 0
-585 -625 -673 0
-585 -625 -674 0
-585 -625 -675 0
-585 -625 -676 0
-585 -625 -677 0
-585 -625 -678 0
-585 -625 -679 0
-585 -625 -680 0
-585 -625 -681 0
-585 -625 -682 0
-585 -625 -683 0
-585 -625 -684 0
-585 -625 -685 0
-585 -625 -686 0
-585 -625 -687 0
-585 -625 -688 0
-585 -625 -689 0
-585 -625 -690 0
-585 -625 -691 0
-585 -625 -692 0
-585 -625 -693 0
-585 -625 -694 0
-585 -626 -670 744 0
-585 -626 -671 0
-585 -626 -672 0
-585 -626 -673 0
-585 -626 -674 0
-585 -626 -675 0
-585 -626 -676 0
-585 -626 -677 0
-585 -626 -678 0
-585 -626 -679 0
-585 -626 -680 0
-585 -626 -681 0
-585 -626 -682 0
-585 -626 -683 0
-585 -626 -684 0
-585 -626 -685 0
-585 -626 -686 0
-585 -626 -687 0
-585 -626 -688 0
-585 -626 -689 0
-585 -626 -690 0
-585 -626 -691 0
-585 -626 -692 0
-585 -626 -693 0
-585 -626 -694 0
-585 -627 -670 0
-585 -627 -671 0
-585 -627 -672 0
-585 -627 -673 0
-585 -627 -674 0
-585 -627 -675 0
-585 -627 -676 0
-585 -627 -677 0
-585 -627 -678 0
-585 -627 -679 0
-585 -627 -680 0
-585 -627 -681 0
-585 -627 -682 0
-585 -627 -683 0
-585 -627 -684 0
-585 -627 -685 0
-585 -627 -686 0
-585 -627 -687 0
-585 -627 -688 0
-585 -627 -689 0
-585 -627 -690 0
-585 -627 -691 0
-585 -627 -692 0
-585 -627 -693 0
-585 -627 -694 0
-585 -628 -670 0
-585 -628 -671 0
-585 -628 -672 0
-585 -628 -673 0
-585 -628 -674 0
-585 -628 -675 0
-585 -628 -676 0
-585 -628 -677 0
-585 -628 -678 0
-585 -628 -679 0
-585 -628 -680 0
-585 -628 -681 0
-585 -628 -682 0
-585 -628 -683 0
-585 -628 -684 0
-585 -628 -685 0
-585 -628 -686 0
-585 -628 -687 0
-585 -628 -688 0
-585 -628 -689 0
-585 -628 -690 0
-585 -628 -691 0
-585 -628 -692 0
-585 -628 -693 0
-585 -628 -694 0
-585 -629 -670 0
-585 -629 -671 0
-585 -629 -672 0
-585 -629 -673 0
-585 -629 -674 0
-585 -629 -675 0
-585 -629 -676 0
-585 -629 -677 0
-585 -629 -678 0
-585 -629 -679 0
-585 -629 -680 0
-585 -629 -681 0
-585 -629 -682 0
-585 -629 -683 0
-585 -629 -684 0
-585 -629 -685 0
-585 -629 -686 0
-585 -629 -687 0
-585 -629 -688 0
-585 -629 -689 0
-585 -629 -690 0
-585 -629 -691 0
-585 -629 -692 0
-585 -629 -693 0
-585 -629 -694 0
-585 -630 -670 0
-585 -630 -671 0
-585 -630 -672 0
-585 -630 -673 0
-585 -630 -674 0
-585 -630 -675 0
-585 -630 -676 0
-585 -630 -677 0
-585 -630 -678 0
-585 -630 -679 0
-585 -630 -680 0
-585 -630 -681 0
-585 -630 -682 0
-585 -630 -683 0
-585 -630 -684 0
-585 -630 -685 0
-585 -630 -686 0
-585 -630 -687 0
-585 -630 -688 0
-585 -630 -689 0
-585 -630 -690 0
-585 -630 -691 0
-585 -630 -692 0
-585 -630 -693 0
-585 -630 -694 0
-585 -631 -670 0
-585 -631 -671 0
-585 -631 -672 0
-585 -631 -673 0
-585 -631 -674 0
-585 -631 -675 0
-585 -631 -676 0
-585 -631 -677 0
-585 -631 -678 0
-585 -631 -679 0
-585 -631 -680 0
-585 -631 -681 0
-585 -631 -682 0
-585 -631 -683 0
-585 -631 -684 0
-585 -631 -685 0
-585 -631 -686 0
-585 -631 -687 0
-585 -631 -688 0
-585 -631 -689 0
-585 -631 -690 0
-585 -631 -691 0
-585 -631 -692 0
-585 -631 -693 0
-585 -631 -694 0
-585 -632 -670 0
-585 -632 -671 0
-585 -632 -672 0
-585 -632 -673 0
-585 -632 -674 0
-585 -632 -675 0
-585 -632 -676 0
-585 -632 -677 0
-585 -632 -678 0
-585 -632 -679 0
-585 -632 -680 0
-585 -632 -681 0
-585 -632 -682 0
-585 -632 -683 0
-585 -632 -684 0
-585 -632 -685 0
-585 -632 -686 0
-585 -632 -687 0
-585 -632 -688 0
-585 -632 -689 0
-585 -632 -690 0
-585 -632 -691 0
-585 -632 -692 0
-585 -632 -693 0
-585 -632 -694 0
-585 -633 -670 0
-585 -633 -671 0
-585 -633 -672 0
-585 -633 -673 0
-585 -633 -674 0
-585 -633 -675 0
-585 -633 -676 0
-585 -633 -677 0
-585 -633 -678 0
-585 -633 -679 0
-585 -633 -680 0
-585 -633 -681 0
-585 -633 -682 0
-585 -633 -683 0
-585 -633 -684 0
-585 -633 -685 0
-585 -633 -686 0
-585 -633 -687 0
-585 -633 -688 0
-585 -633 -689 0
-585 -633 -690 0
-585 -633 -691 0
-585 -633 -692 0
-585 -633 -693 0
-585 -633 -694 0
-585 -634 -670 0
-585 -634 -671 0
-585 -634 -672 0
-585 -634 -673 0
-585 -634 -674 0
-585 -634 -675 0
-585 -634 -676 0
-585 -634 -677 0
-585 -634 -678 0
-585 -634 -679 0
-585 -634 -680 0
-585 -634 -681 0
-585 -634 -682 0
-585 -634 -683 0
-585 -634 -684 0
-585 -634 -685 0
-585 -634 -686 0
-585 -634 -687 0
-585 -634 -688 0
-585 -634 -689 0
-585 -634 -690 0
-585 -634 -691 0
-585 -634 -692 0
-585 -634 -693 0
-585 -634 -694 0
-585 -635 -670 0
-585 -635 -671 0
-585 -635 -672 0
-585 -635 -673 0
-585 -635 -674 0
-585 -635 -675 0
-585 -635 -676 0
-585 -635 -677 0
-585 -635 -678 0
-585 -635 -679 0
-585 -635 -680 0
-585 -635 -681 0
-585 -635 -682 0
-585 -635 -683 0
-585 -635 -684 0
-585 -635 -685 0
-585 -635 -686 0
-585 -635 -687 0
-585 -635 -688 0
-585 -635 -689 0
-585 -635 -690 0
-585 -635 -691 0
-585 -635 -692 0
-585 -635 -693 0
-585 -635 -694 0
-585 -636 -670 0
-585 -636 -671 0
-585 -636 -672 0
-585 -636 -673 0
-585 -636 -674 0
-585 -636 -675 0
-585 -636 -676 0
-585 -636 -677 0
-585 -636 -678 0
-585 -636 -679 0
-585 -636 -680 0
-585 -636 -681 0
-585 -636 -682 0
-585 -636 -683 0
-585 -636 -684 0
-585 -636 -685 0
-585 -636 -686 0
-585 -636 -687 0
-585 -636 -688 0
-585 -636 -689 0
-585 -636 -690 0
-585 -636 -691 0
-585 -636 -692 0
-585 -636 -693 0
-585 -636 -694 0
-585 -637 -670 0
-585 -637 -671 0
-585 -637 -672 0
-585 -637 -673 0
-585 -637 -674 0
-585 -637 -675 0
-585 -637 -676 0
-585 -637 -677 0
-585 -637 -678 0
-585 -637 -679 0
-585 -637 -680 0
-585 -637 -681 0
-585 -637 -682 0
-585 -637 -683 0
-585 -637 -684 0
-585 -637 -685 0
-585 -637 -686 0
-585 -637 -687 0
-585 -637 -688 0
-585 -637 -689 0
-585 -637 -690 0
-585 -637 -691 0
-585 -637 -692 0
-585 -637 -693 0
-585 -637 -694 0
-585 -638 -670 0
-585 -638 -671 0
-585 -638 -672 0
-585 -638 -673 0
-585 -638 -674 0
-585 -638 -675 0
-585 -638 -676 0
-585 -638 -677 0
-585 -638 -678 0
-585 -638 -679 0
-585 -638 -680 0
-585 -638 -681 0
-585 -638 -682 0
-585 -638 -683 0
-585 -638 -684 0
-585 -638 -685 0
-585 -638 -686 0
-585 -638 -687 0
-585 -638 -688 0
-585 -638 -689 0
-585 -638 -690 0
-585 -638 -691 0
-585 -638 -692 0
-585 -638 -693 0
-585 -638 -694 0
-585 -639 -670 0
-585 -639 -671 0
-585 -639 -672 0
-585 -639 -673 0
-585 -639 -674 0
-585 -639 -675 0
-585 -639 -676 0
-585 -639 -677 0
-585 -639 -678 0
-585 -639 -679 0
-585 -639 -680 0
-585 -639 -681 0
-585 -639 -682 0
-585 -639 -683 0
-585 -639 -684 0
-585 -639 -685 0
-585 -639 -686 0
-585 -639 -687 0
-585 -639 -688 0
-585 -639 -689 0
-585 -639 -690 0
-585 -639 -691 0
-585 -639 -692 0
-585 -639 -693 0
-585 -639 -694 0
-585 -640 -670 0
-585 -640 -671 0
-585 -640 -672 0
-585 -640 -673 0
-585 -640 -674 0
-585 -640 -675 0
-585 -640 -676 0
-585 -640 -677 0
-585 -640 -678 0
-585 -640 -679 0
-585 -640 -680 0
-585 -640 -681 0
-585 -640 -682 0
-585 -640 -683 0
-585 -640 -684 0
-585 -640 -685 0
-585 -640 -686 0
-585 -640 -687 0
-585 -640 -688 0
-585 -640 -689 0
-585 -640 -690 0
-585 -640 -691 0
-585 -640 -692 0
-585 -640 -693 0
-585 -640 -694 0
-585 -641 -670 0
-585 -641 -671 0
-585 -641 -672 0
-585 -641 -673 0
-585 -641 -674 0
-585 -641 -675 0
-585 -641 -676 0
-585 -641 -677 0
-585 -641 -678 0
-585 -641 -679 0
-585 -641 -680 0
-585 -641 -681 0
-585 -641 -682 0
-585 -641 -683 0
-585 -641 -684 0
-585 -641 -685 0
-585 -641 -686 0
-585 -641 -687 0
-585 -641 -688 0
-585 -641 -689 0
-585 -641 -690 0
-585 -641 -691 0
-585 -641 -692 0
-585 -641 -693 0
-585 -641 -694 0
-585 -642 -670 0
-585 -642 -671 0
-585 -642 -672 0
-585 -642 -673 0
-585 -642 -674 0
-585 -642 -675 0
-585 -642 -676 0
-585 -642 -677 0
-585 -642 -678 0
-585 -642 -679 0
-585 -642 -680 0
-585 -642 -681 0
-585 -642 -682 0
-585 -642 -683 0
-585 -642 -684 0
-585 -642 -685 0
-585 -642 -686 0
-585 -642 -687 0
-585 -642 -688 0
-585 -642 -689 0
-585 -642 -690 0
-585 -642 -691 0
-585 -642 -692 0
-585 -642 -693 0
-585 -642 -694 0
-585 -643 -670 0
-585 -643 -671 0
-585 -643 -672 0
-585 -643 -673 0
-585 -643 -674 0
-585 -643 -675 0
-585 -643 -676 0
-585 -643 -677 0
-585 -643 -678 0
-585 -643 -679 0
-585 -643 -680 0
-585 -643 -681 0
-585 -643 -682 0
-585 -643 -683 0
-585 -643 -684 0
-585 -643 -685 0
-585 -643 -686 0
-585 -643 -687 0
-585 -643 -688 0
-585 -643 -689 0
-585 -643 -690 0
-585 -643 -691 0
-585 -643 -692 0
-585 -643 -693 0
-585 -643 -694 0
-585 -644 -670 0
-585 -644 -671 0
-585 -644 -672 0
-585 -644 -673 0
-585 -644 -674 0
-585 -644 -675 0
-585 -644 -676 0
-585 -644 -677 0
-585 -644 -678 0
-585 -644 -679 0
-585 -644 -680 0
-585 -644 -681 0
-585 -644 -682 0
-585 -644 -683 0
-585 -644 -684 0
-585 -644 -685 0
-585 -644 -686 0
-585 -644 -687 0
-585 -644 -688 0
-585 -644 -689 0
-585 -644 -690 0
-585 -644 -691 0
-585 -644 -692 0
-585 -644 -693 0
-585 -644 -694 0
-586 -620 -670 739 0
-586 -620 -671 740 0
-586 -620 -672 741 0
-586 -620 -673 742 0
-586 -620 -674 743 0
-586 -620 -675 744 0
-586 -620 -676 0
-586 -620 -677 0
-586 -620 -678 0
-586 -620 -679 0
-586 -620 -680 0
-586 -620 -681 0
-586 -620 -682 0
-586 -620 -683 0
-586 -620 -684 0
-586 -620 -685 0
-586 -620 -686 0
-586 -620 -687 0
-586 -620 -688 0
-586 -620 -689 0
-586 -620 -690 0
-586 -620 -691 0
-586 -620 -692 0
-586 -620 -693 0
-586 -620 -694 0
-586 -621 -670 740 0
-586 -621 -671 741 0
-586 -621 -672 742 0
-586 -621 -673 743 0
-586 -621 -674 744 0
-586 -621 -675 0
-586 -621 -676 0
-586 -621 -677 0
-586 -621 -678 0
-586 -621 -679 0
-586 -621 -680 0
-586 -621 -681 0
-586 -621 -682 0
-586 -621 -683 0
-586 -621 -684 0
-586 -621 -685 0
-586 -621 -686 0
-586 -621 -687 0
-586 -621 -688 0
-586 -621 -689 0
-586 -621 -690 0
-586 -621 -691 0
-586 -621 -692 0
-586 -621 -693 0
-586 -621 -694 0
-586 -622 -670 741 0
-586 -622 -671 742 0
-586 -622 -672 743 0
-586 -622 -673 744 0
-586 -622 -674 0
-586 -622 -675 0
-586 -622 -676 0
-586 -622 -677 0
-586 -622 -678 0
-586 -622 -679 0
-586 -622 -680 0
-586 -622 -681 0
-586 -622 -682 0
-586 -622 -683 0
-586 -622 -684 0
-586 -622 -685 0
-586 -622 -686 0
-586 -622 -687 0
-586 -622 -688 0
-586 -622 -689 0
-586 -622 -690 0
-586 -622 -691 0
-586 -622 -692 0
-586 -622 -693 0
-586 -622 -694 0
-586 -623 -670 742 0
-586 -623 -671 743 0
-586 -623 -672 744 0
-586 -623 -673 0
-586 -623 -674 0
-586 -623 -675 0
-586 -623 -676 0
-586 -623 -677 0
-586 -623 -678 0
-586 -623 -679 0
-586 -623 -680 0
-586 -623 -681 0
-586 -623 -682 0
-586 -623 -683 0
-586 -623 -684 0
-586 -623 -685 0
-586 -623 -686 0
-586 -623 -687 0
-586 -623 -688 0
-586 -623 -689 0
-586 -623 -690 0
-586 -623 -691 0
-586 -623 -692 0
-586 -623 -693 0
-586 -623 -694 0
-586 -624 -670 743 0
-586 -624 -671 744 0
-586 -624 -672 0
-586 -624 -673 0
-586 -624 -674 0
-586 -624 -675 0
-586 -624 -676 0
-586 -624 -677 0
-586 -624 -678 0
-586 -624 -679 0
-586 -624 -680 0
-586 -624 -681 0
-586 -624 -682 0
-586 -624 -683 0
-586 -624 -684 0
-586 -624 -685 0
-586 -624 -686 0
-586 -624 -687 0
-586 -624 -688 0
-586 -624 -689 0
-586 -624 -690 0
-586 -624 -691 0
-586 -624 -692 0
-586 -624 -693 0
-586 -624 -694 0
-586 -625 -670 744 0
-586 -625 -671 0
-586 -625 -672 0
-586 -625 -673 0
-586 -625 -674 0
-586 -625 -675 0
-586 -625 -676 0
-586 -625 -677 0
-586 -625 -678 0
-586 -625 -679 0
-586 -625 -680 0
-586 -625 -681 0
-586 -625 -682 0
-586 -625 -683 0
-586 -625 -684 0
-586 -625 -685 0
-586 -625 -686 0
-586 -625 -687 0
-586 -625 -688 0
-586 -625 -689 0
-586 -625 -690 0
-586 -625 -691 0
-586 -625 -692 0
-586 -625 -693 0
-586 -625 -694 0
-586 -626 -670 0
-586 -626 -671 0
-586 -626 -672 0
-586 -626 -673 0
-586 -626 -674 0
-586 -626 -675 0
-586 -626 -676 0
-586 -626 -677 0
-586 -626 -678 0
-586 -626 -679 0
-586 -626 -680 0
-586 -626 -681 0
-586 -626 -682 0
-586 -626 -683 0
-586 -626 -684 0
-586 -626 -685 0
-586 -626 -686 0
-586 -626 -687 0
-586 -626 -688 0
-586 -626 -689 0
-586 -626 -690 0
-586 -626 -691 0
-586 -626 -692 0
-586 -626 -693 0
-586 -626 -694 0
-586 -627 -670 0
-586 -627 -671 0
-586 -627 -672 0
-586 -627 -673 0
-586 -627 -674 0
-586 -627 -675 0
-586 -627 -676 0
-586 -627 -677 0
-586 -627 -678 0
-586 -627 -679 0
-586 -627 -680 0
-586 -627 -681 0
-586 -627 -682 0
-586 -627 -683 0
-586 -627 -684 0
-586 -627 -685 0
-586 -627 -686 0
-586 -627 -687 0
-586 -627 -688 0
-586 -627 -689 0
-586 -627 -690 0
-586 -627 -691 0
-586 -627 -692 0
-586 -627 -693 0
-586 -627 -694 0
-586 -628 -670 0
-586 -628 -671 0
-586 -628 -672 0
-586 -628 -673 0
-586 -628 -674 0
-586 -628 -675 0
-586 -628 -676 0
-586 -628 -677 0
-586 -628 -678 0
-586 -628 -679 0
-586 -628 -680 0
-586 -628 -681 0
-586 -628 -682 0
-586 -628 -683 0
-586 -628 -684 0
-586 -628 -685 0
-586 -628 -686 0
-586 -628 -687 0
-586 -628 -688 0
-586 -628 -689 0
-586 -628 -690 0
-586 -628 -691 0
-586 -628 -692 0
-586 -628 -693 0
-586 -628 -694 0
-586 -629 -670 0
-586 -629 -671 0
-586 -629 -672 0
-586 -629 -673 0
-586 -629 -674 0
-586 -629 -675 0
-586 -629 -676 0
-586 -629 -677 0
-586 -629 -678 0
-586 -629 -679 0
-586 -629 -680 0
-586 -629 -681 0
-586 -629 -682 0
-586 -629 -683 0
-586 -629 -684 0
-586 -629 -685 0
-586 -629 -686 0
-586 -629 -687 0
-586 -629 -688 0
-586 -629 -689 0
-586 -629 -690 0
-586 -629 -691 0
-586 -629 -692 0
-586 -629 -693 0
-586 -629 -694 0
-586 -630 -670 0
-586 -630 -671 0
-586 -630 -672 0
-586 -630 -673 0
-586 -630 -674 0
-586 -630 -675 0
-586 -630 -676 0
-586 -630 -677 0
-586 -630 -678 0
-586 -630 -679 0
-586 -630 -680 0
-586 -630 -681 0
-586 -630 -682 0
-586 -630 -683 0
-586 -630 -684 0
-586 -630 -685 0
-586 -630 -686 0
-586 -630 -687 0
-586 -630 -688 0
-586 -630 -689 0
-586 -630 -690 0
-586 -630 -691 0
-586 -630 -692 0
-586 -630 -693 0
-586 -630 -694 0
-586 -631 -670 0
-586 -631 -671 0
-586 -631 -672 0
-586 -631 -673 0
-586 -631 -674 0
-586 -631 -675 0
-586 -631 -676 0
-586 -631 -677 0
-586 -631 -678 0
-586 -631 -679 0
-586 -631 -680 0
-586 -631 -681 0
-586 -631 -682 0
-586 -631 -683 0
-586 -631 -684 0
-586 -631 -685 0
-586 -631 -686 0
-586 -631 -687 0
-586 -631 -688 0
-586 -631 -689 0
-586 -631 -690 0
-586 -631 -691 0
-586 -631 -692 0
-586 -631 -693 0
-586 -631 -694 0
-586 -632 -670 0
-586 -632 -671 0
-586 -632 -672 0
-586 -632 -673 0
-586 -632 -674 0
-586 -632 -675 0
-586 -632 -676 0
-586 -632 -677 0
-586 -632 -678 0
-586 -632 -679 0
-586 -632 -680 0
-586 -632 -681 0
-586 -632 -682 0
-586 -632 -683 0
-586 -632 -684 0
-586 -632 -685 0
-586 -632 -686 0
-586 -632 -687 0
-586 -632 -688 0
-586 -632 -689 0
-586 -632 -690 0
-586 -632 -691 0
-586 -632 -692 0
-586 -632 -693 0
-586 -632 -694 0
-586 -633 -670 0
-586 -633 -671 0
-586 -633 -672 0
-586 -633 -673 0
-586 -633 -674 0
-586 -633 -675 0
-586 -633 -676 0
-586 -633 -677 0
-586 -633 -678 0
-586 -633 -679 0
-586 -633 -680 0
-586 -633 -681 0
-586 -633 -682 0
-586 -633 -683 0
-586 -633 -684 0
-586 -633 -685 0
-586 -633 -686 0
-586 -633 -687 0
-586 -633 -688 0
-586 -633 -689 0
-586 -633 -690 0
-586 -633 -691 0
-586 -633 -692 0
-586 -633 -693 0
-586 -633 -694 0
-586 -634 -670 0
-586 -634 -671 0
-586 -634 -672 0
-586 -634 -673 0
-586 -634 -674 0
-586 -634 -675 0
-586 -634 -676 0
-586 -634 -677 0
-586 -634 -678 0
-586 -634 -679 0
-586 -634 -680 0
-586 -634 -681 0
-586 -634 -682 0
-586 -634 -683 0
-586 -634 -684 0
-586 -634 -685 0
-586 -634 -686 0
-586 -634 -687 0
-586 -634 -688 0
-586 -634 -689 0
-586 -634 -690 0
-586 -634 -691 0
-586 -634 -692 0
-586 -634 -693 0
-586 -634 -694 0
-586 -635 -670 0
-586 -635 -671 0
-586 -635 -672 0
-586 -635 -673 0
-586 -635 -674 0
-586 -635 -675 0
-586 -635 -676 0
-586 -635 -677 0
-586 -635 -678 0
-586 -635 -679 0
-586 -635 -680 0
-586 -635 -681 0
-586 -635 -682 0
-586 -635 -683 0
-586 -635 -684 0
-586 -635 -685 0
-586 -635 -686 0
-586 -635 -687 0
-586 -635 -688 0
-586 -635 -689 0
-586 -635 -690 0
-586 -635 -691 0
-586 -635 -692 0
-586 -635 -693 0
-586 -635 -694 0
-586 -636 -670 0
-586 -636 -671 0
-586 -636 -672 0
-586 -636 -673 0
-586 -636 -674 0
-586 -636 -675 0
-586 -636 -676 0
-586 -636 -677 0
-586 -636 -678 0
-586 -636 -679 0
-586 -636 -680 0
-586 -636 -681 0
-586 -636 -682 0
-586 -636 -683 0
-586 -636 -684 0
-586 -636 -685 0
-586 -636 -686 0
-586 -636 -687 0
-586 -636 -688 0
-586 -636 -689 0
-586 -636 -690 0
-586 -636 -691 0
-586 -636 -692 0
-586 -636 -693 0
-586 -636 -694 0
-586 -637 -670 0
-586 -637 -671 0
-586 -637 -672 0
-586 -637 -673 0
-586 -637 -674 0
-586 -637 -675 0
-586 -637 -676 0
-586 -637 -677 0
-586 -637 -678 0
-586 -637 -679 0
-586 -637 -680 0
-586 -637 -681 0
-586 -637 -682 0
-586 -637 -683 0
-586 -637 -684 0
-586 -637 -685 0
-586 -637 -686 0
-586 -637 -687 0
-586 -637 -688 0
-586 -637 -689 0
-586 -637 -690 0
-586 -637 -691 0
-586 -637 -692 0
-586 -637 -693 0
-586 -637 -694 0
-586 -638 -670 0
-586 -638 -671 0
-586 -638 -672 0
-586 -638 -673 0
-586 -638 -674 0
-586 -638 -675 0
-586 -638 -676 0
-586 -638 -677 0
-586 -638 -678 0
-586 -638 -679 0
-586 -638 -680 0
-586 -638 -681 0
-586 -638 -682 0
-586 -638 -683 0
-586 -638 -684 0
-586 -638 -685 0
-586 -638 -686 0
-586 -638 -687 0
-586 -638 -688 0
-586 -638 -689 0
-586 -638 -690 0
-586 -638 -691 0
-586 -638 -692 0
-586 -638 -693 0
-586 -638 -694 0
-586 -639 -670 0
-586 -639 -671 0
-586 -639 -672 0
-586 -639 -673 0
-586 -639 -674 0
-586 -639 -675 0
-586 -639 -676 0
-586 -639 -677 0
-586 -639 -678 0
-586 -639 -679 0
-586 -639 -680 0
-586 -639 -681 0
-586 -639 -682 0
-586 -639 -683 0
-586 -639 -684 0
-586 -639 -685 0
-586 -639 -686 0
-586 -639 -687 0
-586 -639 -688 0
-586 -639 -689 0
-586 -639 -690 0
-586 -639 -691 0
-586 -639 -692 0
-586 -639 -693 0
-586 -639 -694 0
-586 -640 -670 0
-586 -640 -671 0
-586 -640 -672 0
-586 -640 -673 0
-586 -640 -674 0
-586 -640 -675 0
-586 -640 -676 0
-586 -640 -677 0
-586 -640 -678 0
-586 -640 -679 0
-586 -640 -680 0
-586 -640 -681 0
-586 -640 -682 0
-586 -640 -683 0
-586 -640 -684 0
-586 -640 -685 0
-586 -640 -686 0
-586 -640 -687 0
-586 -640 -688 0
-586 -640 -689 0
-586 -640 -690 0
-586 -640 -691 0
-586 -640 -692 0
-586 -640 -693 0
-586 -640 -694 0
-586 -641 -670 0
-586 -641 -671 0
-586 -641 -672 0
-586 -641 -673 0
-586 -641 -674 0
-586 -641 -675 0
-586 -641 -676 0
-586 -641 -677 0
-586 -641 -678 0
-586 -641 -679 0
-586 -641 -680 0
-586 -641 -681 0
-586 -641 -682 0
-586 -641 -683 0
-586 -641 -684 0
-586 -641 -685 0
-586 -641 -686 0
-586 -641 -687 0
-586 -641 -688 0
-586 -641 -689 0
-586 -641 -690 0
-586 -641 -691 0
-586 -641 -692 0
-586 -641 -693 0
-586 -641 -694 0
-586 -642 -670 0
-586 -642 -671 0
-586 -642 -672 0
-586 -642 -673 0
-586 -642 -674 0
-586 -642 -675 0
-586 -642 -676 0
-586 -642 -677 0
-586 -642 -678 0
-586 -642 -679 0
-586 -642 -680 0
-586 -642 -681 0
-586 -642 -682 0
-586 -642 -683 0
-586 -642 -684 0
-586 -642 -685 0
-586 -642 -686 0
-586 -642 -687 0
-586 -642 -688 0
-586 -642 -689 0
-586 -642 -690 0
-586 -642 -691 0
-586 -642 -692 0
-586 -642 -693 0
-586 -642 -694 0
-586 -643 -670 0
-586 -643 -671 0
-586 -643 -672 0
-586 -643 -673 0
-586 -643 -674 0
-586 -643 -675 0
-586 -643 -676 0
-586 -643 -677 0
-586 -643 -678 0
-586 -643 -679 0
-586 -643 -680 0
-586 -643 -681 0
-586 -643 -682 0
-586 -643 -683 0
-586 -643 -684 0
-586 -643 -685 0
-586 -643 -686 0
-586 -643 -687 0
-586 -643 -688 0
-586 -643 -689 0
-586 -643 -690 0
-586 -643 -691 0
-586 -643 -692 0
-586 -643 -693 0
-586 -643 -694 0
-586 -644 -670 0
-586 -644 -671 0
-586 -644 -672 0
-586 -644 -673 0
-586 -644 -674 0
-586 -644 -675 0
-586 -644 -676 0
-586 -644 -677 0
-586 -644 -678 0
-586 -644 -679 0
-586 -644 -680 0
-586 -644 -681 0
-586 -644 -682 0
-586 -644 -683 0
-586 -644 -684 0
-586 -644 -685 0
-586 -644 -686 0
-586 -644 -687 0
-586 -644 -688 0
-586 -644 -689 0
-586 -644 -690 0
-586 -644 -691 0
-586 -644 -692 0
-586 -644 -693 0
-586 -644 -694 0
-587 -620 -670 740 0
-587 -620 -671 741 0
-587 -620 -672 742 0
-587 -620 -673 743 0
-587 -620 -674 744 0
-587 -620 -675 0
-587 -620 -676 0
-587 -620 -677 0
-587 -620 -678 0
-587 -620 -679 0
-587 -620 -680 0
-587 -620 -681 0
-587 -620 -682 0
-587 -620 -683 0
-587 -620 -684 0
-587 -620 -685 0
-587 -620 -686 0
-587 -620 -687 0
-587 -620 -688 0
-587 -620 -689 0
-587 -620 -690 0
-587 -620 -691 0
-587 -620 -692 0
-587 -620 -693 0
-587 -620 -694 0
-587 -621 -670 741 0
-587 -621 -671 742 0
-587 -621 -672 743 0
-587 -621 -673 744 0
-587 -621 -674 0
-587 -621 -675 0
-587 -621 -676 0
-587 -621 -677 0
-587 -621 -678 0
-587 -621 -679 0
-587 -621 -680 0
-587 -621 -681 0
-587 -621 -682 0
-587 -621 -683 0
-587 -621 -684 0
-587 -621 -685 0
-587 -621 -686 0
-587 -621 -687 0
-587 -621 -688 0
-587 -621 -689 0
-587 -621 -690 0
-587 -621 -691 0
-587 -621 -692 0
-587 -621 -693 0
-587 -621 -694 0
-587 -622 -670 742 0
-587 -622 -671 743 0
-587 -622 -672 744 0
-587 -622 -673 0
-587 -622 -674 0
-587 -622 -675 0
-587 -622 -676 0
-587 -622 -677 0
-587 -622 -678 0
-587 -622 -679 0
-587 -622 -680 0
-587 -622 -681 0
-587 -622 -682 0
-587 -622 -683 0
-587 -622 -684 0
-587 -622 -685 0
-587 -622 -686 0
-587 -622 -687 0
-587 -622 -688 0
-587 -622 -689 0
-587 -622 -690 0
-587 -622 -691 0
-587 -622 -692 0
-587 -622 -693 0
-587 -622 -694 0
-587 -623 -670 743 0
-587 -623 -671 744 0
-587 -623 -672 0
-587 -623 -673 0
-587 -623 -674 0
-587 -623 -675 0
-587 -623 -676 0
-587 -623 -677 0
-587 -623 -678 0
-587 -623 -679 0
-587 -623 -680 0
-587 -623 -681 0
-587 -623 -682 0
-587 -623 -683 0
-587 -623 -684 0
-587 -623 -685 0
-587 -623 -686 0
-587 -623 -687 0
-587 -623 -688 0
-587 -623 -689 0
-587 -623 -690 0
-587 -623 -691 0
-587 -623 -692 0
-587 -623 -693 0
-587 -623 -694 0
-587 -624 -670 744 0
-587 -624 -671 0
-587 -624 -672 0
-587 -624 -673 0
-587 -624 -674 0
-587 -624 -675 0
-587 -624 -676 0
-587 -624 -677 0
-587 -624 -678 0
-587 -624 -679 0
-587 -624 -680 0
-587 -624 -681 0
-587 -624 -682 0
-587 -624 -683 0
-587 -624 -684 0
-587 -624 -685 0
-587 -624 -686 0
-587 -624 -687 0
-587 -624 -688 0
-587 -624 -689 0
-587 -624 -690 0
-587 -624 -691 0
-587 -624 -692 0
-587 -624 -693 0
-587 -624 -694 0
-587 -625 -670 0
-587 -625 -671 0
-587 -625 -672 0
-587 -625 -673 0
-587 -625 -674 0
-587 -625 -675 0
-587 -625 -676 0
-587 -625 -677 0
-587 -625 -678 0
-587 -625 -679 0
-587 -625 -680 0
-587 -625 -681 0
-587 -625 -682 0
-587 -625 -683 0
-587 -625 -684 0
-587 -625 -685 0
-587 -625 -686 0
-587 -625 -687 0
-587 -625 -688 0
-587 -625 -689 0
-587 -625 -690 0
-587 -625 -691 0
-587 -625 -692 0
-587 -625 -693 0
-587 -625 -694 0
-587 -626 -670 0
-587 -626 -671 0
-587 -626 -672 0
-587 -626 -673 0
-587 -626 -674 0
-587 -626 -675 0
-587 -626 -676 0
-587 -626 -677 0
-587 -626 -678 0
-587 -626 -679 0
-587 -626 -680 0
-587 -626 -681 0
-587 -626 -682 0
-587 -626 -683 0
-587 -626 -684 0
-587 -626 -685 0
-587 -626 -686 0
-587 -626 -687 0
-587 -626 -688 0
-587 -626 -689 0
-587 -626 -690 0
-587 -626 -691 0
-587 -626 -692 0
-587 -626 -693 0
-587 -626 -694 0
-587 -627 -670 0
-587 -627 -671 0
-587 -627 -672 0
-587 -627 -673 0
-587 -627 -674 0
-587 -627 -675 0
-587 -627 -676 0
-587 -627 -677 0
-587 -627 -678 0
-587 -627 -679 0
-587 -627 -680 0
-587 -627 -681 0
-587 -627 -682 0
-587 -627 -683 0
-587 -627 -684 0
-587 -627 -685 0
-587 -627 -686 0
-587 -627 -687 0
-587 -627 -688 0
-587 -627 -689 0
-587 -627 -690 0
-587 -627 -691 0
-587 -627 -692 0
-587 -627 -693 0
-587 -627 -694 0
-587 -628 -670 0
-587 -628 -671 0
-587 -628 -672 0
-587 -628 -673 0
-587 -628 -674 0
-587 -628 -675 0
-587 -628 -676 0
-587 -628 -677 0
-587 -628 -678 0
-587 -628 -679 0
-587 -628 -680 0
-587 -628 -681 0
-587 -628 -682 0
-587 -628 -683 0
-587 -628 -684 0
-587 -628 -685 0
-587 -628 -686 0
-587 -628 -687 0
-587 -628 -688 0
-587 -628 -689 0
-587 -628 -690 0
-587 -628 -691 0
-587 -628 -692 0
-587 -628 -693 0
-587 -628 -694 0
-587 -629 -670 0
-587 -629 -671 0
-587 -629 -672 0
-587 -629 -673 0
-587 -629 -674 0
-587 -629 -675 0
-587 -629 -676 0
-587 -629 -677 0
-587 -629 -678 0
-587 -629 -679 0
-587 -629 -680 0
-587 -629 -681 0
-587 -629 -682 0
-587 -629 -683 0
-587 -629 -684 0
-587 -629 -685 0
-587 -629 -686 0
-587 -629 -687 0
-587 -629 -688 0
-587 -629 -689 0
-587 -629 -690 0
-587 -629 -691 0
-587 -629 -692 0
-587 -629 -693 0
-587 -629 -694 0
-587 -630 -670 0
-587 -630 -671 0
-587 -630 -672 0
-587 -630 -673 0
-587 -630 -674 0
-587 -630 -675 0
-587 -630 -676 0
-587 -630 -677 0
-587 -630 -678 0
-587 -630 -679 0
-587 -630 -680 0
-587 -630 -681 0
-587 -630 -682 0
-587 -630 -683 0
-587 -630 -684 0
-587 -630 -685 0
-587 -630 -686 0
-587 -630 -687 0
-587 -630 -688 0
-587 -630 -689 0
-587 -630 -690 0
-587 -630 -691 0
-587 -630 -692 0
-587 -630 -693 0
-587 -630 -694 0
-587 -631 -670 0
-587 -631 -671 0
-587 -631 -672 0
-587 -631 -673 0
-587 -631 -674 0
-587 -631 -675 0
-587 -631 -676 0
-587 -631 -677 0
-587 -631 -678 0
-587 -631 -679 0
-587 -631 -680 0
-587 -631 -681 0
-587 -631 -682 0
-587 -631 -683 0
-587 -631 -684 0
-587 -631 -685 0
-587 -631 -686 0
-587 -631 -687 0
-587 -631 -688 0
-587 -631 -689 0
-587 -631 -690 0
-587 -631 -691 0
-587 -631 -692 0
-587 -631 -693 0
-587 -631 -694 0
-587 -632 -670 0
-587 -632 -671 0
-587 -632 -672 0
-587 -632 -673 0
-587 -632 -674 0
-587 -632 -675 0
-587 -632 -676 0
-587 -632 -677 0
-587 -632 -678 0
-587 -632 -679 0
-587 -632 -680 0
-587 -632 -681 0
-587 -632 -682 0
-587 -632 -683 0
-587 -632 -684 0
-587 -632 -685 0
-587 -632 -686 0
-587 -632 -687 0
-587 -632 -688 0
-587 -632 -689 0
-587 -632 -690 0
-587 -632 -691 0
-587 -632 -692 0
-587 -632 -693 0
-587 -632 -694 0
-587 -633 -670 0
-587 -633 -671 0
-587 -633 -672 0
-587 -633 -673 0
-587 -633 -674 0
-587 -633 -675 0
-587 -633 -676 0
-587 -633 -677 0
-587 -633 -678 0
-587 -633 -679 0
-587 -633 -680 0
-587 -633 -681 0
-587 -633 -682 0
-587 -633 -683 0
-587 -633 -684 0
-587 -633 -685 0
-587 -633 -686 0
-587 -633 -687 0
-587 -633 -688 0
-587 -633 -689 0
-587 -633 -690 0
-587 -633 -691 0
-587 -633 -692 0
-587 -633 -693 0
-587 -633 -694 0
-587 -634 -670 0
-587 -634 -671 0
-587 -634 -672 0
-587 -634 -673 0
-587 -634 -674 0
-587 -634 -675 0
-587 -634 -676 0
-587 -634 -677 0
-587 -634 -678 0
-587 -634 -679 0
-587 -634 -680 0
-587 -634 -681 0
-587 -634 -682 0
-587 -634 -683 0
-587 -634 -684 0
-587 -634 -685 0
-587 -634 -686 0
-587 -634 -687 0
-587 -634 -688 0
-587 -634 -689 0
-587 -634 -690 0
-587 -634 -691 0
-587 -634 -692 0
-587 -634 -693 0
-587 -634 -694 0
-587 -635 -670 0
-587 -635 -671 0
-587 -635 -672 0
-587 -635 -673 0
-587 -635 -674 0
-587 -635 -675 0
-587 -635 -676 0
-587 -635 -677 0
-587 -635 -678 0
-587 -635 -679 0
-587 -635 -680 0
-587 -635 -681 0
-587 -635 -682 0
-587 -635 -683 0
-587 -635 -684 0
-587 -635 -685 0
-587 -635 -686 0
-587 -635 -687 0
-587 -635 -688 0
-587 -635 -689 0
-587 -635 -690 0
-587 -635 -691 0
-587 -635 -692 0
-587 -635 -693 0
-587 -635 -694 0
-587 -636 -670 0
-587 -636 -671 0
-587 -636 -672 0
-587 -636 -673 0
-587 -636 -674 0
-587 -636 -675 0
-587 -636 -676 0
-587 -636 -677 0
-587 -636 -678 0
-587 -636 -679 0
-587 -636 -680 0
-587 -636 -681 0
-587 -636 -682 0
-587 -636 -683 0
-587 -636 -684 0
-587 -636 -685 0
-587 -636 -686 0
-587 -636 -687 0
-587 -636 -688 0
-587 -636 -689 0
-587 -636 -690 0
-587 -636 -691 0
-587 -636 -692 0
-587 -636 -693 0
-587 -636 -694 0
-587 -637 -670 0
-587 -637 -671 0
-587 -637 -672 0
-587 -637 -673 0
-587 -637 -674 0
-587 -637 -675 0
-587 -637 -676 0
-587 -637 -677 0
-587 -637 -678 0
-587 -637 -679 0
-587 -637 -680 0
-587 -637 -681 0
-587 -637 -682 0
-587 -637 -683 0
-587 -637 -684 0
-587 -637 -685 0
-587 -637 -686 0
-587 -637 -687 0
-587 -637 -688 0
-587 -637 -689 0
-587 -637 -690 0
-587 -637 -691 0
-587 -637 -692 0
-587 -637 -693 0
-587 -637 -694 0
-587 -638 -670 0
-587 -638 -671 0
-587 -638 -672 0
-587 -638 -673 0
-587 -638 -674 0
-587 -638 -675 0
-587 -638 -676 0
-587 -638 -677 0
-587 -638 -678 0
-587 -638 -679 0
-587 -638 -680 0
-587 -638 -681 0
-587 -638 -682 0
-587 -638 -683 0
-587 -638 -684 0
-587 -638 -685 0
-587 -638 -686 0
-587 -638 -687 0
-587 -638 -688 0
-587 -638 -689 0
-587 -638 -690 0
-587 -638 -691 0
-587 -638 -692 0
-587 -638 -693 0
-587 -638 -694 0
-587 -639 -670 0
-587 -639 -671 0
-587 -639 -672 0
-587 -639 -673 0
-587 -639 -674 0
-587 -639 -675 0
-587 -639 -676 0
-587 -639 -677 0
-587 -639 -678 0
-587 -639 -679 0
-587 -639 -680 0
-587 -639 -681 0
-587 -639 -682 0
-587 -639 -683 0
-587 -639 -684 0
-587 -639 -685 0
-587 -639 -686 0
-587 -639 -687 0
-587 -639 -688 0
-587 -639 -689 0
-587 -639 -690 0
-587 -639 -691 0
-587 -639 -692 0
-587 -639 -693 0
-587 -639 -694 0
-587 -640 -670 0
-587 -640 -671 0
-587 -640 -672 0
-587 -640 -673 0
-587 -640 -674 0
-587 -640 -675 0
-587 -640 -676 0
-587 -640 -677 0
-587 -640 -678 0
-587 -640 -679 0
-587 -640 -680 0
-587 -640 -681 0
-587 -640 -682 0
-587 -640 -683 0
-587 -640 -684 0
-587 -640 -685 0
-587 -640 -686 0
-587 -640 -687 0
-587 -640 -688 0
-587 -640 -689 0
-587 -640 -690 0
-587 -640 -691 0
-587 -640 -692 0
-587 -640 -693 0
-587 -640 -694 0
-587 -641 -670 0
-587 -641 -671 0
-587 -641 -672 0
-587 -641 -673 0
-587 -641 -674 0
-587 -641 -675 0
-587 -641 -676 0
-587 -641 -677 0
-587 -641 -678 0
-587 -641 -679 0
-587 -641 -680 0
-587 -641 -681 0
-587 -641 -682 0
-587 -641 -683 0
-587 -641 -684 0
-587 -641 -685 0
-587 -641 -686 0
-587 -641 -687 0
-587 -641 -688 0
-587 -641 -689 0
-587 -641 -690 0
-587 -641 -691 0
-587 -641 -692 0
-587 -641 -693 0
-587 -641 -694 0
-587 -642 -670 0
-587 -642 -671 0
-587 -642 -672 0
-587 -642 -673 0
-587 -642 -674 0
-587 -642 -675 0
-587 -642 -676 0
-587 -642 -677 0
-587 -642 -678 0
-587 -642 -679 0
-587 -642 -680 0
-587 -642 -681 0
-587 -642 -682 0
-587 -642 -683 0
-587 -642 -684 0
-587 -642 -685 0
-587 -642 -686 0
-587 -642 -687 0
-587 -642 -688 0
-587 -642 -689 0
-587 -642 -690 0
-587 -642 -691 0
-587 -642 -692 0
-587 -642 -693 0
-587 -642 -694 0
-587 -643 -670 0
-587 -643 -671 0
-587 -643 -672 0
-587 -643 -673 0
-587 -643 -674 0
-587 -643 -675 0
-587 -643 -676 0
-587 -643 -677 0
-587 -643 -678 0
-587 -643 -679 0
-587 -643 -680 0
-587 -643 -681 0
-587 -643 -682 0
-587 -643 -683 0
-587 -643 -684 0
-587 -643 -685 0
-587 -643 -686 0
-587 -643 -687 0
-587 -643 -688 0
-587 -643 -689 0
-587 -643 -690 0
-587 -643 -691 0
-587 -643 -692 0
-587 -643 -693 0
-587 -643 -694 0
-587 -644 -670 0
-587 -644 -671 0
-587 -644 -672 0
-587 -644 -673 0
-587 -644 -674 0
-587 -644 -675 0
-587 -644 -676 0
-587 -644 -677 0
-587 -644 -678 0
-587 -644 -679 0
-587 -644 -680 0
-587 -644 -681 0
-587 -644 -682 0
-587 -644 -683 0
-587 -644 -684 0
-587 -644 -685 0
-587 -644 -686 0
-587 -644 -687 0
-587 -644 -688 0
-587 -644 -689 0
-587 -644 -690 0
-587 -644 -691 0
-587 -644 -692 0
-587 -644 -693 0
-587 -644 -694 0
-588 -620 -670 741 0
-588 -620 -671 742 0
-588 -620 -672 743 0
-588 -620 -673 744 0
-588 -620 -674 0
-588 -620 -675 0
-588 -620 -676 0
-588 -620 -677 0
-588 -620 -678 0
-588 -620 -679 0
-588 -620 -680 0
-588 -620 -681 0
-588 -620 -682 0
-588 -620 -683 0
-588 -620 -684 0
-588 -620 -685 0
-588 -620 -686 0
-588 -620 -687 0
-588 -620 -688 0
-588 -620 -689 0
-588 -620 -690 0
-588 -620 -691 0
-588 -620 -692 0
-588 -620 -693 0
-588 -620 -694 0
-588 -621 -670 742 0
-588 -621 -671 743 0
-588 -621 -672 744 0
-588 -621 -673 0
-588 -621 -674 0
-588 -621 -675 0
-588 -621 -676 0
-588 -621 -677 0
-588 -621 -678 0
-588 -621 -679 0
-588 -621 -680 0
-588 -621 -681 0
-588 -621 -682 0
-588 -621 -683 0
-588 -621 -684 0
-588 -621 -685 0
-588 -621 -686 0
-588 -621 -687 0
-588 -621 -688 0
-588 -621 -689 0
-588 -621 -690 0
-588 -621 -691 0
-588 -621 -692 0
-588 -621 -693 0
-588 -621 -694 0
-588 -622 -670 743 0
-588 -622 -671 744 0
-588 -622 -672 0
-588 -622 -673 0
-588 -622 -674 0
-588 -622 -675 0
-588 -622 -676 0
-588 -622 -677 0
-588 -622 -678 0
-588 -622 -679 0
-588 -622 -680 0
-588 -622 -681 0
-588 -622 -682 0
-588 -622 -683 0
-588 -622 -684 0
-588 -622 -685 0
-588 -622 -686 0
-588 -622 -687 0
-588 -622 -688 0
-588 -622 -689 0
-588 -622 -690 0
-588 -622 -691 0
-588 -622 -692 0
-588 -622 -693 0
-588 -622 -694 0
-588 -623 -670 744 0
-588 -623 -671 0
-588 -623 -672 0
-588 -623 -673 0
-588 -623 -674 0
-588 -623 -675 0
-588 -623 -676 0
-588 -623 -677 0
-588 -623 -678 0
-588 -623 -679 0
-588 -623 -680 0
-588 -623 -681 0
-588 -623 -682 0
-588 -623 -683 0
-588 -623 -684 0
-588 -623 -685 0
-588 -623 -686 0
-588 -623 -687 0
-588 -623 -688 0
-588 -623 -689 0
-588 -623 -690 0
-588 -623 -691 0
-588 -623 -692 0
-588 -623 -693 0
-588 -623 -694 0
-588 -624 -670 0
-588 -624 -671 0
-588 -624 -672 0
-588 -624 -673 0
-588 -624 -674 0
-588 -624 -675 0
-588 -624 -676 0
-588 -624 -677 0
-588 -624 -678 0
-588 -624 -679 0
-588 -624 -680 0
-588 -624 -681 0
-588 -624 -682 0
-588 -624 -683 0
-588 -624 -684 0
-588 -624 -685 0
-588 -624 -686 0
-588 -624 -687 0
-588 -624 -688 0
-588 -624 -689 0
-588 -624 -690 0
-588 -624 -691 0
-588 -624 -692 0
-588 -624 -693 0
-588 -624 -694 0
-588 -625 -670 0
-588 -625 -671 0
-588 -625 -672 0
-588 -625 -673 0
-588 -625 -674 0
-588 -625 -675 0
-588 -625 -676 0
-588 -625 -677 0
-588 -625 -678 0
-588 -625 -679 0
-588 -625 -680 0
-588 -625 -681 0
-588 -625 -682 0
-588 -625 -683 0
-588 -625 -684 0
-588 -625 -685 0
-588 -625 -686 0
-588 -625 -687 0
-588 -625 -688 0
-588 -625 -689 0
-588 -625 -690 0
-588 -625 -691 0
-588 -625 -692 0
-588 -625 -693 0
-588 -625 -694 0
-588 -626 -670 0
-588 -626 -671 0
-588 -626 -672 0
-588 -626 -673 0
-588 -626 -674 0
-588 -626 -675 0
-588 -626 -676 0
-588 -626 -677 0
-588 -626 -678 0
-588 -626 -679 0
-588 -626 -680 0
-588 -626 -681 0
-588 -626 -682 0
-588 -626 -683 0
-588 -626 -684 0
-588 -626 -685 0
-588 -626 -686 0
-588 -626 -687 0
-588 -626 -688 0
-588 -626 -689 0
-588 -626 -690 0
-588 -626 -691 0
-588 -626 -692 0
-588 -626 -693 0
-588 -626 -694 0
-588 -627 -670 0
-588 -627 -671 0
-588 -627 -672 0
-588 -627 -673 0
-588 -627 -674 0
-588 -627 -675 0
-588 -627 -676 0
-588 -627 -677 0
-588 -627 -678 0
-588 -627 -679 0
-588 -627 -680 0
-588 -627 -681 0
-588 -627 -682 0
-588 -627 -683 0
-588 -627 -684 0
-588 -627 -685 0
-588 -627 -686 0
-588 -627 -687 0
-588 -627 -688 0
-588 -627 -689 0
-588 -627 -690 0
-588 -627 -691 0
-588 -627 -692 0
-588 -627 -693 0
-588 -627 -694 0
-588 -628 -670 0
-588 -628 -671 0
-588 -628 -672 0
-588 -628 -673 0
-588 -628 -674 0
-588 -628 -675 0
-588 -628 -676 0
-588 -628 -677 0
-588 -628 -678 0
-588 -628 -679 0
-588 -628 -680 0
-588 -628 -681 0
-588 -628 -682 0
-588 -628 -683 0
-588 -628 -684 0
-588 -628 -685 0
-588 -628 -686 0
-588 -628 -687 0
-588 -628 -688 0
-588 -628 -689 0
-588 -628 -690 0
-588 -628 -691 0
-588 -628 -692 0
-588 -628 -693 0
-588 -628 -694 0
-588 -629 -670 0
-588 -629 -671 0
-588 -629 -672 0
-588 -629 -673 0
-588 -629 -674 0
-588 -629 -675 0
-588 -629 -676 0
-588 -629 -677 0
-588 -629 -678 0
-588 -629 -679 0
-588 -629 -680 0
-588 -629 -681 0
-588 -629 -682 0
-588 -629 -683 0
-588 -629 -684 0
-588 -629 -685 0
-588 -629 -686 0
-588 -629 -687 0
-588 -629 -688 0
-588 -629 -689 0
-588 -629 -690 0
-588 -629 -691 0
-588 -629 -692 0
-588 -629 -693 0
-588 -629 -694 0
-588 -630 -670 0
-588 -630 -671 0
-588 -630 -672 0
-588 -630 -673 0
-588 -630 -674 0
-588 -630 -675 0
-588 -630 -676 0
-588 -630 -677 0
-588 -630 -678 0
-588 -630 -679 0
-588 -630 -680 0
-588 -630 -681 0
-588 -630 -682 0
-588 -630 -683 0
-588 -630 -684 0
-588 -630 -685 0
-588 -630 -686 0
-588 -630 -687 0
-588 -630 -688 0
-588 -630 -689 0
-588 -630 -690 0
-588 -630 -691 0
-588 -630 -692 0
-588 -630 -693 0
-588 -630 -694 0
-588 -631 -670 0
-588 -631 -671 0
-588 -631 -672 0
-588 -631 -673 0
-588 -631 -674 0
-588 -631 -675 0
-588 -631 -676 0
-588 -631 -677 0
-588 -631 -678 0
-588 -631 -679 0
-588 -631 -680 0
-588 -631 -681 0
-588 -631 -682 0
-588 -631 -683 0
-588 -631 -684 0
-588 -631 -685 0
-588 -631 -686 0
-588 -631 -687 0
-588 -631 -688 0
-588 -631 -689 0
-588 -631 -690 0
-588 -631 -691 0
-588 -631 -692 0
-588 -631 -693 0
-588 -631 -694 0
-588 -632 -670 0
-588 -632 -671 0
-588 -632 -672 0
-588 -632 -673 0
-588 -632 -674 0
-588 -632 -675 0
-588 -632 -676 0
-588 -632 -677 0
-588 -632 -678 0
-588 -632 -679 0
-588 -632 -680 0
-588 -632 -681 0
-588 -632 -682 0
-588 -632 -683 0
-588 -632 -684 0
-588 -632 -685 0
-588 -632 -686 0
-588 -632 -687 0
-588 -632 -688 0
-588 -632 -689 0
-588 -632 -690 0
-588 -632 -691 0
-588 -632 -692 0
-588 -632 -693 0
-588 -632 -694 0
-588 -633 -670 0
-588 -633 -671 0
-588 -633 -672 0
-588 -633 -673 0
-588 -633 -674 0
-588 -633 -675 0
-588 -633 -676 0
-588 -633 -677 0
-588 -633 -678 0
-588 -633 -679 0
-588 -633 -680 0
-588 -633 -681 0
-588 -633 -682 0
-588 -633 -683 0
-588 -633 -684 0
-588 -633 -685 0
-588 -633 -686 0
-588 -633 -687 0
-588 -633 -688 0
-588 -633 -689 0
-588 -633 -690 0
-588 -633 -691 0
-588 -633 -692 0
-588 -633 -693 0
-588 -633 -694 0
-588 -634 -670 0
-588 -634 -671 0
-588 -634 -672 0
-588 -634 -673 0
-588 -634 -674 0
-588 -634 -675 0
-588 -634 -676 0
-588 -634 -677 0
-588 -634 -678 0
-588 -634 -679 0
-588 -634 -680 0
-588 -634 -681 0
-588 -634 -682 0
-588 -634 -683 0
-588 -634 -684 0
-588 -634 -685 0
-588 -634 -686 0
-588 -634 -687 0
-588 -634 -688 0
-588 -634 -689 0
-588 -634 -690 0
-588 -634 -691 0
-588 -634 -692 0
-588 -634 -693 0
-588 -634 -694 0
-588 -635 -670 0
-588 -635 -671 0
-588 -635 -672 0
-588 -635 -673 0
-588 -635 -674 0
-588 -635 -675 0
-588 -635 -676 0
-588 -635 -677 0
-588 -635 -678 0
-588 -635 -679 0
-588 -635 -680 0
-588 -635 -681 0
-588 -635 -682 0
-588 -635 -683 0
-588 -635 -684 0
-588 -635 -685 0
-588 -635 -686 0
-588 -635 -687 0
-588 -635 -688 0
-588 -635 -689 0
-588 -635 -690 0
-588 -635 -691 0
-588 -635 -692 0
-588 -635 -693 0
-588 -635 -694 0
-588 -636 -670 0
-588 -636 -671 0
-588 -636 -672 0
-588 -636 -673 0
-588 -636 -674 0
-588 -636 -675 0
-588 -636 -676 0
-588 -636 -677 0
-588 -636 -678 0
-588 -636 -679 0
-588 -636 -680 0
-588 -636 -681 0
-588 -636 -682 0
-588 -636 -683 0
-588 -636 -684 0
-588 -636 -685 0
-588 -636 -686 0
-588 -636 -687 0
-588 -636 -688 0
-588 -636 -689 0
-588 -636 -690 0
-588 -636 -691 0
-588 -636 -692 0
-588 -636 -693 0
-588 -636 -694 0
-588 -637 -670 0
-588 -637 -671 0
-588 -637 -672 0
-588 -637 -673 0
-588 -637 -674 0
-588 -637 -675 0
-588 -637 -676 0
-588 -637 -677 0
-588 -637 -678 0
-588 -637 -679 0
-588 -637 -680 0
-588 -637 -681 0
-588 -637 -682 0
-588 -637 -683 0
-588 -637 -684 0
-588 -637 -685 0
-588 -637 -686 0
-588 -637 -687 0
-588 -637 -688 0
-588 -637 -689 0
-588 -637 -690 0
-588 -637 -691 0
-588 -637 -692 0
-588 -637 -693 0
-588 -637 -694 0
-588 -638 -670 0
-588 -638 -671 0
-588 -638 -672 0
-588 -638 -673 0
-588 -638 -674 0
-588 -638 -675 0
-588 -638 -676 0
-588 -638 -677 0
-588 -638 -678 0
-588 -638 -679 0
-588 -638 -680 0
-588 -638 -681 0
-588 -638 -682 0
-588 -638 -683 0
-588 -638 -684 0
-588 -638 -685 0
-588 -638 -686 0
-588 -638 -687 0
-588 -638 -688 0
-588 -638 -689 0
-588 -638 -690 0
-588 -638 -691 0
-588 -638 -692 0
-588 -638 -693 0
-588 -638 -694 0
-588 -639 -670 0
-588 -639 -671 0
-588 -639 -672 0
-588 -639 -673 0
-588 -639 -674 0
-588 -639 -675 0
-588 -639 -676 0
-588 -639 -677 0
-588 -639 -678 0
-588 -639 -679 0
-588 -639 -680 0
-588 -639 -681 0
-588 -639 -682 0
-588 -639 -683 0
-588 -639 -684 0
-588 -639 -685 0
-588 -639 -686 0
-588 -639 -687 0
-588 -639 -688 0
-588 -639 -689 0
-588 -639 -690 0
-588 -639 -691 0
-588 -639 -692 0
-588 -639 -693 0
-588 -639 -694 0
-588 -640 -670 0
-588 -640 -671 0
-588 -640 -672 0
-588 -640 -673 0
-588 -640 -674 0
-588 -640 -675 0
-588 -640 -676 0
-588 -640 -677 0
-588 -640 -678 0
-588 -640 -679 0
-588 -640 -680 0
-588 -640 -681 0
-588 -640 -682 0
-588 -640 -683 0
-588 -640 -684 0
-588 -640 -685 0
-588 -640 -686 0
-588 -640 -687 0
-588 -640 -688 0
-588 -640 -689 0
-588 -640 -690 0
-588 -640 -691 0
-588 -640 -692 0
-588 -640 -693 0
-588 -640 -694 0
-588 -641 -670 0
-588 -641 -671 0
-588 -641 -672 0
-588 -641 -673 0
-588 -641 -674 0
-588 -641 -675 0
-588 -641 -676 0
-588 -641 -677 0
-588 -641 -678 0
-588 -641 -679 0
-588 -641 -680 0
-588 -641 -681 0
-588 -641 -682 0
-588 -641 -683 0
-588 -641 -684 0
-588 -641 -685 0
-588 -641 -686 0
-588 -641 -687 0
-588 -641 -688 0
-588 -641 -689 0
-588 -641 -690 0
-588 -641 -691 0
-588 -641 -692 0
-588 -641 -693 0
-588 -641 -694 0
-588 -642 -670 0
-588 -642 -671 0
-588 -642 -672 0
-588 -642 -673 0
-588 -642 -674 0
-588 -642 -675 0
-588 -642 -676 0
-588 -642 -677 0
-588 -642 -678 0
-588 -642 -679 0
-588 -642 -680 0
-588 -642 -681 0
-588 -642 -682 0
-588 -642 -683 0
-588 -642 -684 0
-588 -642 -685 0
-588 -642 -686 0
-588 -642 -687 0
-588 -642 -688 0
-588 -642 -689 0
-588 -642 -690 0
-588 -642 -691 0
-588 -642 -692 0
-588 -642 -693 0
-588 -642 -694 0
-588 -643 -670 0
-588 -643 -671 0
-588 -643 -672 0
-588 -643 -673 0
-588 -643 -674 0
-588 -643 -675 0
-588 -643 -676 0
-588 -643 -677 0
-588 -643 -678 0
-588 -643 -679 0
-588 -643 -680 0
-588 -643 -681 0
-588 -643 -682 0
-588 -643 -683 0
-588 -643 -684 0
-588 -643 -685 0
-588 -643 -686 0
-588 -643 -687 0
-588 -643 -688 0
-588 -643 -689 0
-588 -643 -690 0
-588 -643 -691 0
-588 -643 -692 0
-588 -643 -693 0
-588 -643 -694 0
-588 -644 -670 0
-588 -644 -671 0
-588 -644 -672 0
-588 -644 -673 0
-588 -644 -674 0
-588 -644 -675 0
-588 -644 -676 0
-588 -644 -677 0
-588 -644 -678 0
-588 -644 -679 0
-588 -644 -680 0
-588 -644 -681 0
-588 -644 -682 0
-588 -644 -683 0
-588 -644 -684 0
-588 -644 -685 0
-588 -644 -686 0
-588 -644 -687 0
-588 -644 -688 0
-588 -644 -689 0
-588 -644 -690 0
-588 -644 -691 0
-588 -644 -692 0
-588 -644 -693 0
-588 -644 -694 0
-589 -620 -670 742 0
-589 -620 -671 743 0
-589 -620 -672 744 0
-589 -620 -673 0
-589 -620 -674 0
-589 -620 -675 0
-589 -620 -676 0
-589 -620 -677 0
-589 -620 -678 0
-589 -620 -679 0
-589 -620 -680 0
-589 -620 -681 0
-589 -620 -682 0
-589 -620 -683 0
-589 -620 -684 0
-589 -620 -685 0
-589 -620 -686 0
-589 -620 -687 0
-589 -620 -688 0
-589 -620 -689 0
-589 -620 -690 0
-589 -620 -691 0
-589 -620 -692 0
-589 -620 -693 0
-589 -620 -694 0
-589 -621 -670 743 0
-589 -621 -671 744 0
-589 -621 -672 0
-589 -621 -673 0
-589 -621 -674 0
-589 -621 -675 0
-589 -621 -676 0
-589 -621 -677 0
-589 -621 -678 0
-589 -621 -679 0
-589 -621 -680 0
-589 -621 -681 0
-589 -621 -682 0
-589 -621 -683 0
-589 -621 -684 0
-589 -621 -685 0
-589 -621 -686 0
-589 -621 -687 0
-589 -621 -688 0
-589 -621 -689 0
-589 -621 -690 0
-589 -621 -691 0
-589 -621 -692 0
-589 -621 -693 0
-589 -621 -694 0
-589 -622 -670 744 0
-589 -622 -671 0
-589 -622 -672 0
-589 -622 -673 0
-589 -622 -674 0
-589 -622 -675 0
-589 -622 -676 0
-589 -622 -677 0
-589 -622 -678 0
-589 -622 -679 0
-589 -622 -680 0
-589 -622 -681 0
-589 -622 -682 0
-589 -622 -683 0
-589 -622 -684 0
-589 -622 -685 0
-589 -622 -686 0
-589 -622 -687 0
-589 -622 -688 0
-589 -622 -689 0
-589 -622 -690 0
-589 -622 -691 0
-589 -622 -692 0
-589 -622 -693 0
-589 -622 -694 0
-589 -623 -670 0
-589 -623 -671 0
-589 -623 -672 0
-589 -623 -673 0
-589 -623 -674 0
-589 -623 -675 0
-589 -623 -676 0
-589 -623 -677 0
-589 -623 -678 0
-589 -623 -679 0
-589 -623 -680 0
-589 -623 -681 0
-589 -623 -682 0
-589 -623 -683 0
-589 -623 -684 0
-589 -623 -685 0
-589 -623 -686 0
-589 -623 -687 0
-589 -623 -688 0
-589 -623 -689 0
-589 -623 -690 0
-589 -623 -691 0
-589 -623 -692 0
-589 -623 -693 0
-589 -623 -694 0
-589 -624 -670 0
-589 -624 -671 0
-589 -624 -672 0
-589 -624 -673 0
-589 -624 -674 0
-589 -624 -675 0
-589 -624 -676 0
-589 -624 -677 0
-589 -624 -678 0
-589 -624 -679 0
-589 -624 -680 0
-589 -624 -681 0
-589 -624 -682 0
-589 -624 -683 0
-589 -624 -684 0
-589 -624 -685 0
-589 -624 -686 0
-589 -624 -687 0
-589 -624 -688 0
-589 -624 -689 0
-589 -624 -690 0
-589 -624 -691 0
-589 -624 -692 0
-589 -624 -693 0
-589 -624 -694 0
-589 -625 -670 0
-589 -625 -671 0
-589 -625 -672 0
-589 -625 -673 0
-589 -625 -674 0
-589 -625 -675 0
-589 -625 -676 0
-589 -625 -677 0
-589 -625 -678 0
-589 -625 -679 0
-589 -625 -680 0
-589 -625 -681 0
-589 -625 -682 0
-589 -625 -683 0
-589 -625 -684 0
-589 -625 -685 0
-589 -625 -686 0
-589 -625 -687 0
-589 -625 -688 0
-589 -625 -689 0
-589 -625 -690 0
-589 -625 -691 0
-589 -625 -692 0
-589 -625 -693 0
-589 -625 -694 0
-589 -626 -670 0
-589 -626 -671 0
-589 -626 -672 0
-589 -626 -673 0
-589 -626 -674 0
-589 -626 -675 0
-589 -626 -676 0
-589 -626 -677 0
-589 -626 -678 0
-589 -626 -679 0
-589 -626 -680 0
-589 -626 -681 0
-589 -626 -682 0
-589 -626 -683 0
-589 -626 -684 0
-589 -626 -685 0
-589 -626 -686 0
-589 -626 -687 0
-589 -626 -688 0
-589 -626 -689 0
-589 -626 -690 0
-589 -626 -691 0
-589 -626 -692 0
-589 -626 -693 0
-589 -626 -694 0
-589 -627 -670 0
-589 -627 -671 0
-589 -627 -672 0
-589 -627 -673 0
-589 -627 -674 0
-589 -627 -675 0
-589 -627 -676 0
-589 -627 -677 0
-589 -627 -678 0
-589 -627 -679 0
-589 -627 -680 0
-589 -627 -681 0
-589 -627 -682 0
-589 -627 -683 0
-589 -627 -684 0
-589 -627 -685 0
-589 -627 -686 0
-589 -627 -687 0
-589 -627 -688 0
-589 -627 -689 0
-589 -627 -690 0
-589 -627 -691 0
-589 -627 -692 0
-589 -627 -693 0
-589 -627 -694 0
-589 -628 -670 0
-589 -628 -671 0
-589 -628 -672 0
-589 -628 -673 0
-589 -628 -674 0
-589 -628 -675 0
-589 -628 -676 0
-589 -628 -677 0
-589 -628 -678 0
-589 -628 -679 0
-589 -628 -680 0
-589 -628 -681 0
-589 -628 -682 0
-589 -628 -683 0
-589 -628 -684 0
-589 -628 -685 0
-589 -628 -686 0
-589 -628 -687 0
-589 -628 -688 0
-589 -628 -689 0
-589 -628 -690 0
-589 -628 -691 0
-589 -628 -692 0
-589 -628 -693 0
-589 -628 -694 0
-589 -629 -670 0
-589 -629 -671 0
-589 -629 -672 0
-589 -629 -673 0
-589 -629 -674 0
-589 -629 -675 0
-589 -629 -676 0
-589 -629 -677 0
-589 -629 -678 0
-589 -629 -679 0
-589 -629 -680 0
-589 -629 -681 0
-589 -629 -682 0
-589 -629 -683 0
-589 -629 -684 0
-589 -629 -685 0
-589 -629 -686 0
-589 -629 -687 0
-589 -629 -688 0
-589 -629 -689 0
-589 -629 -690 0
-589 -629 -691 0
-589 -629 -692 0
-589 -629 -693 0
-589 -629 -694 0
-589 -630 -670 0
-589 -630 -671 0
-589 -630 -672 0
-589 -630 -673 0
-589 -630 -674 0
-589 -630 -675 0
-589 -630 -676 0
-589 -630 -677 0
-589 -630 -678 0
-589 -630 -679 0
-589 -630 -680 0
-589 -630 -681 0
-589 -630 -682 0
-589 -630 -683 0
-589 -630 -684 0
-589 -630 -685 0
-589 -630 -686 0
-589 -630 -687 0
-589 -630 -688 0
-589 -630 -689 0
-589 -630 -690 0
-589 -630 -691 0
-589 -630 -692 0
-589 -630 -693 0
-589 -630 -694 0
-589 -631 -670 0
-589 -631 -671 0
-589 -631 -672 0
-589 -631 -673 0
-589 -631 -674 0
-589 -631 -675 0
-589 -631 -676 0
-589 -631 -677 0
-589 -631 -678 0
-589 -631 -679 0
-589 -631 -680 0
-589 -631 -681 0
-589 -631 -682 0
-589 -631 -683 0
-589 -631 -684 0
-589 -631 -685 0
-589 -631 -686 0
-589 -631 -687 0
-589 -631 -688 0
-589 -631 -689 0
-589 -631 -690 0
-589 -631 -691 0
-589 -631 -692 0
-589 -631 -693 0
-589 -631 -694 0
-589 -632 -670 0
-589 -632 -671 0
-589 -632 -672 0
-589 -632 -673 0
-589 -632 -674 0
-589 -632 -675 0
-589 -632 -676 0
-589 -632 -677 0
-589 -632 -678 0
-589 -632 -679 0
-589 -632 -680 0
-589 -632 -681 0
-589 -632 -682 0
-589 -632 -683 0
-589 -632 -684 0
-589 -632 -685 0
-589 -632 -686 0
-589 -632 -687 0
-589 -632 -688 0
-589 -632 -689 0
-589 -632 -690 0
-589 -632 -691 0
-589 -632 -692 0
-589 -632 -693 0
-589 -632 -694 0
-589 -633 -670 0
-589 -633 -671 0
-589 -633 -672 0
-589 -633 -673 0
-589 -633 -674 0
-589 -633 -675 0
-589 -633 -676 0
-589 -633 -677 0
-589 -633 -678 0
-589 -633 -679 0
-589 -633 -680 0
-589 -633 -681 0
-589 -633 -682 0
-589 -633 -683 0
-589 -633 -684 0
-589 -633 -685 0
-589 -633 -686 0
-589 -633 -687 0
-589 -633 -688 0
-589 -633 -689 0
-589 -633 -690 0
-589 -633 -691 0
-589 -633 -692 0
-589 -633 -693 0
-589 -633 -694 0
-589 -634 -670 0
-589 -634 -671 0
-589 -634 -672 0
-589 -634 -673 0
-589 -634 -674 0
-589 -634 -675 0
-589 -634 -676 0
-589 -634 -677 0
-589 -634 -678 0
-589 -634 -679 0
-589 -634 -680 0
-589 -634 -681 0
-589 -634 -682 0
-589 -634 -683 0
-589 -634 -684 0
-589 -634 -685 0
-589 -634 -686 0
-589 -634 -687 0
-589 -634 -688 0
-589 -634 -689 0
-589 -634 -690 0
-589 -634 -691 0
-589 -634 -692 0
-589 -634 -693 0
-589 -634 -694 0
-589 -635 -670 0
-589 -635 -671 0
-589 -635 -672 0
-589 -635 -673 0
-589 -635 -674 0
-589 -635 -675 0
-589 -635 -676 0
-589 -635 -677 0
-589 -635 -678 0
-589 -635 -679 0
-589 -635 -680 0
-589 -635 -681 0
-589 -635 -682 0
-589 -635 -683 0
-589 -635 -684 0
-589 -635 -685 0
-589 -635 -686 0
-589 -635 -687 0
-589 -635 -688 0
-589 -635 -689 0
-589 -635 -690 0
-589 -635 -691 0
-589 -635 -692 0
-589 -635 -693 0
-589 -635 -694 0
-589 -636 -670 0
-589 -636 -671 0
-589 -636 -672 0
-589 -636 -673 0
-589 -636 -674 0
-589 -636 -675 0
-589 -636 -676 0
-589 -636 -677 0
-589 -636 -678 0
-589 -636 -679 0
-589 -636 -680 0
-589 -636 -681 0
-589 -636 -682 0
-589 -636 -683 0
-589 -636 -684 0
-589 -636 -685 0
-589 -636 -686 0
-589 -636 -687 0
-589 -636 -688 0
-589 -636 -689 0
-589 -636 -690 0
-589 -636 -691 0
-589 -636 -692 0
-589 -636 -693 0
-589 -636 -694 0
-589 -637 -670 0
-589 -637 -671 0
-589 -637 -672 0
-589 -637 -673 0
-589 -637 -674 0
-589 -637 -675 0
-589 -637 -676 0
-589 -637 -677 0
-589 -637 -678 0
-589 -637 -679 0
-589 -637 -680 0
-589 -637 -681 0
-589 -637 -682 0
-589 -637 -683 0
-589 -637 -684 0
-589 -637 -685 0
-589 -637 -686 0
-589 -637 -687 0
-589 -637 -688 0
-589 -637 -689 0
-589 -637 -690 0
-589 -637 -691 0
-589 -637 -692 0
-589 -637 -693 0
-589 -637 -694 0
-589 -638 -670 0
-589 -638 -671 0
-589 -638 -672 0
-589 -638 -673 0
-589 -638 -674 0
-589 -638 -675 0
-589 -638 -676 0
-589 -638 -677 0
-589 -638 -678 0
-589 -638 -679 0
-589 -638 -680 0
-589 -638 -681 0
-589 -638 -682 0
-589 -638 -683 0
-589 -638 -684 0
-589 -638 -685 0
-589 -638 -686 0
-589 -638 -687 0
-589 -638 -688 0
-589 -638 -689 0
-589 -638 -690 0
-589 -638 -691 0
-589 -638 -692 0
-589 -638 -693 0
-589 -638 -694 0
-589 -639 -670 0
-589 -639 -671 0
-589 -639 -672 0
-589 -639 -673 0
-589 -639 -674 0
-589 -639 -675 0
-589 -639 -676 0
-589 -639 -677 0
-589 -639 -678 0
-589 -639 -679 0
-589 -639 -680 0
-589 -639 -681 0
-589 -639 -682 0
-589 -639 -683 0
-589 -639 -684 0
-589 -639 -685 0
-589 -639 -686 0
-589 -639 -687 0
-589 -639 -688 0
-589 -639 -689 0
-589 -639 -690 0
-589 -639 -691 0
-589 -639 -692 0
-589 -639 -693 0
-589 -639 -694 0
-589 -640 -670 0
-589 -640 -671 0
-589 -640 -672 0
-589 -640 -673 0
-589 -640 -674 0
-589 -640 -675 0
-589 -640 -676 0
-589 -640 -677 0
-589 -640 -678 0
-589 -640 -679 0
-589 -640 -680 0
-589 -640 -681 0
-589 -640 -682 0
-589 -640 -683 0
-589 -640 -684 0
-589 -640 -685 0
-589 -640 -686 0
-589 -640 -687 0
-589 -640 -688 0
-589 -640 -689 0
-589 -640 -690 0
-589 -640 -691 0
-589 -640 -692 0
-589 -640 -693 0
-589 -640 -694 0
-589 -641 -670 0
-589 -641 -671 0
-589 -641 -672 0
-589 -641 -673 0
-589 -641 -674 0
-589 -641 -675 0
-589 -641 -676 0
-589 -641 -677 0
-589 -641 -678 0
-589 -641 -679 0
-589 -641 -680 0
-589 -641 -681 0
-589 -641 -682 0
-589 -641 -683 0
-589 -641 -684 0
-589 -641 -685 0
-589 -641 -686 0
-589 -641 -687 0
-589 -641 -688 0
-589 -641 -689 0
-589 -641 -690 0
-589 -641 -691 0
-589 -641 -692 0
-589 -641 -693 0
-589 -641 -694 0
-589 -642 -670 0
-589 -642 -671 0
-589 -642 -672 0
-589 -642 -673 0
-589 -642 -674 0
-589 -642 -675 0
-589 -642 -676 0
-589 -642 -677 0
-589 -642 -678 0
-589 -642 -679 0
-589 -642 -680 0
-589 -642 -681 0
-589 -642 -682 0
-589 -642 -683 0
-589 -642 -684 0
-589 -642 -685 0
-589 -642 -686 0
-589 -642 -687 0
-589 -642 -688 0
-589 -642 -689 0
-589 -642 -690 0
-589 -642 -691 0
-589 -642 -692 0
-589 -642 -693 0
-589 -642 -694 0
-589 -643 -670 0
-589 -643 -671 0
-589 -643 -672 0
-589 -643 -673 0
-589 -643 -674 0
-589 -643 -675 0
-589 -643 -676 0
-589 -643 -677 0
-589 -643 -678 0
-589 -643 -679 0
-589 -643 -680 0
-589 -643 -681 0
-589 -643 -682 0
-589 -643 -683 0
-589 -643 -684 0
-589 -643 -685 0
-589 -643 -686 0
-589 -643 -687 0
-589 -643 -688 0
-589 -643 -689 0
-589 -643 -690 0
-589 -643 -691 0
-589 -643 -692 0
-589 -643 -693 0
-589 -643 -694 0
-589 -644 -670 0
-589 -644 -671 0
-589 -644 -672 0
-589 -644 -673 0
-589 -644 -674 0
-589 -644 -675 0
-589 -644 -676 0
-589 -644 -677 0
-589 -644 -678 0
-589 -644 -679 0
-589 -644 -680 0
-589 -644 -681 0
-589 -644 -682 0
-589 -644 -683 0
-589 -644 -684 0
-589 -644 -685 0
-589 -644 -686 0
-589 -644 -687 0
-589 -644 -688 0
-589 -644 -689 0
-589 -644 -690 0
-589 -644 -691 0
-589 -644 -692 0
-589 -644 -693 0
-589 -644 -694 0
-590 -620 -670 743 0
-590 -620 -671 744 0
-590 -620 -672 0
-590 -620 -673 0
-590 -620 -674 0
-590 -620 -675 0
-590 -620 -676 0
-590 -620 -677 0
-590 -620 -678 0
-590 -620 -679 0
-590 -620 -680 0
-590 -620 -681 0
-590 -620 -682 0
-590 -620 -683 0
-590 -620 -684 0
-590 -620 -685 0
-590 -620 -686 0
-590 -620 -687 0
-590 -620 -688 0
-590 -620 -689 0
-590 -620 -690 0
-590 -620 -691 0
-590 -620 -692 0
-590 -620 -693 0
-590 -620 -694 0
-590 -621 -670 744 0
-590 -621 -671 0
-590 -621 -672 0
-590 -621 -673 0
-590 -621 -674 0
-590 -621 -675 0
-590 -621 -676 0
-590 -621 -677 0
-590 -621 -678 0
-590 -621 -679 0
-590 -621 -680 0
-590 -621 -681 0
-590 -621 -682 0
-590 -621 -683 0
-590 -621 -684 0
-590 -621 -685 0
-590 -621 -686 0
-590 -621 -687 0
-590 -621 -688 0
-590 -621 -689 0
-590 -621 -690 0
-590 -621 -691 0
-590 -621 -692 0
-590 -621 -693 0
-590 -621 -694 0
-590 -622 -670 0
-590 -622 -671 0
-590 -622 -672 0
-590 -622 -673 0
-590 -622 -674 0
-590 -622 -675 0
-590 -622 -676 0
-590 -622 -677 0
-590 -622 -678 0
-590 -622 -679 0
-590 -622 -680 0
-590 -622 -681 0
-590 -622 -682 0
-590 -622 -683 0
-590 -622 -684 0
-590 -622 -685 0
-590 -622 -686 0
-590 -622 -687 0
-590 -622 -688 0
-590 -622 -689 0
-590 -622 -690 0
-590 -622 -691 0
-590 -622 -692 0
-590 -622 -693 0
-590 -622 -694 0
-590 -623 -670 0
-590 -623 -671 0
-590 -623 -672 0
-590 -623 -673 0
-590 -623 -674 0
-590 -623 -675 0
-590 -623 -676 0
-590 -623 -677 0
-590 -623 -678 0
-590 -623 -679 0
-590 -623 -680 0
-590 -623 -681 0
-590 -623 -682 0
-590 -623 -683 0
-590 -623 -684 0
-590 -623 -685 0
-590 -623 -686 0
-590 -623 -687 0
-590 -623 -688 0
-590 -623 -689 0
-590 -623 -690 0
-590 -623 -691 0
-590 -623 -692 0
-590 -623 -693 0
-590 -623 -694 0
-590 -624 -670 0
-590 -624 -671 0
-590 -624 -672 0
-590 -624 -673 0
-590 -624 -674 0
-590 -624 -675 0
-590 -624 -676 0
-590 -624 -677 0
-590 -624 -678 0
-590 -624 -679 0
-590 -624 -680 0
-590 -624 -681 0
-590 -624 -682 0
-590 -624 -683 0
-590 -624 -684 0
-590 -624 -685 0
-590 -624 -686 0
-590 -624 -687 0
-590 -624 -688 0
-590 -624 -689 0
-590 -624 -690 0
-590 -624 -691 0
-590 -624 -692 0
-590 -624 -693 0
-590 -624 -694 0
-590 -625 -670 0
-590 -625 -671 0
-590 -625 -672 0
-590 -625 -673 0
-590 -625 -674 0
-590 -625 -675 0
-590 -625 -676 0
-590 -625 -677 0
-590 -625 -678 0
-590 -625 -679 0
-590 -625 -680 0
-590 -625 -681 0
-590 -625 -682 0
-590 -625 -683 0
-590 -625 -684 0
-590 -625 -685 0
-590 -625 -686 0
-590 -625 -687 0
-590 -625 -688 0
-590 -625 -689 0
-590 -625 -690 0
-590 -625 -691 0
-590 -625 -692 0
-590 -625 -693 0
-590 -625 -694 0
-590 -626 -670 0
-590 -626 -671 0
-590 -626 -672 0
-590 -626 -673 0
-590 -626 -674 0
-590 -626 -675 0
-590 -626 -676 0
-590 -626 -677 0
-590 -626 -678 0
-590 -626 -679 0
-590 -626 -680 0
-590 -626 -681 0
-590 -626 -682 0
-590 -626 -683 0
-590 -626 -684 0
-590 -626 -685 0
-590 -626 -686 0
-590 -626 -687 0
-590 -626 -688 0
-590 -626 -689 0
-590 -626 -690 0
-590 -626 -691 0
-590 -626 -692 0
-590 -626 -693 0
-590 -626 -694 0
-590 -627 -670 0
-590 -627 -671 0
-590 -627 -672 0
-590 -627 -673 0
-590 -627 -674 0
-590 -627 -675 0
-590 -627 -676 0
-590 -627 -677 0
-590 -627 -678 0
-590 -627 -679 0
-590 -627 -680 0
-590 -627 -681 0
-590 -627 -682 0
-590 -627 -683 0
-590 -627 -684 0
-590 -627 -685 0
-590 -627 -686 0
-590 -627 -687 0
-590 -627 -688 0
-590 -627 -689 0
-590 -627 -690 0
-590 -627 -691 0
-590 -627 -692 0
-590 -627 -693 0
-590 -627 -694 0
-590 -628 -670 0
-590 -628 -671 0
-590 -628 -672 0
-590 -628 -673 0
-590 -628 -674 0
-590 -628 -675 0
-590 -628 -676 0
-590 -628 -677 0
-590 -628 -678 0
-590 -628 -679 0
-590 -628 -680 0
-590 -628 -681 0
-590 -628 -682 0
-590 -628 -683 0
-590 -628 -684 0
-590 -628 -685 0
-590 -628 -686 0
-590 -628 -687 0
-590 -628 -688 0
-590 -628 -689 0
-590 -628 -690 0
-590 -628 -691 0
-590 -628 -692 0
-590 -628 -693 0
-590 -628 -694 0
-590 -629 -670 0
-590 -629 -671 0
-590 -629 -672 0
-590 -629 -673 0
-590 -629 -674 0
-590 -629 -675 0
-590 -629 -676 0
-590 -629 -677 0
-590 -629 -678 0
-590 -629 -679 0
-590 -629 -680 0
-590 -629 -681 0
-590 -629 -682 0
-590 -629 -683 0
-590 -629 -684 0
-590 -629 -685 0
-590 -629 -686 0
-590 -629 -687 0
-590 -629 -688 0
-590 -629 -689 0
-590 -629 -690 0
-590 -629 -691 0
-590 -629 -692 0
-590 -629 -693 0
-590 -629 -694 0
-590 -630 -670 0
-590 -630 -671 0
-590 -630 -672 0
-590 -630 -673 0
-590 -630 -674 0
-590 -630 -675 0
-590 -630 -676 0
-590 -630 -677 0
-590 -630 -678 0
-590 -630 -679 0
-590 -630 -680 0
-590 -630 -681 0
-590 -630 -682 0
-590 -630 -683 0
-590 -630 -684 0
-590 -630 -685 0
-590 -630 -686 0
-590 -630 -687 0
-590 -630 -688 0
-590 -630 -689 0
-590 -630 -690 0
-590 -630 -691 0
-590 -630 -692 0
-590 -630 -693 0
-590 -630 -694 0
-590 -631 -670 0
-590 -631 -671 0
-590 -631 -672 0
-590 -631 -673 0
-590 -631 -674 0
-590 -631 -675 0
-590 -631 -676 0
-590 -631 -677 0
-590 -631 -678 0
-590 -631 -679 0
-590 -631 -680 0
-590 -631 -681 0
-590 -631 -682 0
-590 -631 -683 0
-590 -631 -684 0
-590 -631 -685 0
-590 -631 -686 0
-590 -631 -687 0
-590 -631 -688 0
-590 -631 -689 0
-590 -631 -690 0
-590 -631 -691 0
-590 -631 -692 0
-590 -631 -693 0
-590 -631 -694 0
-590 -632 -670 0
-590 -632 -671 0
-590 -632 -672 0
-590 -632 -673 0
-590 -632 -674 0
-590 -632 -675 0
-590 -632 -676 0
-590 -632 -677 0
-590 -632 -678 0
-590 -632 -679 0
-590 -632 -680 0
-590 -632 -681 0
-590 -632 -682 0
-590 -632 -683 0
-590 -632 -684 0
-590 -632 -685 0
-590 -632 -686 0
-590 -632 -687 0
-590 -632 -688 0
-590 -632 -689 0
-590 -632 -690 0
-590 -632 -691 0
-590 -632 -692 0
-590 -632 -693 0
-590 -632 -694 0
-590 -633 -670 0
-590 -633 -671 0
-590 -633 -672 0
-590 -633 -673 0
-590 -633 -674 0
-590 -633 -675 0
-590 -633 -676 0
-590 -633 -677 0
-590 -633 -678 0
-590 -633 -679 0
-590 -633 -680 0
-590 -633 -681 0
-590 -633 -682 0
-590 -633 -683 0
-590 -633 -684 0
-590 -633 -685 0
-590 -633 -686 0
-590 -633 -687 0
-590 -633 -688 0
-590 -633 -689 0
-590 -633 -690 0
-590 -633 -691 0
-590 -633 -692 0
-590 -633 -693 0
-590 -633 -694 0
-590 -634 -670 0
-590 -634 -671 0
-590 -634 -672 0
-590 -634 -673 0
-590 -634 -674 0
-590 -634 -675 0
-590 -634 -676 0
-590 -634 -677 0
-590 -634 -678 0
-590 -634 -679 0
-590 -634 -680 0
-590 -634 -681 0
-590 -634 -682 0
-590 -634 -683 0
-590 -634 -684 0
-590 -634 -685 0
-590 -634 -686 0
-590 -634 -687 0
-590 -634 -688 0
-590 -634 -689 0
-590 -634 -690 0
-590 -634 -691 0
-590 -634 -692 0
-590 -634 -693 0
-590 -634 -694 0
-590 -635 -670 0
-590 -635 -671 0
-590 -635 -672 0
-590 -635 -673 0
-590 -635 -674 0
-590 -635 -675 0
-590 -635 -676 0
-590 -635 -677 0
-590 -635 -678 0
-590 -635 -679 0
-590 -635 -680 0
-590 -635 -681 0
-590 -635 -682 0
-590 -635 -683 0
-590 -635 -684 0
-590 -635 -685 0
-590 -635 -686 0
-590 -635 -687 0
-590 -635 -688 0
-590 -635 -689 0
-590 -635 -690 0
-590 -635 -691 0
-590 -635 -692 0
-590 -635 -693 0
-590 -635 -694 0
-590 -636 -670 0
-590 -636 -671 0
-590 -636 -672 0
-590 -636 -673 0
-590 -636 -674 0
-590 -636 -675 0
-590 -636 -676 0
-590 -636 -677 0
-590 -636 -678 0
-590 -636 -679 0
-590 -636 -680 0
-590 -636 -681 0
-590 -636 -682 0
-590 -636 -683 0
-590 -636 -684 0
-590 -636 -685 0
-590 -636 -686 0
-590 -636 -687 0
-590 -636 -688 0
-590 -636 -689 0
-590 -636 -690 0
-590 -636 -691 0
-590 -636 -692 0
-590 -636 -693 0
-590 -636 -694 0
-590 -637 -670 0
-590 -637 -671 0
-590 -637 -672 0
-590 -637 -673 0
-590 -637 -674 0
-590 -637 -675 0
-590 -637 -676 0
-590 -637 -677 0
-590 -637 -678 0
-590 -637 -679 0
-590 -637 -680 0
-590 -637 -681 0
-590 -637 -682 0
-590 -637 -683 0
-590 -637 -684 0
-590 -637 -685 0
-590 -637 -686 0
-590 -637 -687 0
-590 -637 -688 0
-590 -637 -689 0
-590 -637 -690 0
-590 -637 -691 0
-590 -637 -692 0
-590 -637 -693 0
-590 -637 -694 0
-590 -638 -670 0
-590 -638 -671 0
-590 -638 -672 0
-590 -638 -673 0
-590 -638 -674 0
-590 -638 -675 0
-590 -638 -676 0
-590 -638 -677 0
-590 -638 -678 0
-590 -638 -679 0
-590 -638 -680 0
-590 -638 -681 0
-590 -638 -682 0
-590 -638 -683 0
-590 -638 -684 0
-590 -638 -685 0
-590 -638 -686 0
-590 -638 -687 0
-590 -638 -688 0
-590 -638 -689 0
-590 -638 -690 0
-590 -638 -691 0
-590 -638 -692 0
-590 -638 -693 0
-590 -638 -694 0
-590 -639 -670 0
-590 -639 -671 0
-590 -639 -672 0
-590 -639 -673 0
-590 -639 -674 0
-590 -639 -675 0
-590 -639 -676 0
-590 -639 -677 0
-590 -639 -678 0
-590 -639 -679 0
-590 -639 -680 0
-590 -639 -681 0
-590 -639 -682 0
-590 -639 -683 0
-590 -639 -684 0
-590 -639 -685 0
-590 -639 -686 0
-590 -639 -687 0
-590 -639 -688 0
-590 -639 -689 0
-590 -639 -690 0
-590 -639 -691 0
-590 -639 -692 0
-590 -639 -693 0
-590 -639 -694 0
-590 -640 -670 0
-590 -640 -671 0
-590 -640 -672 0
-590 -640 -673 0
-590 -640 -674 0
-590 -640 -675 0
-590 -640 -676 0
-590 -640 -677 0
-590 -640 -678 0
-590 -640 -679 0
-590 -640 -680 0
-590 -640 -681 0
-590 -640 -682 0
-590 -640 -683 0
-590 -640 -684 0
-590 -640 -685 0
-590 -640 -686 0
-590 -640 -687 0
-590 -640 -688 0
-590 -640 -689 0
-590 -640 -690 0
-590 -640 -691 0
-590 -640 -692 0
-590 -640 -693 0
-590 -640 -694 0
-590 -641 -670 0
-590 -641 -671 0
-590 -641 -672 0
-590 -641 -673 0
-590 -641 -674 0
-590 -641 -675 0
-590 -641 -676 0
-590 -641 -677 0
-590 -641 -678 0
-590 -641 -679 0
-590 -641 -680 0
-590 -641 -681 0
-590 -641 -682 0
-590 -641 -683 0
-590 -641 -684 0
-590 -641 -685 0
-590 -641 -686 0
-590 -641 -687 0
-590 -641 -688 0
-590 -641 -689 0
-590 -641 -690 0
-590 -641 -691 0
-590 -641 -692 0
-590 -641 -693 0
-590 -641 -694 0
-590 -642 -670 0
-590 -642 -671 0
-590 -642 -672 0
-590 -642 -673 0
-590 -642 -674 0
-590 -642 -675 0
-590 -642 -676 0
-590 -642 -677 0
-590 -642 -678 0
-590 -642 -679 0
-590 -642 -680 0
-590 -642 -681 0
-590 -642 -682 0
-590 -642 -683 0
-590 -642 -684 0
-590 -642 -685 0
-590 -642 -686 0
-590 -642 -687 0
-590 -642 -688 0
-590 -642 -689 0
-590 -642 -690 0
-590 -642 -691 0
-590 -642 -692 0
-590 -642 -693 0
-590 -642 -694 0
-590 -643 -670 0
-590 -643 -671 0
-590 -643 -672 0
-590 -643 -673 0
-590 -643 -674 0
-590 -643 -675 0
-590 -643 -676 0
-590 -643 -677 0
-590 -643 -678 0
-590 -643 -679 0
-590 -643 -680 0
-590 -643 -681 0
-590 -643 -682 0
-590 -643 -683 0
-590 -643 -684 0
-590 -643 -685 0
-590 -643 -686 0
-590 -643 -687 0
-590 -643 -688 0
-590 -643 -689 0
-590 -643 -690 0
-590 -643 -691 0
-590 -643 -692 0
-590 -643 -693 0
-590 -643 -694 0
-590 -644 -670 0
-590 -644 -671 0
-590 -644 -672 0
-590 -644 -673 0
-590 -644 -674 0
-590 -644 -675 0
-590 -644 -676 0
-590 -644 -677 0
-590 -644 -678 0
-590 -644 -679 0
-590 -644 -680 0
-590 -644 -681 0
-590 -644 -682 0
-590 -644 -683 0
-590 -644 -684 0
-590 -644 -685 0
-590 -644 -686 0
-590 -644 -687 0
-590 -644 -688 0
-590 -644 -689 0
-590 -644 -690 0
-590 -644 -691 0
-590 -644 -692 0
-590 -644 -693 0
-590 -644 -694 0
-591 -620 -670 744 0
-591 -620 -671 0
-591 -620 -672 0
-591 -620 -673 0
-591 -620 -674 0
-591 -620 -675 0
-591 -620 -676 0
-591 -620 -677 0
-591 -620 -678 0
-591 -620 -679 0
-591 -620 -680 0
-591 -620 -681 0
-591 -620 -682 0
-591 -620 -683 0
-591 -620 -684 0
-591 -620 -685 0
-591 -620 -686 0
-591 -620 -687 0
-591 -620 -688 0
-591 -620 -689 0
-591 -620 -690 0
-591 -620 -691 0
-591 -620 -692 0
-591 -620 -693 0
-591 -620 -694 0
-591 -621 -670 0
-591 -621 -671 0
-591 -621 -672 0
-591 -621 -673 0
-591 -621 -674 0
-591 -621 -675 0
-591 -621 -676 0
-591 -621 -677 0
-591 -621 -678 0
-591 -621 -679 0
-591 -621 -680 0
-591 -621 -681 0
-591 -621 -682 0
-591 -621 -683 0
-591 -621 -684 0
-591 -621 -685 0
-591 -621 -686 0
-591 -621 -687 0
-591 -621 -688 0
-591 -621 -689 0
-591 -621 -690 0
-591 -621 -691 0
-591 -621 -692 0
-591 -621 -693 0
-591 -621 -694 0
-591 -622 -670 0
-591 -622 -671 0
-591 -622 -672 0
-591 -622 -673 0
-591 -622 -674 0
-591 -622 -675 0
-591 -622 -676 0
-591 -622 -677 0
-591 -622 -678 0
-591 -622 -679 0
-591 -622 -680 0
-591 -622 -681 0
-591 -622 -682 0
-591 -622 -683 0
-591 -622 -684 0
-591 -622 -685 0
-591 -622 -686 0
-591 -622 -687 0
-591 -622 -688 0
-591 -622 -689 0
-591 -622 -690 0
-591 -622 -691 0
-591 -622 -692 0
-591 -622 -693 0
-591 -622 -694 0
-591 -623 -670 0
-591 -623 -671 0
-591 -623 -672 0
-591 -623 -673 0
-591 -623 -674 0
-591 -623 -675 0
-591 -623 -676 0
-591 -623 -677 0
-591 -623 -678 0
-591 -623 -679 0
-591 -623 -680 0
-591 -623 -681 0
-591 -623 -682 0
-591 -623 -683 0
-591 -623 -684 0
-591 -623 -685 0
-591 -623 -686 0
-591 -623 -687 0
-591 -623 -688 0
-591 -623 -689 0
-591 -623 -690 0
-591 -623 -691 0
-591 -623 -692 0
-591 -623 -693 0
-591 -623 -694 0
-591 -624 -670 0
-591 -624 -671 0
-591 -624 -672 0
-591 -624 -673 0
-591 -624 -674 0
-591 -624 -675 0
-591 -624 -676 0
-591 -624 -677 0
-591 -624 -678 0
-591 -624 -679 0
-591 -624 -680 0
-591 -624 -681 0
-591 -624 -682 0
-591 -624 -683 0
-591 -624 -684 0
-591 -624 -685 0
-591 -624 -686 0
-591 -624 -687 0
-591 -624 -688 0
-591 -624 -689 0
-591 -624 -690 0
-591 -624 -691 0
-591 -624 -692 0
-591 -624 -693 0
-591 -624 -694 0
-591 -625 -670 0
-591 -625 -671 0
-591 -625 -672 0
-591 -625 -673 0
-591 -625 -674 0
-591 -625 -675 0
-591 -625 -676 0
-591 -625 -677 0
-591 -625 -678 0
-591 -625 -679 0
-591 -625 -680 0
-591 -625 -681 0
-591 -625 -682 0
-591 -625 -683 0
-591 -625 -684 0
-591 -625 -685 0
-591 -625 -686 0
-591 -625 -687 0
-591 -625 -688 0
-591 -625 -689 0
-591 -625 -690 0
-591 -625 -691 0
-591 -625 -692 0
-591 -625 -693 0
-591 -625 -694 0
-591 -626 -670 0
-591 -626 -671 0
-591 -626 -672 0
-591 -626 -673 0
-591 -626 -674 0
-591 -626 -675 0
-591 -626 -676 0
-591 -626 -677 0
-591 -626 -678 0
-591 -626 -679 0
-591 -626 -680 0
-591 -626 -681 0
-591 -626 -682 0
-591 -626 -683 0
-591 -626 -684 0
-591 -626 -685 0
-591 -626 -686 0
-591 -626 -687 0
-591 -626 -688 0
-591 -626 -689 0
-591 -626 -690 0
-591 -626 -691 0
-591 -626 -692 0
-591 -626 -693 0
-591 -626 -694 0
-591 -627 -670 0
-591 -627 -671 0
-591 -627 -672 0
-591 -627 -673 0
-591 -627 -674 0
-591 -627 -675 0
-591 -627 -676 0
-591 -627 -677 0
-591 -627 -678 0
-591 -627 -679 0
-591 -627 -680 0
-591 -627 -681 0
-591 -627 -682 0
-591 -627 -683 0
-591 -627 -684 0
-591 -627 -685 0
-591 -627 -686 0
-591 -627 -687 0
-591 -627 -688 0
-591 -627 -689 0
-591 -627 -690 0
-591 -627 -691 0
-591 -627 -692 0
-591 -627 -693 0
-591 -627 -694 0
-591 -628 -670 0
-591 -628 -671 0
-591 -628 -672 0
-591 -628 -673 0
-591 -628 -674 0
-591 -628 -675 0
-591 -628 -676 0
-591 -628 -677 0
-591 -628 -678 0
-591 -628 -679 0
-591 -628 -680 0
-591 -628 -681 0
-591 -628 -682 0
-591 -628 -683 0
-591 -628 -684 0
-591 -628 -685 0
-591 -628 -686 0
-591 -628 -687 0
-591 -628 -688 0
-591 -628 -689 0
-591 -628 -690 0
-591 -628 -691 0
-591 -628 -692 0
-591 -628 -693 0
-591 -628 -694 0
-591 -629 -670 0
-591 -629 -671 0
-591 -629 -672 0
-591 -629 -673 0
-591 -629 -674 0
-591 -629 -675 0
-591 -629 -676 0
-591 -629 -677 0
-591 -629 -678 0
-591 -629 -679 0
-591 -629 -680 0
-591 -629 -681 0
-591 -629 -682 0
-591 -629 -683 0
-591 -629 -684 0
-591 -629 -685 0
-591 -629 -686 0
-591 -629 -687 0
-591 -629 -688 0
-591 -629 -689 0
-591 -629 -690 0
-591 -629 -691 0
-591 -629 -692 0
-591 -629 -693 0
-591 -629 -694 0
-591 -630 -670 0
-591 -630 -671 0
-591 -630 -672 0
-591 -630 -673 0
-591 -630 -674 0
-591 -630 -675 0
-591 -630 -676 0
-591 -630 -677 0
-591 -630 -678 0
-591 -630 -679 0
-591 -630 -680 0
-591 -630 -681 0
-591 -630 -682 0
-591 -630 -683 0
-591 -630 -684 0
-591 -630 -685 0
-591 -630 -686 0
-591 -630 -687 0
-591 -630 -688 0
-591 -630 -689 0
-591 -630 -690 0
-591 -630 -691 0
-591 -630 -692 0
-591 -630 -693 0
-591 -630 -694 0
-591 -631 -670 0
-591 -631 -671 0
-591 -631 -672 0
-591 -631 -673 0
-591 -631 -674 0
-591 -631 -675 0
-591 -631 -676 0
-591 -631 -677 0
-591 -631 -678 0
-591 -631 -679 0
-591 -631 -680 0
-591 -631 -681 0
-591 -631 -682 0
-591 -631 -683 0
-591 -631 -684 0
-591 -631 -685 0
-591 -631 -686 0
-591 -631 -687 0
-591 -631 -688 0
-591 -631 -689 0
-591 -631 -690 0
-591 -631 -691 0
-591 -631 -692 0
-591 -631 -693 0
-591 -631 -694 0
-591 -632 -670 0
-591 -632 -671 0
-591 -632 -672 0
-591 -632 -673 0
-591 -632 -674 0
-591 -632 -675 0
-591 -632 -676 0
-591 -632 -677 0
-591 -632 -678 0
-591 -632 -679 0
-591 -632 -680 0
-591 -632 -681 0
-591 -632 -682 0
-591 -632 -683 0
-591 -632 -684 0
-591 -632 -685 0
-591 -632 -686 0
-591 -632 -687 0
-591 -632 -688 0
-591 -632 -689 0
-591 -632 -690 0
-591 -632 -691 0
-591 -632 -692 0
-591 -632 -693 0
-591 -632 -694 0
-591 -633 -670 0
-591 -633 -671 0
-591 -633 -672 0
-591 -633 -673 0
-591 -633 -674 0
-591 -633 -675 0
-591 -633 -676 0
-591 -633 -677 0
-591 -633 -678 0
-591 -633 -679 0
-591 -633 -680 0
-591 -633 -681 0
-591 -633 -682 0
-591 -633 -683 0
-591 -633 -684 0
-591 -633 -685 0
-591 -633 -686 0
-591 -633 -687 0
-591 -633 -688 0
-591 -633 -689 0
-591 -633 -690 0
-591 -633 -691 0
-591 -633 -692 0
-591 -633 -693 0
-591 -633 -694 0
-591 -634 -670 0
-591 -634 -671 0
-591 -634 -672 0
-591 -634 -673 0
-591 -634 -674 0
-591 -634 -675 0
-591 -634 -676 0
-591 -634 -677 0
-591 -634 -678 0
-591 -634 -679 0
-591 -634 -680 0
-591 -634 -681 0
-591 -634 -682 0
-591 -634 -683 0
-591 -634 -684 0
-591 -634 -685 0
-591 -634 -686 0
-591 -634 -687 0
-591 -634 -688 0
-591 -634 -689 0
-591 -634 -690 0
-591 -634 -691 0
-591 -634 -692 0
-591 -634 -693 0
-591 -634 -694 0
-591 -635 -670 0
-591 -635 -671 0
-591 -635 -672 0
-591 -635 -673 0
-591 -635 -674 0
-591 -635 -675 0
-591 -635 -676 0
-591 -635 -677 0
-591 -635 -678 0
-591 -635 -679 0
-591 -635 -680 0
-591 -635 -681 0
-591 -635 -682 0
-591 -635 -683 0
-591 -635 -684 0
-591 -635 -685 0
-591 -635 -686 0
-591 -635 -687 0
-591 -635 -688 0
-591 -635 -689 0
-591 -635 -690 0
-591 -635 -691 0
-591 -635 -692 0
-591 -635 -693 0
-591 -635 -694 0
-591 -636 -670 0
-591 -636 -671 0
-591 -636 -672 0
-591 -636 -673 0
-591 -636 -674 0
-591 -636 -675 0
-591 -636 -676 0
-591 -636 -677 0
-591 -636 -678 0
-591 -636 -679 0
-591 -636 -680 0
-591 -636 -681 0
-591 -636 -682 0
-591 -636 -683 0
-591 -636 -684 0
-591 -636 -685 0
-591 -636 -686 0
-591 -636 -687 0
-591 -636 -688 0
-591 -636 -689 0
-591 -636 -690 0
-591 -636 -691 0
-591 -636 -692 0
-591 -636 -693 0
-591 -636 -694 0
-591 -637 -670 0
-591 -637 -671 0
-591 -637 -672 0
-591 -637 -673 0
-591 -637 -674 0
-591 -637 -675 0
-591 -637 -676 0
-591 -637 -677 0
-591 -637 -678 0
-591 -637 -679 0
-591 -637 -680 0
-591 -637 -681 0
-591 -637 -682 0
-591 -637 -683 0
-591 -637 -684 0
-591 -637 -685 0
-591 -637 -686 0
-591 -637 -687 0
-591 -637 -688 0
-591 -637 -689 0
-591 -637 -690 0
-591 -637 -691 0
-591 -637 -692 0
-591 -637 -693 0
-591 -637 -694 0
-591 -638 -670 0
-591 -638 -671 0
-591 -638 -672 0
-591 -638 -673 0
-591 -638 -674 0
-591 -638 -675 0
-591 -638 -676 0
-591 -638 -677 0
-591 -638 -678 0
-591 -638 -679 0
-591 -638 -680 0
-591 -638 -681 0
-591 -638 -682 0
-591 -638 -683 0
-591 -638 -684 0
-591 -638 -685 0
-591 -638 -686 0
-591 -638 -687 0
-591 -638 -688 0
-591 -638 -689 0
-591 -638 -690 0
-591 -638 -691 0
-591 -638 -692 0
-591 -638 -693 0
-591 -638 -694 0
-591 -639 -670 0
-591 -639 -671 0
-591 -639 -672 0
-591 -639 -673 0
-591 -639 -674 0
-591 -639 -675 0
-591 -639 -676 0
-591 -639 -677 0
-591 -639 -678 0
-591 -639 -679 0
-591 -639 -680 0
-591 -639 -681 0
-591 -639 -682 0
-591 -639 -683 0
-591 -639 -684 0
-591 -639 -685 0
-591 -639 -686 0
-591 -639 -687 0
-591 -639 -688 0
-591 -639 -689 0
-591 -639 -690 0
-591 -639 -691 0
-591 -639 -692 0
-591 -639 -693 0
-591 -639 -694 0
-591 -640 -670 0
-591 -640 -671 0
-591 -640 -672 0
-591 -640 -673 0
-591 -640 -674 0
-591 -640 -675 0
-591 -640 -676 0
-591 -640 -677 0
-591 -640 -678 0
-591 -640 -679 0
-591 -640 -680 0
-591 -640 -681 0
-591 -640 -682 0
-591 -640 -683 0
-591 -640 -684 0
-591 -640 -685 0
-591 -640 -686 0
-591 -640 -687 0
-591 -640 -688 0
-591 -640 -689 0
-591 -640 -690 0
-591 -640 -691 0
-591 -640 -692 0
-591 -640 -693 0
-591 -640 -694 0
-591 -641 -670 0
-591 -641 -671 0
-591 -641 -672 0
-591 -641 -673 0
-591 -641 -674 0
-591 -641 -675 0
-591 -641 -676 0
-591 -641 -677 0
-591 -641 -678 0
-591 -641 -679 0
-591 -641 -680 0
-591 -641 -681 0
-591 -641 -682 0
-591 -641 -683 0
-591 -641 -684 0
-591 -641 -685 0
-591 -641 -686 0
-591 -641 -687 0
-591 -641 -688 0
-591 -641 -689 0
-591 -641 -690 0
-591 -641 -691 0
-591 -641 -692 0
-591 -641 -693 0
-591 -641 -694 0
-591 -642 -670 0
-591 -642 -671 0
-591 -642 -672 0
-591 -642 -673 0
-591 -642 -674 0
-591 -642 -675 0
-591 -642 -676 0
-591 -642 -677 0
-591 -642 -678 0
-591 -642 -679 0
-591 -642 -680 0
-591 -642 -681 0
-591 -642 -682 0
-591 -642 -683 0
-591 -642 -684 0
-591 -642 -685 0
-591 -642 -686 0
-591 -642 -687 0
-591 -642 -688 0
-591 -642 -689 0
-591 -642 -690 0
-591 -642 -691 0
-591 -642 -692 0
-591 -642 -693 0
-591 -642 -694 0
-591 -643 -670 0
-591 -643 -671 0
-591 -643 -672 0
-591 -643 -673 0
-591 -643 -674 0
-591 -643 -675 0
-591 -643 -676 0
-591 -643 -677 0
-591 -643 -678 0
-591 -643 -679 0
-591 -643 -680 0
-591 -643 -681 0
-591 -643 -682 0
-591 -643 -683 0
-591 -643 -684 0
-591 -643 -685 0
-591 -643 -686 0
-591 -643 -687 0
-591 -643 -688 0
-591 -643 -689 0
-591 -643 -690 0
-591 -643 -691 0
-591 -643 -692 0
-591 -643 -693 0
-591 -643 -694 0
-591 -644 -670 0
-591 -644 -671 0
-591 -644 -672 0
-591 -644 -673 0
-591 -644 -674 0
-591 -644 -675 0
-591 -644 -676 0
-591 -644 -677 0
-591 -644 -678 0
-591 -644 -679 0
-591 -644 -680 0
-591 -644 -681 0
-591 -644 -682 0
-591 -644 -683 0
-591 -644 -684 0
-591 -644 -685 0
-591 -644 -686 0
-591 -644 -687 0
-591 -644 -688 0
-591 -644 -689 0
-591 -644 -690 0
-591 -644 -691 0
-591 -644 -692 0
-591 -644 -693 0
-591 -644 -694 0
-592 -620 -670 0
-592 -620 -671 0
-592 -620 -672 0
-592 -620 -673 0
-592 -620 -674 0
-592 -620 -675 0
-592 -620 -676 0
-592 -620 -677 0
-592 -620 -678 0
-592 -620 -679 0
-592 -620 -680 0
-592 -620 -681 0
-592 -620 -682 0
-592 -620 -683 0
-592 -620 -684 0
-592 -620 -685 0
-592 -620 -686 0
-592 -620 -687 0
-592 -620 -688 0
-592 -620 -689 0
-592 -620 -690 0
-592 -620 -691 0
-592 -620 -692 0
-592 -620 -693 0
-592 -620 -694 0
-592 -621 -670 0
-592 -621 -671 0
-592 -621 -672 0
-592 -621 -673 0
-592 -621 -674 0
-592 -621 -675 0
-592 -621 -676 0
-592 -621 -677 0
-592 -621 -678 0
-592 -621 -679 0
-592 -621 -680 0
-592 -621 -681 0
-592 -621 -682 0
-592 -621 -683 0
-592 -621 -684 0
-592 -621 -685 0
-592 -621 -686 0
-592 -621 -687 0
-592 -621 -688 0
-592 -621 -689 0
-592 -621 -690 0
-592 -621 -691 0
-592 -621 -692 0
-592 -621 -693 0
-592 -621 -694 0
-592 -622 -670 0
-592 -622 -671 0
-592 -622 -672 0
-592 -622 -673 0
-592 -622 -674 0
-592 -622 -675 0
-592 -622 -676 0
-592 -622 -677 0
-592 -622 -678 0
-592 -622 -679 0
-592 -622 -680 0
-592 -622 -681 0
-592 -622 -682 0
-592 -622 -683 0
-592 -622 -684 0
-592 -622 -685 0
-592 -622 -686 0
-592 -622 -687 0
-592 -622 -688 0
-592 -622 -689 0
-592 -622 -690 0
-592 -622 -691 0
-592 -622 -692 0
-592 -622 -693 0
-592 -622 -694 0
-592 -623 -670 0
-592 -623 -671 0
-592 -623 -672 0
-592 -623 -673 0
-592 -623 -674 0
-592 -623 -675 0
-592 -623 -676 0
-592 -623 -677 0
-592 -623 -678 0
-592 -623 -679 0
-592 -623 -680 0
-592 -623 -681 0
-592 -623 -682 0
-592 -623 -683 0
-592 -623 -684 0
-592 -623 -685 0
-592 -623 -686 0
-592 -623 -687 0
-592 -623 -688 0
-592 -623 -689 0
-592 -623 -690 0
-592 -623 -691 0
-592 -623 -692 0
-592 -623 -693 0
-592 -623 -694 0
-592 -624 -670 0
-592 -624 -671 0
-592 -624 -672 0
-592 -624 -673 0
-592 -624 -674 0
-592 -624 -675 0
-592 -624 -676 0
-592 -624 -677 0
-592 -624 -678 0
-592 -624 -679 0
-592 -624 -680 0
-592 -624 -681 0
-592 -624 -682 0
-592 -624 -683 0
-592 -624 -684 0
-592 -624 -685 0
-592 -624 -686 0
-592 -624 -687 0
-592 -624 -688 0
-592 -624 -689 0
-592 -624 -690 0
-592 -624 -691 0
-592 -624 -692 0
-592 -624 -693 0
-592 -624 -694 0
-592 -625 -670 0
-592 -625 -671 0
-592 -625 -672 0
-592 -625 -673 0
-592 -625 -674 0
-592 -625 -675 0
-592 -625 -676 0
-592 -625 -677 0
-592 -625 -678 0
-592 -625 -679 0
-592 -625 -680 0
-592 -625 -681 0
-592 -625 -682 0
-592 -625 -683 0
-592 -625 -684 0
-592 -625 -685 0
-592 -625 -686 0
-592 -625 -687 0
-592 -625 -688 0
-592 -625 -689 0
-592 -625 -690 0
-592 -625 -691 0
-592 -625 -692 0
-592 -625 -693 0
-592 -625 -694 0
-592 -626 -670 0
-592 -626 -671 0
-592 -626 -672 0
-592 -626 -673 0
-592 -626 -674 0
-592 -626 -675 0
-592 -626 -676 0
-592 -626 -677 0
-592 -626 -678 0
-592 -626 -679 0
-592 -626 -680 0
-592 -626 -681 0
-592 -626 -682 0
-592 -626 -683 0
-592 -626 -684 0
-592 -626 -685 0
-592 -626 -686 0
-592 -626 -687 0
-592 -626 -688 0
-592 -626 -689 0
-592 -626 -690 0
-592 -626 -691 0
-592 -626 -692 0
-592 -626 -693 0
-592 -626 -694 0
-592 -627 -670 0
-592 -627 -671 0
-592 -627 -672 0
-592 -627 -673 0
-592 -627 -674 0
-592 -627 -675 0
-592 -627 -676 0
-592 -627 -677 0
-592 -627 -678 0
-592 -627 -679 0
-592 -627 -680 0
-592 -627 -681 0
-592 -627 -682 0
-592 -627 -683 0
-592 -627 -684 0
-592 -627 -685 0
-592 -627 -686 0
-592 -627 -687 0
-592 -627 -688 0
-592 -627 -689 0
-592 -627 -690 0
-592 -627 -691 0
-592 -627 -692 0
-592 -627 -693 0
-592 -627 -694 0
-592 -628 -670 0
-592 -628 -671 0
-592 -628 -672 0
-592 -628 -673 0
-592 -628 -674 0
-592 -628 -675 0
-592 -628 -676 0
-592 -628 -677 0
-592 -628 -678 0
-592 -628 -679 0
-592 -628 -680 0
-592 -628 -681 0
-592 -628 -682 0
-592 -628 -683 0
-592 -628 -684 0
-592 -628 -685 0
-592 -628 -686 0
-592 -628 -687 0
-592 -628 -688 0
-592 -628 -689 0
-592 -628 -690 0
-592 -628 -691 0
-592 -628 -692 0
-592 -628 -693 0
-592 -628 -694 0
-592 -629 -670 0
-592 -629 -671 0
-592 -629 -672 0
-592 -629 -673 0
-592 -629 -674 0
-592 -629 -675 0
-592 -629 -676 0
-592 -629 -677 0
-592 -629 -678 0
-592 -629 -679 0
-592 -629 -680 0
-592 -629 -681 0
-592 -629 -682 0
-592 -629 -683 0
-592 -629 -684 0
-592 -629 -685 0
-592 -629 -686 0
-592 -629 -687 0
-592 -629 -688 0
-592 -629 -689 0
-592 -629 -690 0
-592 -629 -691 0
-592 -629 -692 0
-592 -629 -693 0
-592 -629 -694 0
-592 -630 -670 0
-592 -630 -671 0
-592 -630 -672 0
-592 -630 -673 0
-592 -630 -674 0
-592 -630 -675 0
-592 -630 -676 0
-592 -630 -677 0
-592 -630 -678 0
-592 -630 -679 0
-592 -630 -680 0
-592 -630 -681 0
-592 -630 -682 0
-592 -630 -683 0
-592 -630 -684 0
-592 -630 -685 0
-592 -630 -686 0
-592 -630 -687 0
-592 -630 -688 0
-592 -630 -689 0
-592 -630 -690 0
-592 -630 -691 0
-592 -630 -692 0
-592 -630 -693 0
-592 -630 -694 0
-592 -631 -670 0
-592 -631 -671 0
-592 -631 -672 0
-592 -631 -673 0
-592 -631 -674 0
-592 -631 -675 0
-592 -631 -676 0
-592 -631 -677 0
-592 -631 -678 0
-592 -631 -679 0
-592 -631 -680 0
-592 -631 -681 0
-592 -631 -682 0
-592 -631 -683 0
-592 -631 -684 0
-592 -631 -685 0
-592 -631 -686 0
-592 -631 -687 0
-592 -631 -688 0
-592 -631 -689 0
-592 -631 -690 0
-592 -631 -691 0
-592 -631 -692 0
-592 -631 -693 0
-592 -631 -694 0
-592 -632 -670 0
-592 -632 -671 0
-592 -632 -672 0
-592 -632 -673 0
-592 -632 -674 0
-592 -632 -675 0
-592 -632 -676 0
-592 -632 -677 0
-592 -632 -678 0
-592 -632 -679 0
-592 -632 -680 0
-592 -632 -681 0
-592 -632 -682 0
-592 -632 -683 0
-592 -632 -684 0
-592 -632 -685 0
-592 -632 -686 0
-592 -632 -687 0
-592 -632 -688 0
-592 -632 -689 0
-592 -632 -690 0
-592 -632 -691 0
-592 -632 -692 0
-592 -632 -693 0
-592 -632 -694 0
-592 -633 -670 0
-592 -633 -671 0
-592 -633 -672 0
-592 -633 -673 0
-592 -633 -674 0
-592 -633 -675 0
-592 -633 -676 0
-592 -633 -677 0
-592 -633 -678 0
-592 -633 -679 0
-592 -633 -680 0
-592 -633 -681 0
-592 -633 -682 0
-592 -633 -683 0
-592 -633 -684 0
-592 -633 -685 0
-592 -633 -686 0
-592 -633 -687 0
-592 -633 -688 0
-592 -633 -689 0
-592 -633 -690 0
-592 -633 -691 0
-592 -633 -692 0
-592 -633 -693 0
-592 -633 -694 0
-592 -634 -670 0
-592 -634 -671 0
-592 -634 -672 0
-592 -634 -673 0
-592 -634 -674 0
-592 -634 -675 0
-592 -634 -676 0
-592 -634 -677 0
-592 -634 -678 0
-592 -634 -679 0
-592 -634 -680 0
-592 -634 -681 0
-592 -634 -682 0
-592 -634 -683 0
-592 -634 -684 0
-592 -634 -685 0
-592 -634 -686 0
-592 -634 -687 0
-592 -634 -688 0
-592 -634 -689 0
-592 -634 -690 0
-592 -634 -691 0
-592 -634 -692 0
-592 -634 -693 0
-592 -634 -694 0
-592 -635 -670 0
-592 -635 -671 0
-592 -635 -672 0
-592 -635 -673 0
-592 -635 -674 0
-592 -635 -675 0
-592 -635 -676 0
-592 -635 -677 0
-592 -635 -678 0
-592 -635 -679 0
-592 -635 -680 0
-592 -635 -681 0
-592 -635 -682 0
-592 -635 -683 0
-592 -635 -684 0
-592 -635 -685 0
-592 -635 -686 0
-592 -635 -687 0
-592 -635 -688 0
-592 -635 -689 0
-592 -635 -690 0
-592 -635 -691 0
-592 -635 -692 0
-592 -635 -693 0
-592 -635 -694 0
-592 -636 -670 0
-592 -636 -671 0
-592 -636 -672 0
-592 -636 -673 0
-592 -636 -674 0
-592 -636 -675 0
-592 -636 -676 0
-592 -636 -677 0
-592 -636 -678 0
-592 -636 -679 0
-592 -636 -680 0
-592 -636 -681 0
-592 -636 -682 0
-592 -636 -683 0
-592 -636 -684 0
-592 -636 -685 0
-592 -636 -686 0
-592 -636 -687 0
-592 -636 -688 0
-592 -636 -689 0
-592 -636 -690 0
-592 -636 -691 0
-592 -636 -692 0
-592 -636 -693 0
-592 -636 -694 0
-592 -637 -670 0
-592 -637 -671 0
-592 -637 -672 0
-592 -637 -673 0
-592 -637 -674 0
-592 -637 -675 0
-592 -637 -676 0
-592 -637 -677 0
-592 -637 -678 0
-592 -637 -679 0
-592 -637 -680 0
-592 -637 -681 0
-592 -637 -682 0
-592 -637 -683 0
-592 -637 -684 0
-592 -637 -685 0
-592 -637 -686 0
-592 -637 -687 0
-592 -637 -688 0
-592 -637 -689 0
-592 -637 -690 0
-592 -637 -691 0
-592 -637 -692 0
-592 -637 -693 0
-592 -637 -694 0
-592 -638 -670 0
-592 -638 -671 0
-592 -638 -672 0
-592 -638 -673 0
-592 -638 -674 0
-592 -638 -675 0
-592 -638 -676 0
-592 -638 -677 0
-592 -638 -678 0
-592 -638 -679 0
-592 -638 -680 0
-592 -638 -681 0
-592 -638 -682 0
-592 -638 -683 0
-592 -638 -684 0
-592 -638 -685 0
-592 -638 -686 0
-592 -638 -687 0
-592 -638 -688 0
-592 -638 -689 0
-592 -638 -690 0
-592 -638 -691 0
-592 -638 -692 0
-592 -638 -693 0
-592 -638 -694 0
-592 -639 -670 0
-592 -639 -671 0
-592 -639 -672 0
-592 -639 -673 0
-592 -639 -674 0
-592 -639 -675 0
-592 -639 -676 0
-592 -639 -677 0
-592 -639 -678 0
-592 -639 -679 0
-592 -639 -680 0
-592 -639 -681 0
-592 -639 -682 0
-592 -639 -683 0
-592 -639 -684 0
-592 -639 -685 0
-592 -639 -686 0
-592 -639 -687 0
-592 -639 -688 0
-592 -639 -689 0
-592 -639 -690 0
-592 -639 -691 0
-592 -639 -692 0
-592 -639 -693 0
-592 -639 -694 0
-592 -640 -670 0
-592 -640 -671 0
-592 -640 -672 0
-592 -640 -673 0
-592 -640 -674 0
-592 -640 -675 0
-592 -640 -676 0
-592 -640 -677 0
-592 -640 -678 0
-592 -640 -679 0
-592 -640 -680 0
-592 -640 -681 0
-592 -640 -682 0
-592 -640 -683 0
-592 -640 -684 0
-592 -640 -685 0
-592 -640 -686 0
-592 -640 -687 0
-592 -640 -688 0
-592 -640 -689 0
-592 -640 -690 0
-592 -640 -691 0
-592 -640 -692 0
-592 -640 -693 0
-592 -640 -694 0
-592 -641 -670 0
-592 -641 -671 0
-592 -641 -672 0
-592 -641 -673 0
-592 -641 -674 0
-592 -641 -675 0
-592 -641 -676 0
-592 -641 -677 0
-592 -641 -678 0
-592 -641 -679 0
-592 -641 -680 0
-592 -641 -681 0
-592 -641 -682 0
-592 -641 -683 0
-592 -641 -684 0
-592 -641 -685 0
-592 -641 -686 0
-592 -641 -687 0
-592 -641 -688 0
-592 -641 -689 0
-592 -641 -690 0
-592 -641 -691 0
-592 -641 -692 0
-592 -641 -693 0
-592 -641 -694 0
-592 -642 -670 0
-592 -642 -671 0
-592 -642 -672 0
-592 -642 -673 0
-592 -642 -674 0
-592 -642 -675 0
-592 -642 -676 0
-592 -642 -677 0
-592 -642 -678 0
-592 -642 -679 0
-592 -642 -680 0
-592 -642 -681 0
-592 -642 -682 0
-592 -642 -683 0
-592 -642 -684 0
-592 -642 -685 0
-592 -642 -686 0
-592 -642 -687 0
-592 -642 -688 0
-592 -642 -689 0
-592 -642 -690 0
-592 -642 -691 0
-592 -642 -692 0
-592 -642 -693 0
-592 -642 -694 0
-592 -643 -670 0
-592 -643 -671 0
-592 -643 -672 0
-592 -643 -673 0
-592 -643 -674 0
-592 -643 -675 0
-592 -643 -676 0
-592 -643 -677 0
-592 -643 -678 0
-592 -643 -679 0
-592 -643 -680 0
-592 -643 -681 0
-592 -643 -682 0
-592 -643 -683 0
-592 -643 -684 0
-592 -643 -685 0
-592 -643 -686 0
-592 -643 -687 0
-592 -643 -688 0
-592 -643 -689 0
-592 -643 -690 0
-592 -643 -691 0
-592 -643 -692 0
-592 -643 -693 0
-592 -643 -694 0
-592 -644 -670 0
-592 -644 -671 0
-592 -644 -672 0
-592 -644 -673 0
-592 -644 -674 0
-592 -644 -675 0
-592 -644 -676 0
-592 -644 -677 0
-592 -644 -678 0
-592 -644 -679 0
-592 -644 -680 0
-592 -644 -681 0
-592 -644 -682 0
-592 -644 -683 0
-592 -644 -684 0
-592 -644 -685 0
-592 -644 -686 0
-592 -644 -687 0
-592 -644 -688 0
-592 -644 -689 0
-592 -644 -690 0
-592 -644 -691 0
-592 -644 -692 0
-592 -644 -693 0
-592 -644 -694 0
-593 -620 -670 0
-593 -620 -671 0
-593 -620 -672 0
-593 -620 -673 0
-593 -620 -674 0
-593 -620 -675 0
-593 -620 -676 0
-593 -620 -677 0
-593 -620 -678 0
-593 -620 -679 0
-593 -620 -680 0
-593 -620 -681 0
-593 -620 -682 0
-593 -620 -683 0
-593 -620 -684 0
-593 -620 -685 0
-593 -620 -686 0
-593 -620 -687 0
-593 -620 -688 0
-593 -620 -689 0
-593 -620 -690 0
-593 -620 -691 0
-593 -620 -692 0
-593 -620 -693 0
-593 -620 -694 0
-593 -621 -670 0
-593 -621 -671 0
-593 -621 -672 0
-593 -621 -673 0
-593 -621 -674 0
-593 -621 -675 0
-593 -621 -676 0
-593 -621 -677 0
-593 -621 -678 0
-593 -621 -679 0
-593 -621 -680 0
-593 -621 -681 0
-593 -621 -682 0
-593 -621 -683 0
-593 -621 -684 0
-593 -621 -685 0
-593 -621 -686 0
-593 -621 -687 0
-593 -621 -688 0
-593 -621 -689 0
-593 -621 -690 0
-593 -621 -691 0
-593 -621 -692 0
-593 -621 -693 0
-593 -621 -694 0
-593 -622 -670 0
-593 -622 -671 0
-593 -622 -672 0
-593 -622 -673 0
-593 -622 -674 0
-593 -622 -675 0
-593 -622 -676 0
-593 -622 -677 0
-593 -622 -678 0
-593 -622 -679 0
-593 -622 -680 0
-593 -622 -681 0
-593 -622 -682 0
-593 -622 -683 0
-593 -622 -684 0
-593 -622 -685 0
-593 -622 -686 0
-593 -622 -687 0
-593 -622 -688 0
-593 -622 -689 0
-593 -622 -690 0
-593 -622 -691 0
-593 -622 -692 0
-593 -622 -693 0
-593 -622 -694 0
-593 -623 -670 0
-593 -623 -671 0
-593 -623 -672 0
-593 -623 -673 0
-593 -623 -674 0
-593 -623 -675 0
-593 -623 -676 0
-593 -623 -677 0
-593 -623 -678 0
-593 -623 -679 0
-593 -623 -680 0
-593 -623 -681 0
-593 -623 -682 0
-593 -623 -683 0
-593 -623 -684 0
-593 -623 -685 0
-593 -623 -686 0
-593 -623 -687 0
-593 -623 -688 0
-593 -623 -689 0
-593 -623 -690 0
-593 -623 -691 0
-593 -623 -692 0
-593 -623 -693 0
-593 -623 -694 0
-593 -624 -670 0
-593 -624 -671 0
-593 -624 -672 0
-593 -624 -673 0
-593 -624 -674 0
-593 -624 -675 0
-593 -624 -676 0
-593 -624 -677 0
-593 -624 -678 0
-593 -624 -679 0
-593 -624 -680 0
-593 -624 -681 0
-593 -624 -682 0
-593 -624 -683 0
-593 -624 -684 0
-593 -624 -685 0
-593 -624 -686 0
-593 -624 -687 0
-593 -624 -688 0
-593 -624 -689 0
-593 -624 -690 0
-593 -624 -691 0
-593 -624 -692 0
-593 -624 -693 0
-593 -624 -694 0
-593 -625 -670 0
-593 -625 -671 0
-593 -625 -672 0
-593 -625 -673 0
-593 -625 -674 0
-593 -625 -675 0
-593 -625 -676 0
-593 -625 -677 0
-593 -625 -678 0
-593 -625 -679 0
-593 -625 -680 0
-593 -625 -681 0
-593 -625 -682 0
-593 -625 -683 0
-593 -625 -684 0
-593 -625 -685 0
-593 -625 -686 0
-593 -625 -687 0
-593 -625 -688 0
-593 -625 -689 0
-593 -625 -690 0
-593 -625 -691 0
-593 -625 -692 0
-593 -625 -693 0
-593 -625 -694 0
-593 -626 -670 0
-593 -626 -671 0
-593 -626 -672 0
-593 -626 -673 0
-593 -626 -674 0
-593 -626 -675 0
-593 -626 -676 0
-593 -626 -677 0
-593 -626 -678 0
-593 -626 -679 0
-593 -626 -680 0
-593 -626 -681 0
-593 -626 -682 0
-593 -626 -683 0
-593 -626 -684 0
-593 -626 -685 0
-593 -626 -686 0
-593 -626 -687 0
-593 -626 -688 0
-593 -626 -689 0
-593 -626 -690 0
-593 -626 -691 0
-593 -626 -692 0
-593 -626 -693 0
-593 -626 -694 0
-593 -627 -670 0
-593 -627 -671 0
-593 -627 -672 0
-593 -627 -673 0
-593 -627 -674 0
-593 -627 -675 0
-593 -627 -676 0
-593 -627 -677 0
-593 -627 -678 0
-593 -627 -679 0
-593 -627 -680 0
-593 -627 -681 0
-593 -627 -682 0
-593 -627 -683 0
-593 -627 -684 0
-593 -627 -685 0
-593 -627 -686 0
-593 -627 -687 0
-593 -627 -688 0
-593 -627 -689 0
-593 -627 -690 0
-593 -627 -691 0
-593 -627 -692 0
-593 -627 -693 0
-593 -627 -694 0
-593 -628 -670 0
-593 -628 -671 0
-593 -628 -672 0
-593 -628 -673 0
-593 -628 -674 0
-593 -628 -675 0
-593 -628 -676 0
-593 -628 -677 0
-593 -628 -678 0
-593 -628 -679 0
-593 -628 -680 0
-593 -628 -681 0
-593 -628 -682 0
-593 -628 -683 0
-593 -628 -684 0
-593 -628 -685 0
-593 -628 -686 0
-593 -628 -687 0
-593 -628 -688 0
-593 -628 -689 0
-593 -628 -690 0
-593 -628 -691 0
-593 -628 -692 0
-593 -628 -693 0
-593 -628 -694 0
-593 -629 -670 0
-593 -629 -671 0
-593 -629 -672 0
-593 -629 -673 0
-593 -629 -674 0
-593 -629 -675 0
-593 -629 -676 0
-593 -629 -677 0
-593 -629 -678 0
-593 -629 -679 0
-593 -629 -680 0
-593 -629 -681 0
-593 -629 -682 0
-593 -629 -683 0
-593 -629 -684 0
-593 -629 -685 0
-593 -629 -686 0
-593 -629 -687 0
-593 -629 -688 0
-593 -629 -689 0
-593 -629 -690 0
-593 -629 -691 0
-593 -629 -692 0
-593 -629 -693 0
-593 -629 -694 0
-593 -630 -670 0
-593 -630 -671 0
-593 -630 -672 0
-593 -630 -673 0
-593 -630 -674 0
-593 -630 -675 0
-593 -630 -676 0
-593 -630 -677 0
-593 -630 -678 0
-593 -630 -679 0
-593 -630 -680 0
-593 -630 -681 0
-593 -630 -682 0
-593 -630 -683 0
-593 -630 -684 0
-593 -630 -685 0
-593 -630 -686 0
-593 -630 -687 0
-593 -630 -688 0
-593 -630 -689 0
-593 -630 -690 0
-593 -630 -691 0
-593 -630 -692 0
-593 -630 -693 0
-593 -630 -694 0
-593 -631 -670 0
-593 -631 -671 0
-593 -631 -672 0
-593 -631 -673 0
-593 -631 -674 0
-593 -631 -675 0
-593 -631 -676 0
-593 -631 -677 0
-593 -631 -678 0
-593 -631 -679 0
-593 -631 -680 0
-593 -631 -681 0
-593 -631 -682 0
-593 -631 -683 0
-593 -631 -684 0
-593 -631 -685 0
-593 -631 -686 0
-593 -631 -687 0
-593 -631 -688 0
-593 -631 -689 0
-593 -631 -690 0
-593 -631 -691 0
-593 -631 -692 0
-593 -631 -693 0
-593 -631 -694 0
-593 -632 -670 0
-593 -632 -671 0
-593 -632 -672 0
-593 -632 -673 0
-593 -632 -674 0
-593 -632 -675 0
-593 -632 -676 0
-593 -632 -677 0
-593 -632 -678 0
-593 -632 -679 0
-593 -632 -680 0
-593 -632 -681 0
-593 -632 -682 0
-593 -632 -683 0
-593 -632 -684 0
-593 -632 -685 0
-593 -632 -686 0
-593 -632 -687 0
-593 -632 -688 0
-593 -632 -689 0
-593 -632 -690 0
-593 -632 -691 0
-593 -632 -692 0
-593 -632 -693 0
-593 -632 -694 0
-593 -633 -670 0
-593 -633 -671 0
-593 -633 -672 0
-593 -633 -673 0
-593 -633 -674 0
-593 -633 -675 0
-593 -633 -676 0
-593 -633 -677 0
-593 -633 -678 0
-593 -633 -679 0
-593 -633 -680 0
-593 -633 -681 0
-593 -633 -682 0
-593 -633 -683 0
-593 -633 -684 0
-593 -633 -685 0
-593 -633 -686 0
-593 -633 -687 0
-593 -633 -688 0
-593 -633 -689 0
-593 -633 -690 0
-593 -633 -691 0
-593 -633 -692 0
-593 -633 -693 0
-593 -633 -694 0
-593 -634 -670 0
-593 -634 -671 0
-593 -634 -672 0
-593 -634 -673 0
-593 -634 -674 0
-593 -634 -675 0
-593 -634 -676 0
-593 -634 -677 0
-593 -634 -678 0
-593 -634 -679 0
-593 -634 -680 0
-593 -634 -681 0
-593 -634 -682 0
-593 -634 -683 0
-593 -634 -684 0
-593 -634 -685 0
-593 -634 -686 0
-593 -634 -687 0
-593 -634 -688 0
-593 -634 -689 0
-593 -634 -690 0
-593 -634 -691 0
-593 -634 -692 0
-593 -634 -693 0
-593 -634 -694 0
-593 -635 -670 0
-593 -635 -671 0
-593 -635 -672 0
-593 -635 -673 0
-593 -635 -674 0
-593 -635 -675 0
-593 -635 -676 0
-593 -635 -677 0
-593 -635 -678 0
-593 -635 -679 0
-593 -635 -680 0
-593 -635 -681 0
-593 -635 -682 0
-593 -635 -683 0
-593 -635 -684 0
-593 -635 -685 0
-593 -635 -686 0
-593 -635 -687 0
-593 -635 -688 0
-593 -635 -689 0
-593 -635 -690 0
-593 -635 -691 0
-593 -635 -692 0
-593 -635 -693 0
-593 -635 -694 0
-593 -636 -670 0
-593 -636 -671 0
-593 -636 -672 0
-593 -636 -673 0
-593 -636 -674 0
-593 -636 -675 0
-593 -636 -676 0
-593 -636 -677 0
-593 -636 -678 0
-593 -636 -679 0
-593 -636 -680 0
-593 -636 -681 0
-593 -636 -682 0
-593 -636 -683 0
-593 -636 -684 0
-593 -636 -685 0
-593 -636 -686 0
-593 -636 -687 0
-593 -636 -688 0
-593 -636 -689 0
-593 -636 -690 0
-593 -636 -691 0
-593 -636 -692 0
-593 -636 -693 0
-593 -636 -694 0
-593 -637 -670 0
-593 -637 -671 0
-593 -637 -672 0
-593 -637 -673 0
-593 -637 -674 0
-593 -637 -675 0
-593 -637 -676 0
-593 -637 -677 0
-593 -637 -678 0
-593 -637 -679 0
-593 -637 -680 0
-593 -637 -681 0
-593 -637 -682 0
-593 -637 -683 0
-593 -637 -684 0
-593 -637 -685 0
-593 -637 -686 0
-593 -637 -687 0
-593 -637 -688 0
-593 -637 -689 0
-593 -637 -690 0
-593 -637 -691 0
-593 -637 -692 0
-593 -637 -693 0
-593 -637 -694 0
-593 -638 -670 0
-593 -638 -671 0
-593 -638 -672 0
-593 -638 -673 0
-593 -638 -674 0
-593 -638 -675 0
-593 -638 -676 0
-593 -638 -677 0
-593 -638 -678 0
-593 -638 -679 0
-593 -638 -680 0
-593 -638 -681 0
-593 -638 -682 0
-593 -638 -683 0
-593 -638 -684 0
-593 -638 -685 0
-593 -638 -686 0
-593 -638 -687 0
-593 -638 -688 0
-593 -638 -689 0
-593 -638 -690 0
-593 -638 -691 0
-593 -638 -692 0
-593 -638 -693 0
-593 -638 -694 0
-593 -639 -670 0
-593 -639 -671 0
-593 -639 -672 0
-593 -639 -673 0
-593 -639 -674 0
-593 -639 -675 0
-593 -639 -676 0
-593 -639 -677 0
-593 -639 -678 0
-593 -639 -679 0
-593 -639 -680 0
-593 -639 -681 0
-593 -639 -682 0
-593 -639 -683 0
-593 -639 -684 0
-593 -639 -685 0
-593 -639 -686 0
-593 -639 -687 0
-593 -639 -688 0
-593 -639 -689 0
-593 -639 -690 0
-593 -639 -691 0
-593 -639 -692 0
-593 -639 -693 0
-593 -639 -694 0
-593 -640 -670 0
-593 -640 -671 0
-593 -640 -672 0
-593 -640 -673 0
-593 -640 -674 0
-593 -640 -675 0
-593 -640 -676 0
-593 -640 -677 0
-593 -640 -678 0
-593 -640 -679 0
-593 -640 -680 0
-593 -640 -681 0
-593 -640 -682 0
-593 -640 -683 0
-593 -640 -684 0
-593 -640 -685 0
-593 -640 -686 0
-593 -640 -687 0
-593 -640 -688 0
-593 -640 -689 0
-593 -640 -690 0
-593 -640 -691 0
-593 -640 -692 0
-593 -640 -693 0
-593 -640 -694 0
-593 -641 -670 0
-593 -641 -671 0
-593 -641 -672 0
-593 -641 -673 0
-593 -641 -674 0
-593 -641 -675 0
-593 -641 -676 0
-593 -641 -677 0
-593 -641 -678 0
-593 -641 -679 0
-593 -641 -680 0
-593 -641 -681 0
-593 -641 -682 0
-593 -641 -683 0
-593 -641 -684 0
-593 -641 -685 0
-593 -641 -686 0
-593 -641 -687 0
-593 -641 -688 0
-593 -641 -689 0
-593 -641 -690 0
-593 -641 -691 0
-593 -641 -692 0
-593 -641 -693 0
-593 -641 -694 0
-593 -642 -670 0
-593 -642 -671 0
-593 -642 -672 0
-593 -642 -673 0
-593 -642 -674 0
-593 -642 -675 0
-593 -642 -676 0
-593 -642 -677 0
-593 -642 -678 0
-593 -642 -679 0
-593 -642 -680 0
-593 -642 -681 0
-593 -642 -682 0
-593 -642 -683 0
-593 -642 -684 0
-593 -642 -685 0
-593 -642 -686 0
-593 -642 -687 0
-593 -642 -688 0
-593 -642 -689 0
-593 -642 -690 0
-593 -642 -691 0
-593 -642 -692 0
-593 -642 -693 0
-593 -642 -694 0
-593 -643 -670 0
-593 -643 -671 0
-593 -643 -672 0
-593 -643 -673 0
-593 -643 -674 0
-593 -643 -675 0
-593 -643 -676 0
-593 -643 -677 0
-593 -643 -678 0
-593 -643 -679 0
-593 -643 -680 0
-593 -643 -681 0
-593 -643 -682 0
-593 -643 -683 0
-593 -643 -684 0
-593 -643 -685 0
-593 -643 -686 0
-593 -643 -687 0
-593 -643 -688 0
-593 -643 -689 0
-593 -643 -690 0
-593 -643 -691 0
-593 -643 -692 0
-593 -643 -693 0
-593 -643 -694 0
-593 -644 -670 0
-593 -644 -671 0
-593 -644 -672 0
-593 -644 -673 0
-593 -644 -674 0
-593 -644 -675 0
-593 -644 -676 0
-593 -644 -677 0
-593 -644 -678 0
-593 -644 -679 0
-593 -644 -680 0
-593 -644 -681 0
-593 -644 -682 0
-593 -644 -683 0
-593 -644 -684 0
-593 -644 -685 0
-593 -644 -686 0
-593 -644 -687 0
-593 -644 -688 0
-593 -644 -689 0
-593 -644 -690 0
-593 -644 -691 0
-593 -644 -692 0
-593 -644 -693 0
-593 -644 -694 0
-594 -620 -670 0
-594 -620 -671 0
-594 -620 -672 0
-594 -620 -673 0
-594 -620 -674 0
-594 -620 -675 0
-594 -620 -676 0
-594 -620 -677 0
-594 -620 -678 0
-594 -620 -679 0
-594 -620 -680 0
-594 -620 -681 0
-594 -620 -682 0
-594 -620 -683 0
-594 -620 -684 0
-594 -620 -685 0
-594 -620 -686 0
-594 -620 -687 0
-594 -620 -688 0
-594 -620 -689 0
-594 -620 -690 0
-594 -620 -691 0
-594 -620 -692 0
-594 -620 -693 0
-594 -620 -694 0
-594 -621 -670 0
-594 -621 -671 0
-594 -621 -672 0
-594 -621 -673 0
-594 -621 -674 0
-594 -621 -675 0
-594 -621 -676 0
-594 -621 -677 0
-594 -621 -678 0
-594 -621 -679 0
-594 -621 -680 0
-594 -621 -681 0
-594 -621 -682 0
-594 -621 -683 0
-594 -621 -684 0
-594 -621 -685 0
-594 -621 -686 0
-594 -621 -687 0
-594 -621 -688 0
-594 -621 -689 0
-594 -621 -690 0
-594 -621 -691 0
-594 -621 -692 0
-594 -621 -693 0
-594 -621 -694 0
-594 -622 -670 0
-594 -622 -671 0
-594 -622 -672 0
-594 -622 -673 0
-594 -622 -674 0
-594 -622 -675 0
-594 -622 -676 0
-594 -622 -677 0
-594 -622 -678 0
-594 -622 -679 0
-594 -622 -680 0
-594 -622 -681 0
-594 -622 -682 0
-594 -622 -683 0
-594 -622 -684 0
-594 -622 -685 0
-594 -622 -686 0
-594 -622 -687 0
-594 -622 -688 0
-594 -622 -689 0
-594 -622 -690 0
-594 -622 -691 0
-594 -622 -692 0
-594 -622 -693 0
-594 -622 -694 0
-594 -623 -670 0
-594 -623 -671 0
-594 -623 -672 0
-594 -623 -673 0
-594 -623 -674 0
-594 -623 -675 0
-594 -623 -676 0
-594 -623 -677 0
-594 -623 -678 0
-594 -623 -679 0
-594 -623 -680 0
-594 -623 -681 0
-594 -623 -682 0
-594 -623 -683 0
-594 -623 -684 0
-594 -623 -685 0
-594 -623 -686 0
-594 -623 -687 0
-594 -623 -688 0
-594 -623 -689 0
-594 -623 -690 0
-594 -623 -691 0
-594 -623 -692 0
-594 -623 -693 0
-594 -623 -694 0
-594 -624 -670 0
-594 -624 -671 0
-594 -624 -672 0
-594 -624 -673 0
-594 -624 -674 0
-594 -624 -675 0
-594 -624 -676 0
-594 -624 -677 0
-594 -624 -678 0
-594 -624 -679 0
-594 -624 -680 0
-594 -624 -681 0
-594 -624 -682 0
-594 -624 -683 0
-594 -624 -684 0
-594 -624 -685 0
-594 -624 -686 0
-594 -624 -687 0
-594 -624 -688 0
-594 -624 -689 0
-594 -624 -690 0
-594 -624 -691 0
-594 -624 -692 0
-594 -624 -693 0
-594 -624 -694 0
-594 -625 -670 0
-594 -625 -671 0
-594 -625 -672 0
-594 -625 -673 0
-594 -625 -674 0
-594 -625 -675 0
-594 -625 -676 0
-594 -625 -677 0
-594 -625 -678 0
-594 -625 -679 0
-594 -625 -680 0
-594 -625 -681 0
-594 -625 -682 0
-594 -625 -683 0
-594 -625 -684 0
-594 -625 -685 0
-594 -625 -686 0
-594 -625 -687 0
-594 -625 -688 0
-594 -625 -689 0
-594 -625 -690 0
-594 -625 -691 0
-594 -625 -692 0
-594 -625 -693 0
-594 -625 -694 0
-594 -626 -670 0
-594 -626 -671 0
-594 -626 -672 0
-594 -626 -673 0
-594 -626 -674 0
-594 -626 -675 0
-594 -626 -676 0
-594 -626 -677 0
-594 -626 -678 0
-594 -626 -679 0
-594 -626 -680 0
-594 -626 -681 0
-594 -626 -682 0
-594 -626 -683 0
-594 -626 -684 0
-594 -626 -685 0
-594 -626 -686 0
-594 -626 -687 0
-594 -626 -688 0
-594 -626 -689 0
-594 -626 -690 0
-594 -626 -691 0
-594 -626 -692 0
-594 -626 -693 0
-594 -626 -694 0
-594 -627 -670 0
-594 -627 -671 0
-594 -627 -672 0
-594 -627 -673 0
-594 -627 -674 0
-594 -627 -675 0
-594 -627 -676 0
-594 -627 -677 0
-594 -627 -678 0
-594 -627 -679 0
-594 -627 -680 0
-594 -627 -681 0
-594 -627 -682 0
-594 -627 -683 0
-594 -627 -684 0
-594 -627 -685 0
-594 -627 -686 0
-594 -627 -687 0
-594 -627 -688 0
-594 -627 -689 0
-594 -627 -690 0
-594 -627 -691 0
-594 -627 -692 0
-594 -627 -693 0
-594 -627 -694 0
-594 -628 -670 0
-594 -628 -671 0
-594 -628 -672 0
-594 -628 -673 0
-594 -628 -674 0
-594 -628 -675 0
-594 -628 -676 0
-594 -628 -677 0
-594 -628 -678 0
-594 -628 -679 0
-594 -628 -680 0
-594 -628 -681 0
-594 -628 -682 0
-594 -628 -683 0
-594 -628 -684 0
-594 -628 -685 0
-594 -628 -686 0
-594 -628 -687 0
-594 -628 -688 0
-594 -628 -689 0
-594 -628 -690 0
-594 -628 -691 0
-594 -628 -692 0
-594 -628 -693 0
-594 -628 -694 0
-594 -629 -670 0
-594 -629 -671 0
-594 -629 -672 0
-594 -629 -673 0
-594 -629 -674 0
-594 -629 -675 0
-594 -629 -676 0
-594 -629 -677 0
-594 -629 -678 0
-594 -629 -679 0
-594 -629 -680 0
-594 -629 -681 0
-594 -629 -682 0
-594 -629 -683 0
-594 -629 -684 0
-594 -629 -685 0
-594 -629 -686 0
-594 -629 -687 0
-594 -629 -688 0
-594 -629 -689 0
-594 -629 -690 0
-594 -629 -691 0
-594 -629 -692 0
-594 -629 -693 0
-594 -629 -694 0
-594 -630 -670 0
-594 -630 -671 0
-594 -630 -672 0
-594 -630 -673 0
-594 -630 -674 0
-594 -630 -675 0
-594 -630 -676 0
-594 -630 -677 0
-594 -630 -678 0
-594 -630 -679 0
-594 -630 -680 0
-594 -630 -681 0
-594 -630 -682 0
-594 -630 -683 0
-594 -630 -684 0
-594 -630 -685 0
-594 -630 -686 0
-594 -630 -687 0
-594 -630 -688 0
-594 -630 -689 0
-594 -630 -690 0
-594 -630 -691 0
-594 -630 -692 0
-594 -630 -693 0
-594 -630 -694 0
-594 -631 -670 0
-594 -631 -671 0
-594 -631 -672 0
-594 -631 -673 0
-594 -631 -674 0
-594 -631 -675 0
-594 -631 -676 0
-594 -631 -677 0
-594 -631 -678 0
-594 -631 -679 0
-594 -631 -680 0
-594 -631 -681 0
-594 -631 -682 0
-594 -631 -683 0
-594 -631 -684 0
-594 -631 -685 0
-594 -631 -686 0
-594 -631 -687 0
-594 -631 -688 0
-594 -631 -689 0
-594 -631 -690 0
-594 -631 -691 0
-594 -631 -692 0
-594 -631 -693 0
-594 -631 -694 0
-594 -632 -670 0
-594 -632 -671 0
-594 -632 -672 0
-594 -632 -673 0
-594 -632 -674 0
-594 -632 -675 0
-594 -632 -676 0
-594 -632 -677 0
-594 -632 -678 0
-594 -632 -679 0
-594 -632 -680 0
-594 -632 -681 0
-594 -632 -682 0
-594 -632 -683 0
-594 -632 -684 0
-594 -632 -685 0
-594 -632 -686 0
-594 -632 -687 0
-594 -632 -688 0
-594 -632 -689 0
-594 -632 -690 0
-594 -632 -691 0
-594 -632 -692 0
-594 -632 -693 0
-594 -632 -694 0
-594 -633 -670 0
-594 -633 -671 0
-594 -633 -672 0
-594 -633 -673 0
-594 -633 -674 0
-594 -633 -675 0
-594 -633 -676 0
-594 -633 -677 0
-594 -633 -678 0
-594 -633 -679 0
-594 -633 -680 0
-594 -633 -681 0
-594 -633 -682 0
-594 -633 -683 0
-594 -633 -684 0
-594 -633 -685 0
-594 -633 -686 0
-594 -633 -687 0
-594 -633 -688 0
-594 -633 -689 0
-594 -633 -690 0
-594 -633 -691 0
-594 -633 -692 0
-594 -633 -693 0
-594 -633 -694 0
-594 -634 -670 0
-594 -634 -671 0
-594 -634 -672 0
-594 -634 -673 0
-594 -634 -674 0
-594 -634 -675 0
-594 -634 -676 0
-594 -634 -677 0
-594 -634 -678 0
-594 -634 -679 0
-594 -634 -680 0
-594 -634 -681 0
-594 -634 -682 0
-594 -634 -683 0
-594 -634 -684 0
-594 -634 -685 0
-594 -634 -686 0
-594 -634 -687 0
-594 -634 -688 0
-594 -634 -689 0
-594 -634 -690 0
-594 -634 -691 0
-594 -634 -692 0
-594 -634 -693 0
-594 -634 -694 0
-594 -635 -670 0
-594 -635 -671 0
-594 -635 -672 0
-594 -635 -673 0
-594 -635 -674 0
-594 -635 -675 0
-594 -635 -676 0
-594 -635 -677 0
-594 -635 -678 0
-594 -635 -679 0
-594 -635 -680 0
-594 -635 -681 0
-594 -635 -682 0
-594 -635 -683 0
-594 -635 -684 0
-594 -635 -685 0
-594 -635 -686 0
-594 -635 -687 0
-594 -635 -688 0
-594 -635 -689 0
-594 -635 -690 0
-594 -635 -691 0
-594 -635 -692 0
-594 -635 -693 0
-594 -635 -694 0
-594 -636 -670 0
-594 -636 -671 0
-594 -636 -672 0
-594 -636 -673 0
-594 -636 -674 0
-594 -636 -675 0
-594 -636 -676 0
-594 -636 -677 0
-594 -636 -678 0
-594 -636 -679 0
-594 -636 -680 0
-594 -636 -681 0
-594 -636 -682 0
-594 -636 -683 0
-594 -636 -684 0
-594 -636 -685 0
-594 -636 -686 0
-594 -636 -687 0
-594 -636 -688 0
-594 -636 -689 0
-594 -636 -690 0
-594 -636 -691 0
-594 -636 -692 0
-594 -636 -693 0
-594 -636 -694 0
-594 -637 -670 0
-594 -637 -671 0
-594 -637 -672 0
-594 -637 -673 0
-594 -637 -674 0
-594 -637 -675 0
-594 -637 -676 0
-594 -637 -677 0
-594 -637 -678 0
-594 -637 -679 0
-594 -637 -680 0
-594 -637 -681 0
-594 -637 -682 0
-594 -637 -683 0
-594 -637 -684 0
-594 -637 -685 0
-594 -637 -686 0
-594 -637 -687 0
-594 -637 -688 0
-594 -637 -689 0
-594 -637 -690 0
-594 -637 -691 0
-594 -637 -692 0
-594 -637 -693 0
-594 -637 -694 0
-594 -638 -670 0
-594 -638 -671 0
-594 -638 -672 0
-594 -638 -673 0
-594 -638 -674 0
-594 -638 -675 0
-594 -638 -676 0
-594 -638 -677 0
-594 -638 -678 0
-594 -638 -679 0
-594 -638 -680 0
-594 -638 -681 0
-594 -638 -682 0
-594 -638 -683 0
-594 -638 -684 0
-594 -638 -685 0
-594 -638 -686 0
-594 -638 -687 0
-594 -638 -688 0
-594 -638 -689 0
-594 -638 -690 0
-594 -638 -691 0
-594 -638 -692 0
-594 -638 -693 0
-594 -638 -694 0
-594 -639 -670 0
-594 -639 -671 0
-594 -639 -672 0
-594 -639 -673 0
-594 -639 -674 0
-594 -639 -675 0
-594 -639 -676 0
-594 -639 -677 0
-594 -639 -678 0
-594 -639 -679 0
-594 -639 -680 0
-594 -639 -681 0
-594 -639 -682 0
-594 -639 -683 0
-594 -639 -684 0
-594 -639 -685 0
-594 -639 -686 0
-594 -639 -687 0
-594 -639 -688 0
-594 -639 -689 0
-594 -639 -690 0
-594 -639 -691 0
-594 -639 -692 0
-594 -639 -693 0
-594 -639 -694 0
-594 -640 -670 0
-594 -640 -671 0
-594 -640 -672 0
-594 -640 -673 0
-594 -640 -674 0
-594 -640 -675 0
-594 -640 -676 0
-594 -640 -677 0
-594 -640 -678 0
-594 -640 -679 0
-594 -640 -680 0
-594 -640 -681 0
-594 -640 -682 0
-594 -640 -683 0
-594 -640 -684 0
-594 -640 -685 0
-594 -640 -686 0
-594 -640 -687 0
-594 -640 -688 0
-594 -640 -689 0
-594 -640 -690 0
-594 -640 -691 0
-594 -640 -692 0
-594 -640 -693 0
-594 -640 -694 0
-594 -641 -670 0
-594 -641 -671 0
-594 -641 -672 0
-594 -641 -673 0
-594 -641 -674 0
-594 -641 -675 0
-594 -641 -676 0
-594 -641 -677 0
-594 -641 -678 0
-594 -641 -679 0
-594 -641 -680 0
-594 -641 -681 0
-594 -641 -682 0
-594 -641 -683 0
-594 -641 -684 0
-594 -641 -685 0
-594 -641 -686 0
-594 -641 -687 0
-594 -641 -688 0
-594 -641 -689 0
-594 -641 -690 0
-594 -641 -691 0
-594 -641 -692 0
-594 -641 -693 0
-594 -641 -694 0
-594 -642 -670 0
-594 -642 -671 0
-594 -642 -672 0
-594 -642 -673 0
-594 -642 -674 0
-594 -642 -675 0
-594 -642 -676 0
-594 -642 -677 0
-594 -642 -678 0
-594 -642 -679 0
-594 -642 -680 0
-594 -642 -681 0
-594 -642 -682 0
-594 -642 -683 0
-594 -642 -684 0
-594 -642 -685 0
-594 -642 -686 0
-594 -642 -687 0
-594 -642 -688 0
-594 -642 -689 0
-594 -642 -690 0
-594 -642 -691 0
-594 -642 -692 0
-594 -642 -693 0
-594 -642 -694 0
-594 -643 -670 0
-594 -643 -671 0
-594 -643 -672 0
-594 -643 -673 0
-594 -643 -674 0
-594 -643 -675 0
-594 -643 -676 0
-594 -643 -677 0
-594 -643 -678 0
-594 -643 -679 0
-594 -643 -680 0
-594 -643 -681 0
-594 -643 -682 0
-594 -643 -683 0
-594 -643 -684 0
-594 -643 -685 0
-594 -643 -686 0
-594 -643 -687 0
-594 -643 -688 0
-594 -643 -689 0
-594 -643 -690 0
-594 -643 -691 0
-594 -643 -692 0
-594 -643 -693 0
-594 -643 -694 0
-594 -644 -670 0
-594 -644 -671 0
-594 -644 -672 0
-594 -644 -673 0
-594 -644 -674 0
-594 -644 -675 0
-594 -644 -676 0
-594 -644 -677 0
-594 -644 -678 0
-594 -644 -679 0
-594 -644 -680 0
-594 -644 -681 0
-594 -644 -682 0
-594 -644 -683 0
-594 -644 -684 0
-594 -644 -685 0
-594 -644 -686 0
-594 -644 -687 0
-594 -644 -688 0
-594 -644 -689 0
-594 -644 -690 0
-594 -644 -691 0
-594 -644 -692 0
-594 -644 -693 0
-594 -644 -694 0
-720 0
-721 0
-722 0
-723 0
-724 0
-725 0
-726 0
-727 0
-728 0
-729 0
-730 0
-731 0
-620 0
-621 0
-670 0
-671 0
-672 0
-570 0
-571 0
-572 0
770 771 772 0
-770 -570 0
-770 -571 0
-770 -572 0
-770 -573 0
-771 573 0
-771 -620 0
-771 -621 0
-771 -622 0
-772 573 0
-772 622 0
-772 -670 0
-772 -671 0
-772 -672 0
-772 -673 0
-60 -670 0
-63 -670 0
-66 -670 0
-69 -670 0
-72 -670 0
-60 -63 -671 0
-60 -66 -671 0
-60 -69 -671 0
-60 -72 -671 0
-63 -66 -671 0
-63 -69 -671 0
-63 -72 -671 0
-66 -69 -671 0
-66 -72 -671 0
-69 -72 -671 0
-60 -63 -66 -672 0
-60 -63 -69 -672 0
-60 -63 -72 -672 0
-60 -66 -69 -672 0
-60 -66 -72 -672 0
-60 -69 -72 -672 0
-63 -66 -69 -672 0
-63 -66 -72 -672 0
-63 -69 -72 -672 0
-66 -69 -72 -672 0
-60 -63 -66 -69 -673 0
-60 -63 -66 -72 -673 0
-60 -63 -69 -72 -673 0
-60 -66 -69 -72 -673 0
-63 -66 -69 -72 -673 0
-60 -63 -66 -69 -72 -674 0
-8 773 0
-6 774 0
-773 774 0
-6 -773 0
-4 775 0
-774 775 0
-4 -774 0
-7 776 0
-775 776 0
-7 -775 0
-3 777 0
-5 778 0
-777 778 0
-5 -777 0
-1 779 0
-778 779 0
-1 -778 0
-2 780 0
-779 780 0
-2 -779 0
-12 781 0
-10 782 0
-781 782 0
-10 -781 0
-9 783 0
-782 783 0
-9 -782 0
-11 784 0
-783 784 0
-11 -783 0
-13 785 0
-14 786 0
-785 786 0
-14 -785 0
-8 787 0
-12 788 0
-787 788 0
-12 -787 0
-31 789 0
-35 790 0
-789 790 0
-35 -789 0
-19 791 0
-790 791 0
-19 -790 0
-24 792 0
-791 792 0
-24 -791 0
-6 793 0
-10 794 0
-793 794 0
-10 -793 0
-29 795 0
-33 796 0
-795 796 0
-33 -795 0
-17 797 0
-796 797 0
-17 -796 0
-22 798 0
-797 798 0
-22 -797 0
-4 799 0
-9 800 0
-799 800 0
-9 -799 0
-28 801 0
-32 802 0
-801 802 0
-32 -801 0
-16 803 0
-802 803 0
-16 -802 0
-21 804 0
-803 804 0
-21 -803 0
-7 805 0
-11 806 0
-805 806 0
-11 -805 0
-30 807 0
-34 808 0
-807 808 0
-34 -807 0
-18 809 0
-808 809 0
-18 -808 0
-23 810 0
-809 810 0
-23 -809 0
-27 811 0
-25 812 0
-811 812 0
-25 -811 0
-26 813 0
-812 813 0
-26 -812 0
-15 814 0
-20 815 0
-814 815 0
-20 -814 0
-31 816 0
-29 817 0
-816 817 0
-29 -816 0
-28 818 0
-817 818 0
-28 -817 0
-30 819 0
-818 819 0
-30 -818 0
-35 820 0
-33 821 0
-820 821 0
-33 -820 0
-32 822 0
-821 822 0
-32 -821 0
-34 823 0
-822 823 0
-34 -822 0
-1 824 0
-13 825 0
-824 825 0
-13 -824 0
-19 826 0
-17 827 0
-826 827 0
-17 -826 0
-16 828 0
-827 828 0
-16 -827 0
-18 829 0
-828 829 0
-18 -828 0
-2 830 0
-14 831 0
-830 831 0
-14 -830 0
-24 832 0
-22 833 0
-832 833 0
-22 -832 0
-21 834 0
-833 834 0
-21 -833 0
-23 835 0
-834 835 0
-23 -834 0
-8 -6 0
-8 -4 0
-8 -7 0
-6 -4 0
-6 -7 0
-4 -7 0
-3 -5 0
-3 -1 0
-3 -2 0
-5 -1 0
-5 -2 0
-1 -2 0
-12 -10 0
-12 -9 0
-12 -11 0
-10 -9 0
-10 -11 0
-9 -11 0
-13 -14 0
-8 -12 0
-8 -27 0
-12 -27 0
-12 -31 0
-12 -35 0
-12 -19 0
-12 -24 0
-27 -31 0
-27 -35 0
-31 -35 0
-31 -19 0
-31 -24 0
-35 -19 0
-35 -24 0
-19 -24 0
-6 -10 0
-10 -29 0
-10 -33 0
-10 -17 0
-10 -22 0
-29 -33 0
-29 -17 0
-29 -22 0
-33 -17 0
-33 -22 0
-17 -22 0
-4 -9 0
-4 -25 0
-9 -25 0
-9 -28 0
-9 -32 0
-9 -16 0
-9 -21 0
-25 -28 0
-25 -32 0
-28 -32 0
-28 -16 0
-28 -21 0
-32 -16 0
-32 -21 0
-16 -21 0
-7 -11 0
-7 -26 0
-11 -26 0
-11 -30 0
-11 -34 0
-11 -18 0
-11 -23 0
-26 -30 0
-26 -34 0
-30 -34 0
-30 -18 0
-30 -23 0
-34 -18 0
-34 -23 0
-18 -23 0
-27 -25 0
-27 -26 0
-25 -26 0
-15 -20 0
-31 -29 0
-31 -28 0
-31 -30 0
-29 -28 0
-29 -30 0
-28 -30 0
-35 -33 0
-35 -32 0
-35 -34 0
-33 -32 0
-33 -34 0
-32 -34 0
-1 -13 0
-1 -15 0
-13 -19 0
-13 -17 0
-13 -16 0
-13 -18 0
-13 -15 0
-19 -17 0
-19 -16 0
-19 -18 0
-17 -16 0
-17 -18 0
-17 -15 0
-16 -18 0
-2 -14 0
-2 -20 0
-14 -24 0
-14 -22 0
-14 -21 0
-14 -23 0
-14 -20 0
-24 -22 0
-24 -21 0
-24 -23 0
-22 -21 0
-22 -23 0
-22 -20 0
-21 -23 0
-34 -79 70 0
-34 79 -70 0
-34 -80 71 0
-34 80 -71 0
-34 -81 72 0
-34 81 -72 0
-34 -46 43 0
-34 46 -43 0
-34 -98 95 0
-34 98 -95 0
-34 -111 108 0
-34 111 -108 0
-34 -134 128 0
-34 134 -128 0
-34 -135 129 0
-34 135 -129 0
-34 -428 426 0
-34 428 -426 0
-34 -437 435 0
-34 437 -435 0
-34 -446 444 0
-34 446 -444 0
-34 -455 453 0
-34 455 -453 0
-34 -283 241 0
-34 283 -241 0
-34 -284 242 0
-34 284 -242 0
-34 -285 243 0
-34 285 -243 0
-34 -286 244 0
-34 286 -244 0
-34 -287 245 0
-34 287 -245 0
-34 -288 246 0
-34 288 -246 0
-34 -289 247 0
-34 289 -247 0
-34 -290 248 0
-34 290 -248 0
-34 -291 249 0
-34 291 -249 0
-34 -292 250 0
-34 292 -250 0
-34 -293 251 0
-34 293 -251 0
-34 -294 252 0
-34 294 -252 0
-34 -295 253 0
-34 295 -253 0
-34 -296 254 0
-34 296 -254 0
-34 -195 192 0
-34 195 -192 0
-34 -209 206 0
-34 209 -206 0
-34 -223 220 0
-34 223 -220 0
-34 -237 234 0
-34 237 -234 0
-34 -251 248 0
-34 251 -248 0
-34 -265 262 0
-34 265 -262 0
-34 -279 276 0
-34 279 -276 0
-34 -293 290 0
-34 293 -290 0
-33 -64 79 0
-33 64 -79 0
-33 -65 80 0
-33 65 -80 0
-33 -66 81 0
-33 66 -81 0
-33 -41 46 0
-33 41 -46 0
-33 -93 98 0
-33 93 -98 0
-33 -106 111 0
-33 106 -111 0
-33 -124 134 0
-33 124 -134 0
-33 -125 135 0
-33 125 -135 0
-33 -424 428 0
-33 424 -428 0
-33 -433 437 0
-33 433 -437 0
-33 -442 446 0
-33 442 -446 0
-33 -451 455 0
-33 451 -455 0
-33 -227 283 0
-33 227 -283 0
-33 -228 284 0
-33 228 -284 0
-33 -229 285 0
-33 229 -285 0
-33 -230 286 0
-33 230 -286 0
-33 -231 287 0
-33 231 -287 0
-33 -232 288 0
-33 232 -288 0
-33 -233 289 0
-33 233 -289 0
-33 -234 290 0
-33 234 -290 0
-33 -235 291 0
-33 235 -291 0
-33 -236 292 0
-33 236 -292 0
-33 -237 293 0
-33 237 -293 0
-33 -238 294 0
-33 238 -294 0
-33 -239 295 0
-33 239 -295 0
-33 -240 296 0
-33 240 -296 0
-33 -190 195 0
-33 190 -195 0
-33 -204 209 0
-33 204 -209 0
-33 -218 223 0
-33 218 -223 0
-33 -232 237 0
-33 232 -237 0
-33 -246 251 0
-33 246 -251 0
-33 -260 265 0
-33 260 -265 0
-33 -274 279 0
-33 274 -279 0
-33 -288 293 0
-33 288 -293 0
-7 -70 49 0
-7 70 -49 0
-7 -71 50 0
-7 71 -50 0
-7 -72 51 0
-7 72 -51 0
-7 -43 36 0
-7 43 -36 0
-7 -95 88 0
-7 95 -88 0
-7 -108 101 0
-7 108 -101 0
-7 -128 114 0
-7 128 -114 0
-7 -129 115 0
-7 129 -115 0
-7 -192 185 0
-7 192 -185 0
-7 -206 199 0
-7 206 -199 0
-7 -220 213 0
-7 220 -213 0
-7 -234 227 0
-7 234 -227 0
-7 -248 241 0
-7 248 -241 0
-7 -262 255 0
-7 262 -255 0
-7 -276 269 0
-7 276 -269 0
-7 -290 283 0
-7 290 -283 0
-19 -82 58 0
-19 82 -58 0
-19 -83 59 0
-19 83 -59 0
-19 -84 60 0
-19 84 -60 0
-19 -47 39 0
-19 47 -39 0
-19 -99 91 0
-19 99 -91 0
-19 -112 104 0
-19 112 -104 0
-19 -136 120 0
-19 136 -120 0
-19 -137 121 0
-19 137 -121 0
-19 -429 422 0
-19 429 -422 0
-19 -438 431 0
-19 438 -431 0
-19 -447 440 0
-19 447 -440 0
-19 -456 449 0
-19 456 -449 0
-19 -196 188 0
-19 196 -188 0
-19 -210 202 0
-19 210 -202 0
-19 -224 216 0
-19 224 -216 0
-19 -238 230 0
-19 238 -230 0
-19 -252 244 0
-19 252 -244 0
-19 -266 258 0
-19 266 -258 0
-19 -280 272 0
-19 280 -272 0
-19 -294 286 0
-19 294 -286 0
-4 -49 67 0
-4 49 -67 0
-4 -50 68 0
-4 50 -68 0
-4 -51 69 0
-4 51 -69 0
-4 -36 42 0
-4 36 -42 0
-4 -88 94 0
-4 88 -94 0
-4 -101 107 0
-4 101 -107 0
-4 -114 126 0
-4 114 -126 0
-4 -115 127 0
-4 115 -127 0
-4 -185 191 0
-4 185 -191 0
-4 -199 205 0
-4 199 -205 0
-4 -213 219 0
-4 213 -219 0
-4 -227 233 0
-4 227 -233 0
-4 -241 247 0
-4 241 -247 0
-4 -255 261 0
-4 255 -261 0
-4 -269 275 0
-4 269 -275 0
-4 -283 289 0
-4 283 -289 0
-23 -70 85 0
-23 70 -85 0
-23 -71 86 0
-23 71 -86 0
-23 -72 87 0
-23 72 -87 0
-23 -43 48 0
-23 43 -48 0
-23 -95 100 0
-23 95 -100 0
-23 -108 113 0
-23 108 -113 0
-23 -128 138 0
-23 128 -138 0
-23 -129 139 0
-23 129 -139 0
-23 -426 430 0
-23 426 -430 0
-23 -435 439 0
-23 435 -439 0
-23 -444 448 0
-23 444 -448 0
-23 -453 457 0
-23 453 -457 0
-23 -192 197 0
-23 192 -197 0
-23 -206 211 0
-23 206 -211 0
-23 -220 225 0
-23 220 -225 0
-23 -234 239 0
-23 234 -239 0
-23 -248 253 0
-23 248 -253 0
-23 -262 267 0
-23 262 -267 0
-23 -276 281 0
-23 276 -281 0
-23 -290 295 0
-23 290 -295 0
-26 -70 73 0
-26 70 -73 0
-26 -71 74 0
-26 71 -74 0
-26 -72 75 0
-26 72 -75 0
-26 -43 44 0
-26 43 -44 0
-26 -95 96 0
-26 95 -96 0
-26 -108 109 0
-26 108 -109 0
-26 -128 130 0
-26 128 -130 0
-26 -129 131 0
-26 129 -131 0
-26 -241 255 0
-26 241 -255 0
-26 -242 256 0
-26 242 -256 0
-26 -243 257 0
-26 243 -257 0
-26 -244 258 0
-26 244 -258 0
-26 -245 259 0
-26 245 -259 0
-26 -246 260 0
-26 246 -260 0
-26 -247 261 0
-26 247 -261 0
-26 -248 262 0
-26 248 -262 0
-26 -249 263 0
-26 249 -263 0
-26 -250 264 0
-26 250 -264 0
-26 -251 265 0
-26 251 -265 0
-26 -252 266 0
-26 252 -266 0
-26 -253 267 0
-26 253 -267 0
-26 -254 268 0
-26 254 -268 0
-26 -192 193 0
-26 192 -193 0
-26 -206 207 0
-26 206 -207 0
-26 -220 221 0
-26 220 -221 0
-26 -234 235 0
-26 234 -235 0
-26 -248 249 0
-26 248 -249 0
-26 -262 263 0
-26 262 -263 0
-26 -276 277 0
-26 276 -277 0
-26 -290 291 0
-26 290 -291 0
-17 -64 82 0
-17 64 -82 0
-17 -65 83 0
-17 65 -83 0
-17 -66 84 0
-17 66 -84 0
-17 -41 47 0
-17 41 -47 0
-17 -93 99 0
-17 93 -99 0
-17 -106 112 0
-17 106 -112 0
-17 -124 136 0
-17 124 -136 0
-17 -125 137 0
-17 125 -137 0
-17 -424 429 0
-17 424 -429 0
-17 -433 438 0
-17 433 -438 0
-17 -442 447 0
-17 442 -447 0
-17 -451 456 0
-17 451 -456 0
-17 -190 196 0
-17 190 -196 0
-17 -204 210 0
-17 204 -210 0
-17 -218 224 0
-17 218 -224 0
-17 -232 238 0
-17 232 -238 0
-17 -246 252 0
-17 246 -252 0
-17 -260 266 0
-17 260 -266 0
-17 -274 280 0
-17 274 -280 0
-17 -288 294 0
-17 288 -294 0
-24 -58 85 0
-24 58 -85 0
-24 -59 86 0
-24 59 -86 0
-24 -60 87 0
-24 60 -87 0
-24 -39 48 0
-24 39 -48 0
-24 -91 100 0
-24 91 -100 0
-24 -104 113 0
-24 104 -113 0
-24 -120 138 0
-24 120 -138 0
-24 -121 139 0
-24 121 -139 0
-24 -422 430 0
-24 422 -430 0
-24 -431 439 0
-24 431 -439 0
-24 -440 448 0
-24 440 -448 0
-24 -449 457 0
-24 449 -457 0
-24 -188 197 0
-24 188 -197 0
-24 -202 211 0
-24 202 -211 0
-24 -216 225 0
-24 216 -225 0
-24 -230 239 0
-24 230 -239 0
-24 -244 253 0
-24 244 -253 0
-24 -258 267 0
-24 258 -267 0
-24 -272 281 0
-24 272 -281 0
-24 -286 295 0
-24 286 -295 0
-27 -58 73 0
-27 58 -73 0
-27 -59 74 0
-27 59 -74 0
-27 -60 75 0
-27 60 -75 0
-27 -39 44 0
-27 39 -44 0
-27 -91 96 0
-27 91 -96 0
-27 -104 109 0
-27 104 -109 0
-27 -120 130 0
-27 120 -130 0
-27 -121 131 0
-27 121 -131 0
-27 -213 255 0
-27 213 -255 0
-27 -214 256 0
-27 214 -256 0
-27 -215 257 0
-27 215 -257 0
-27 -216 258 0
-27 216 -258 0
-27 -217 259 0
-27 217 -259 0
-27 -218 260 0
-27 218 -260 0
-27 -219 261 0
-27 219 -261 0
-27 -220 262 0
-27 220 -262 0
-27 -221 263 0
-27 221 -263 0
-27 -222 264 0
-27 222 -264 0
-27 -223 265 0
-27 223 -265 0
-27 -224 266 0
-27 224 -266 0
-27 -225 267 0
-27 225 -267 0
-27 -226 268 0
-27 226 -268 0
-27 -188 193 0
-27 188 -193 0
-27 -202 207 0
-27 202 -207 0
-27 -216 221 0
-27 216 -221 0
-27 -230 235 0
-27 230 -235 0
-27 -244 249 0
-27 244 -249 0
-27 -258 263 0
-27 258 -263 0
-27 -272 277 0
-27 272 -277 0
-27 -286 291 0
-27 286 -291 0
-16 -82 67 0
-16 82 -67 0
-16 -83 68 0
-16 83 -68 0
-16 -84 69 0
-16 84 -69 0
-16 -47 42 0
-16 47 -42 0
-16 -99 94 0
-16 99 -94 0
-16 -112 107 0
-16 112 -107 0
-16 -136 126 0
-16 136 -126 0
-16 -137 127 0
-16 137 -127 0
-16 -429 425 0
-16 429 -425 0
-16 -438 434 0
-16 438 -434 0
-16 -447 443 0
-16 447 -443 0
-16 -456 452 0
-16 456 -452 0
-16 -196 191 0
-16 196 -191 0
-16 -210 205 0
-16 210 -205 0
-16 -224 219 0
-16 224 -219 0
-16 -238 233 0
-16 238 -233 0
-16 -252 247 0
-16 252 -247 0
-16 -266 261 0
-16 266 -261 0
-16 -280 275 0
-16 280 -275 0
-16 -294 289 0
-16 294 -289 0
-8 -49 58 0
-8 49 -58 0
-8 -50 59 0
-8 50 -59 0
-8 -51 60 0
-8 51 -60 0
-8 -36 39 0
-8 36 -39 0
-8 -88 91 0
-8 88 -91 0
-8 -101 104 0
-8 101 -104 0
-8 -114 120 0
-8 114 -120 0
-8 -115 121 0
-8 115 -121 0
-8 -185 188 0
-8 185 -188 0
-8 -199 202 0
-8 199 -202 0
-8 -213 216 0
-8 213 -216 0
-8 -227 230 0
-8 227 -230 0
-8 -241 244 0
-8 241 -244 0
-8 -255 258 0
-8 255 -258 0
-8 -269 272 0
-8 269 -272 0
-8 -283 286 0
-8 283 -286 0
-12 -52 58 0
-12 52 -58 0
-12 -53 59 0
-12 53 -59 0
-12 -54 60 0
-12 54 -60 0
-12 -37 39 0
-12 37 -39 0
-12 -89 91 0
-12 89 -91 0
-12 -102 104 0
-12 102 -104 0
-12 -116 120 0
-12 116 -120 0
-12 -117 121 0
-12 117 -121 0
-12 -186 188 0
-12 186 -188 0
-12 -200 202 0
-12 200 -202 0
-12 -214 216 0
-12 214 -216 0
-12 -228 230 0
-12 228 -230 0
-12 -242 244 0
-12 242 -244 0
-12 -256 258 0
-12 256 -258 0
-12 -270 272 0
-12 270 -272 0
-12 -284 286 0
-12 284 -286 0
-2 -49 85 0
-2 49 -85 0
-2 -50 86 0
-2 50 -86 0
-2 -51 87 0
-2 51 -87 0
-2 -36 48 0
-2 36 -48 0
-2 -88 100 0
-2 88 -100 0
-2 -101 113 0
-2 101 -113 0
-2 -114 138 0
-2 114 -138 0
-2 -115 139 0
-2 115 -139 0
-2 -185 197 0
-2 185 -197 0
-2 -199 211 0
-2 199 -211 0
-2 -213 225 0
-2 213 -225 0
-2 -227 239 0
-2 227 -239 0
-2 -241 253 0
-2 241 -253 0
-2 -255 267 0
-2 255 -267 0
-2 -269 281 0
-2 269 -281 0
-2 -283 295 0
-2 283 -295 0
-30 -70 76 0
-30 70 -76 0
-30 -71 77 0
-30 71 -77 0
-30 -72 78 0
-30 72 -78 0
-30 -43 45 0
-30 43 -45 0
-30 -95 97 0
-30 95 -97 0
-30 -108 110 0
-30 108 -110 0
-30 -128 132 0
-30 128 -132 0
-30 -129 133 0
-30 129 -133 0
-30 -426 427 0
-30 426 -427 0
-30 -435 436 0
-30 435 -436 0
-30 -444 445 0
-30 444 -445 0
-30 -453 454 0
-30 453 -454 0
-30 -241 269 0
-30 241 -269 0
-30 -242 270 0
-30 242 -270 0
-30 -243 271 0
-30 243 -271 0
-30 -244 272 0
-30 244 -272 0
-30 -245 273 0
-30 245 -273 0
-30 -246 274 0
-30 246 -274 0
-30 -247 275 0
-30 247 -275 0
-30 -248 276 0
-30 248 -276 0
-30 -249 277 0
-30 249 -277 0
-30 -250 278 0
-30 250 -278 0
-30 -251 279 0
-30 251 -279 0
-30 -252 280 0
-30 252 -280 0
-30 -253 281 0
-30 253 -281 0
-30 -254 282 0
-30 254 -282 0
-30 -192 194 0
-30 192 -194 0
-30 -206 208 0
-30 206 -208 0
-30 -220 222 0
-30 220 -222 0
-30 -234 236 0
-30 234 -236 0
-30 -248 250 0
-30 248 -250 0
-30 -262 264 0
-30 262 -264 0
-30 -276 278 0
-30 276 -278 0
-30 -290 292 0
-30 290 -292 0
-11 -70 52 0
-11 70 -52 0
-11 -71 53 0
-11 71 -53 0
-11 -72 54 0
-11 72 -54 0
-11 -43 37 0
-11 43 -37 0
-11 -95 89 0
-11 95 -89 0
-11 -108 102 0
-11 108 -102 0
-11 -128 116 0
-11 128 -116 0
-11 -129 117 0
-11 129 -117 0
-11 -192 186 0
-11 192 -186 0
-11 -206 200 0
-11 206 -200 0
-11 -220 214 0
-11 220 -214 0
-11 -234 228 0
-11 234 -228 0
-11 -248 242 0
-11 248 -242 0
-11 -262 256 0
-11 262 -256 0
-11 -276 270 0
-11 276 -270 0
-11 -290 284 0
-11 290 -284 0
-5 -79 49 0
-5 79 -49 0
-5 -80 50 0
-5 80 -50 0
-5 -81 51 0
-5 81 -51 0
-5 -46 36 0
-5 46 -36 0
-5 -98 88 0
-5 98 -88 0
-5 -111 101 0
-5 111 -101 0
-5 -134 114 0
-5 134 -114 0
-5 -135 115 0
-5 135 -115 0
-5 -195 185 0
-5 195 -185 0
-5 -209 199 0
-5 209 -199 0
-5 -223 213 0
-5 223 -213 0
-5 -237 227 0
-5 237 -227 0
-5 -251 241 0
-5 251 -241 0
-5 -265 255 0
-5 265 -255 0
-5 -279 269 0
-5 279 -269 0
-5 -293 283 0
-5 293 -283 0
-31 -58 76 0
-31 58 -76 0
-31 -59 77 0
-31 59 -77 0
-31 -60 78 0
-31 60 -78 0
-31 -39 45 0
-31 39 -45 0
-31 -91 97 0
-31 91 -97 0
-31 -104 110 0
-31 104 -110 0
-31 -120 132 0
-31 120 -132 0
-31 -121 133 0
-31 121 -133 0
-31 -422 427 0
-31 422 -427 0
-31 -431 436 0
-31 431 -436 0
-31 -440 445 0
-31 440 -445 0
-31 -449 454 0
-31 449 -454 0
-31 -213 269 0
-31 213 -269 0
-31 -214 270 0
-31 214 -270 0
-31 -215 271 0
-31 215 -271 0
-31 -216 272 0
-31 216 -272 0
-31 -217 273 0
-31 217 -273 0
-31 -218 274 0
-31 218 -274 0
-31 -219 275 0
-31 219 -275 0
-31 -220 276 0
-31 220 -276 0
-31 -221 277 0
-31 221 -277 0
-31 -222 278 0
-31 222 -278 0
-31 -223 279 0
-31 223 -279 0
-31 -224 280 0
-31 224 -280 0
-31 -225 281 0
-31 225 -281 0
-31 -226 282 0
-31 226 -282 0
-31 -188 194 0
-31 188 -194 0
-31 -202 208 0
-31 202 -208 0
-31 -216 222 0
-31 216 -222 0
-31 -230 236 0
-31 230 -236 0
-31 -244 250 0
-31 244 -250 0
-31 -258 264 0
-31 258 -264 0
-31 -272 278 0
-31 272 -278 0
-31 -286 292 0
-31 286 -292 0
-35 -79 58 0
-35 79 -58 0
-35 -80 59 0
-35 80 -59 0
-35 -81 60 0
-35 81 -60 0
-35 -46 39 0
-35 46 -39 0
-35 -98 91 0
-35 98 -91 0
-35 -111 104 0
-35 111 -104 0
-35 -134 120 0
-35 134 -120 0
-35 -135 121 0
-35 135 -121 0
-35 -428 422 0
-35 428 -422 0
-35 -437 431 0
-35 437 -431 0
-35 -446 440 0
-35 446 -440 0
-35 -455 449 0
-35 455 -449 0
-35 -283 213 0
-35 283 -213 0
-35 -284 214 0
-35 284 -214 0
-35 -285 215 0
-35 285 -215 0
-35 -286 216 0
-35 286 -216 0
-35 -287 217 0
-35 287 -217 0
-35 -288 218 0
-35 288 -218 0
-35 -289 219 0
-35 289 -219 0
-35 -290 220 0
-35 290 -220 0
-35 -291 221 0
-35 291 -221 0
-35 -292 222 0
-35 292 -222 0
-35 -293 223 0
-35 293 -223 0
-35 -294 224 0
-35 294 -224 0
-35 -295 225 0
-35 295 -225 0
-35 -296 226 0
-35 296 -226 0
-35 -195 188 0
-35 195 -188 0
-35 -209 202 0
-35 209 -202 0
-35 -223 216 0
-35 223 -216 0
-35 -237 230 0
-35 237 -230 0
-35 -251 244 0
-35 251 -244 0
-35 -265 258 0
-35 265 -258 0
-35 -279 272 0
-35 279 -272 0
-35 -293 286 0
-35 293 -286 0
-20 -85 73 0
-20 85 -73 0
-20 -86 74 0
-20 86 -74 0
-20 -87 75 0
-20 87 -75 0
-20 -48 44 0
-20 48 -44 0
-20 -100 96 0
-20 100 -96 0
-20 -113 109 0
-20 113 -109 0
-20 -138 130 0
-20 138 -130 0
-20 -139 131 0
-20 139 -131 0
-20 -197 193 0
-20 197 -193 0
-20 -211 207 0
-20 211 -207 0
-20 -225 221 0
-20 225 -221 0
-20 -239 235 0
-20 239 -235 0
-20 -253 249 0
-20 253 -249 0
-20 -267 263 0
-20 267 -263 0
-20 -281 277 0
-20 281 -277 0
-20 -295 291 0
-20 295 -291 0
-28 -67 76 0
-28 67 -76 0
-28 -68 77 0
-28 68 -77 0
-28 -69 78 0
-28 69 -78 0
-28 -42 45 0
-28 42 -45 0
-28 -94 97 0
-28 94 -97 0
-28 -107 110 0
-28 107 -110 0
-28 -126 132 0
-28 126 -132 0
-28 -127 133 0
-28 127 -133 0
-28 -425 427 0
-28 425 -427 0
-28 -434 436 0
-28 434 -436 0
-28 -443 445 0
-28 443 -445 0
-28 -452 454 0
-28 452 -454 0
-28 -199 269 0
-28 199 -269 0
-28 -200 270 0
-28 200 -270 0
-28 -201 271 0
-28 201 -271 0
-28 -202 272 0
-28 202 -272 0
-28 -203 273 0
-28 203 -273 0
-28 -204 274 0
-28 204 -274 0
-28 -205 275 0
-28 205 -275 0
-28 -206 276 0
-28 206 -276 0
-28 -207 277 0
-28 207 -277 0
-28 -208 278 0
-28 208 -278 0
-28 -209 279 0
-28 209 -279 0
-28 -210 280 0
-28 210 -280 0
-28 -211 281 0
-28 211 -281 0
-28 -212 282 0
-28 212 -282 0
-28 -191 194 0
-28 191 -194 0
-28 -205 208 0
-28 205 -208 0
-28 -219 222 0
-28 219 -222 0
-28 -233 236 0
-28 233 -236 0
-28 -247 250 0
-28 247 -250 0
-28 -261 264 0
-28 261 -264 0
-28 -275 278 0
-28 275 -278 0
-28 -289 292 0
-28 289 -292 0
-9 -52 67 0
-9 52 -67 0
-9 -53 68 0
-9 53 -68 0
-9 -54 69 0
-9 54 -69 0
-9 -37 42 0
-9 37 -42 0
-9 -89 94 0
-9 89 -94 0
-9 -102 107 0
-9 102 -107 0
-9 -116 126 0
-9 116 -126 0
-9 -117 127 0
-9 117 -127 0
-9 -186 191 0
-9 186 -191 0
-9 -200 205 0
-9 200 -205 0
-9 -214 219 0
-9 214 -219 0
-9 -228 233 0
-9 228 -233 0
-9 -242 247 0
-9 242 -247 0
-9 -256 261 0
-9 256 -261 0
-9 -270 275 0
-9 270 -275 0
-9 -284 289 0
-9 284 -289 0
-15 -82 73 0
-15 82 -73 0
-15 -83 74 0
-15 83 -74 0
-15 -84 75 0
-15 84 -75 0
-15 -47 44 0
-15 47 -44 0
-15 -99 96 0
-15 99 -96 0
-15 -112 109 0
-15 112 -109 0
-15 -136 130 0
-15 136 -130 0
-15 -137 131 0
-15 137 -131 0
-15 -196 193 0
-15 196 -193 0
-15 -210 207 0
-15 210 -207 0
-15 -224 221 0
-15 224 -221 0
-15 -238 235 0
-15 238 -235 0
-15 -252 249 0
-15 252 -249 0
-15 -266 263 0
-15 266 -263 0
-15 -280 277 0
-15 280 -277 0
-15 -294 291 0
-15 294 -291 0
-18 -82 70 0
-18 82 -70 0
-18 -83 71 0
-18 83 -71 0
-18 -84 72 0
-18 84 -72 0
-18 -47 43 0
-18 47 -43 0
-18 -99 95 0
-18 99 -95 0
-18 -112 108 0
-18 112 -108 0
-18 -136 128 0
-18 136 -128 0
-18 -137 129 0
-18 137 -129 0
-18 -429 426 0
-18 429 -426 0
-18 -438 435 0
-18 438 -435 0
-18 -447 444 0
-18 447 -444 0
-18 -456 453 0
-18 456 -453 0
-18 -196 192 0
-18 196 -192 0
-18 -210 206 0
-18 210 -206 0
-18 -224 220 0
-18 224 -220 0
-18 -238 234 0
-18 238 -234 0
-18 -252 248 0
-18 252 -248 0
-18 -266 262 0
-18 266 -262 0
-18 -280 276 0
-18 280 -276 0
-18 -294 290 0
-18 294 -290 0
-22 -64 85 0
-22 64 -85 0
-22 -65 86 0
-22 65 -86 0
-22 -66 87 0
-22 66 -87 0
-22 -41 48 0
-22 41 -48 0
-22 -93 100 0
-22 93 -100 0
-22 -106 113 0
-22 106 -113 0
-22 -124 138 0
-22 124 -138 0
-22 -125 139 0
-22 125 -139 0
-22 -424 430 0
-22 424 -430 0
-22 -433 439 0
-22 433 -439 0
-22 -442 448 0
-22 442 -448 0
-22 -451 457 0
-22 451 -457 0
-22 -190 197 0
-22 190 -197 0
-22 -204 211 0
-22 204 -211 0
-22 -218 225 0
-22 218 -225 0
-22 -232 239 0
-22 232 -239 0
-22 -246 253 0
-22 246 -253 0
-22 -260 267 0
-22 260 -267 0
-22 -274 281 0
-22 274 -281 0
-22 -288 295 0
-22 288 -295 0
-1 -82 49 0
-1 82 -49 0
-1 -83 50 0
-1 83 -50 0
-1 -84 51 0
-1 84 -51 0
-1 -47 36 0
-1 47 -36 0
-1 -99 88 0
-1 99 -88 0
-1 -112 101 0
-1 112 -101 0
-1 -136 114 0
-1 136 -114 0
-1 -137 115 0
-1 137 -115 0
-1 -196 185 0
-1 196 -185 0
-1 -210 199 0
-1 210 -199 0
-1 -224 213 0
-1 224 -213 0
-1 -238 227 0
-1 238 -227 0
-1 -252 241 0
-1 252 -241 0
-1 -266 255 0
-1 266 -255 0
-1 -280 269 0
-1 280 -269 0
-1 -294 283 0
-1 294 -283 0
-10 -64 52 0
-10 64 -52 0
-10 -65 53 0
-10 65 -53 0
-10 -66 54 0
-10 66 -54 0
-10 -41 37 0
-10 41 -37 0
-10 -93 89 0
-10 93 -89 0
-10 -106 102 0
-10 106 -102 0
-10 -124 116 0
-10 124 -116 0
-10 -125 117 0
-10 125 -117 0
-10 -190 186 0
-10 190 -186 0
-10 -204 200 0
-10 204 -200 0
-10 -218 214 0
-10 218 -214 0
-10 -232 228 0
-10 232 -228 0
-10 -246 242 0
-10 246 -242 0
-10 -260 256 0
-10 260 -256 0
-10 -274 270 0
-10 274 -270 0
-10 -288 284 0
-10 288 -284 0
-29 -64 76 0
-29 64 -76 0
-29 -65 77 0
-29 65 -77 0
-29 -66 78 0
-29 66 -78 0
-29 -41 45 0
-29 41 -45 0
-29 -93 97 0
-29 93 -97 0
-29 -106 110 0
-29 106 -110 0
-29 -124 132 0
-29 124 -132 0
-29 -125 133 0
-29 125 -133 0
-29 -424 427 0
-29 424 -427 0
-29 -433 436 0
-29 433 -436 0
-29 -442 445 0
-29 442 -445 0
-29 -451 454 0
-29 451 -454 0
-29 -227 269 0
-29 227 -269 0
-29 -228 270 0
-29 228 -270 0
-29 -229 271 0
-29 229 -271 0
-29 -230 272 0
-29 230 -272 0
-29 -231 273 0
-29 231 -273 0
-29 -232 274 0
-29 232 -274 0
-29 -233 275 0
-29 233 -275 0
-29 -234 276 0
-29 234 -276 0
-29 -235 277 0
-29 235 -277 0
-29 -236 278 0
-29 236 -278 0
-29 -237 279 0
-29 237 -279 0
-29 -238 280 0
-29 238 -280 0
-29 -239 281 0
-29 239 -281 0
-29 -240 282 0
-29 240 -282 0
-29 -190 194 0
-29 190 -194 0
-29 -204 208 0
-29 204 -208 0
-29 -218 222 0
-29 218 -222 0
-29 -232 236 0
-29 232 -236 0
-29 -246 250 0
-29 246 -250 0
-29 -260 264 0
-29 260 -264 0
-29 -274 278 0
-29 274 -278 0
-29 -288 292 0
-29 288 -292 0
-6 -64 49 0
-6 64 -49 0
-6 -65 50 0
-6 65 -50 0
-6 -66 51 0
-6 66 -51 0
-6 -41 36 0
-6 41 -36 0
-6 -93 88 0
-6 93 -88 0
-6 -106 101 0
-6 106 -101 0
-6 -124 114 0
-6 124 -114 0
-6 -125 115 0
-6 125 -115 0
-6 -190 185 0
-6 190 -185 0
-6 -204 199 0
-6 204 -199 0
-6 -218 213 0
-6 218 -213 0
-6 -232 227 0
-6 232 -227 0
-6 -246 241 0
-6 246 -241 0
-6 -260 255 0
-6 260 -255 0
-6 -274 269 0
-6 274 -269 0
-6 -288 283 0
-6 288 -283 0
-21 -85 67 0
-21 85 -67 0
-21 -86 68 0
-21 86 -68 0
-21 -87 69 0
-21 87 -69 0
-21 -48 42 0
-21 48 -42 0
-21 -100 94 0
-21 100 -94 0
-21 -113 107 0
-21 113 -107 0
-21 -138 126 0
-21 138 -126 0
-21 -139 127 0
-21 139 -127 0
-21 -430 425 0
-21 430 -425 0
-21 -439 434 0
-21 439 -434 0
-21 -448 443 0
-21 448 -443 0
-21 -457 452 0
-21 457 -452 0
-21 -197 191 0
-21 197 -191 0
-21 -211 205 0
-21 211 -205 0
-21 -225 219 0
-21 225 -219 0
-21 -239 233 0
-21 239 -233 0
-21 -253 247 0
-21 253 -247 0
-21 -267 261 0
-21 267 -261 0
-21 -281 275 0
-21 281 -275 0
-21 -295 289 0
-21 295 -289 0
-25 -67 73 0
-25 67 -73 0
-25 -68 74 0
-25 68 -74 0
-25 -69 75 0
-25 69 -75 0
-25 -42 44 0
-25 42 -44 0
-25 -94 96 0
-25 94 -96 0
-25 -107 109 0
-25 107 -109 0
-25 -126 130 0
-25 126 -130 0
-25 -127 131 0
-25 127 -131 0
-25 -199 255 0
-25 199 -255 0
-25 -200 256 0
-25 200 -256 0
-25 -201 257 0
-25 201 -257 0
-25 -202 258 0
-25 202 -258 0
-25 -203 259 0
-25 203 -259 0
-25 -204 260 0
-25 204 -260 0
-25 -205 261 0
-25 205 -261 0
-25 -206 262 0
-25 206 -262 0
-25 -207 263 0
-25 207 -263 0
-25 -208 264 0
-25 208 -264 0
-25 -209 265 0
-25 209 -265 0
-25 -210 266 0
-25 210 -266 0
-25 -211 267 0
-25 211 -267 0
-25 -212 268 0
-25 212 -268 0
-25 -191 193 0
-25 191 -193 0
-25 -205 207 0
-25 205 -207 0
-25 -219 221 0
-25 219 -221 0
-25 -233 235 0
-25 233 -235 0
-25 -247 249 0
-25 247 -249 0
-25 -261 263 0
-25 261 -263 0
-25 -275 277 0
-25 275 -277 0
-25 -289 291 0
-25 289 -291 0
-14 -55 85 0
-14 55 -85 0
-14 -56 86 0
-14 56 -86 0
-14 -57 87 0
-14 57 -87 0
-14 -38 48 0
-14 38 -48 0
-14 -90 100 0
-14 90 -100 0
-14 -103 113 0
-14 103 -113 0
-14 -118 138 0
-14 118 -138 0
-14 -119 139 0
-14 119 -139 0
-14 -187 197 0
-14 187 -197 0
-14 -201 211 0
-14 201 -211 0
-14 -215 225 0
-14 215 -225 0
-14 -229 239 0
-14 229 -239 0
-14 -243 253 0
-14 243 -253 0
-14 -257 267 0
-14 257 -267 0
-14 -271 281 0
-14 271 -281 0
-14 -285 295 0
-14 285 -295 0
-3 -49 76 0
-3 49 -76 0
-3 -50 77 0
-3 50 -77 0
-3 -51 78 0
-3 51 -78 0
-3 -36 45 0
-3 36 -45 0
-3 -88 97 0
-3 88 -97 0
-3 -101 110 0
-3 101 -110 0
-3 -114 132 0
-3 114 -132 0
-3 -115 133 0
-3 115 -133 0
-3 -185 194 0
-3 185 -194 0
-3 -199 208 0
-3 199 -208 0
-3 -213 222 0
-3 213 -222 0
-3 -227 236 0
-3 227 -236 0
-3 -241 250 0
-3 241 -250 0
-3 -255 264 0
-3 255 -264 0
-3 -269 278 0
-3 269 -278 0
-3 -283 292 0
-3 283 -292 0
-32 -79 67 0
-32 79 -67 0
-32 -80 68 0
-32 80 -68 0
-32 -81 69 0
-32 81 -69 0
-32 -46 42 0
-32 46 -42 0
-32 -98 94 0
-32 98 -94 0
-32 -111 107 0
-32 111 -107 0
-32 -134 126 0
-32 134 -126 0
-32 -135 127 0
-32 135 -127 0
-32 -428 425 0
-32 428 -425 0
-32 -437 434 0
-32 437 -434 0
-32 -446 443 0
-32 446 -443 0
-32 -455 452 0
-32 455 -452 0
-32 -283 199 0
-32 283 -199 0
-32 -284 200 0
-32 284 -200 0
-32 -285 201 0
-32 285 -201 0
-32 -286 202 0
-32 286 -202 0
-32 -287 203 0
-32 287 -203 0
-32 -288 204 0
-32 288 -204 0
-32 -289 205 0
-32 289 -205 0
-32 -290 206 0
-32 290 -206 0
-32 -291 207 0
-32 291 -207 0
-32 -292 208 0
-32 292 -208 0
-32 -293 209 0
-32 293 -209 0
-32 -294 210 0
-32 294 -210 0
-32 -295 211 0
-32 295 -211 0
-32 -296 212 0
-32 296 -212 0
-32 -195 191 0
-32 195 -191 0
-32 -209 205 0
-32 209 -205 0
-32 -223 219 0
-32 223 -219 0
-32 -237 233 0
-32 237 -233 0
-32 -251 247 0
-32 251 -247 0
-32 -265 261 0
-32 265 -261 0
-32 -279 275 0
-32 279 -275 0
-32 -293 289 0
-32 293 -289 0
-13 -82 55 0
-13 82 -55 0
-13 -83 56 0
-13 83 -56 0
-13 -84 57 0
-13 84 -57 0
-13 -47 38 0
-13 47 -38 0
-13 -99 90 0
-13 99 -90 0
-13 -112 103 0
-13 112 -103 0
-13 -136 118 0
-13 136 -118 0
-13 -137 119 0
-13 137 -119 0
-13 -196 187 0
-13 196 -187 0
-13 -210 201 0
-13 210 -201 0
-13 -224 215 0
-13 224 -215 0
-13 -238 229 0
-13 238 -229 0
-13 -252 243 0
-13 252 -243 0
-13 -266 257 0
-13 266 -257 0
-13 -280 271 0
-13 280 -271 0
-13 -294 285 0
-13 294 -285 0
-8 -31 3 0
-31 -3 8 0
-3 -8 31 0
-8 -35 5 0
-35 -5 8 0
-5 -8 35 0
-8 -19 1 0
-19 -1 8 0
-1 -8 19 0
-8 -24 2 0
-24 -2 8 0
-2 -8 24 0
-6 -29 3 0
-29 -3 6 0
-3 -6 29 0
-6 -33 5 0
-33 -5 6 0
-5 -6 33 0
-6 -17 1 0
-17 -1 6 0
-1 -6 17 0
-6 -22 2 0
-22 -2 6 0
-2 -6 22 0
-4 -28 3 0
-28 -3 4 0
-3 -4 28 0
-4 -32 5 0
-32 -5 4 0
-5 -4 32 0
-4 -16 1 0
-16 -1 4 0
-1 -4 16 0
-4 -21 2 0
-21 -2 4 0
-2 -4 21 0
-7 -30 3 0
-30 -3 7 0
-3 -7 30 0
-7 -34 5 0
-34 -5 7 0
-5 -7 34 0
-7 -18 1 0
-18 -1 7 0
-1 -7 18 0
-7 -23 2 0
-23 -2 7 0
-2 -7 23 0
-27 -15 19 0
-15 -19 27 0
-19 -27 15 0
-27 -20 24 0
-20 -24 27 0
-24 -27 20 0
-25 -15 16 0
-15 -16 25 0
-16 -25 15 0
-25 -20 21 0
-20 -21 25 0
-21 -25 20 0
-26 -15 18 0
-15 -18 26 0
-18 -26 15 0
-26 -20 23 0
-20 -23 26 0
-23 -26 20 0
