p cnf 616 9412
111 -122 -114 0
111 -123 -115 0
111 -124 -116 0
-125 117 -111 0
-125 -117 111 0
-127 -119 111 0
112 -129 -114 0
112 -130 -115 0
112 -131 -116 0
-132 -117 112 0
113 -135 -114 0
113 -136 -115 0
113 -137 -116 0
-138 -117 113 0
-114 115 -141 0
-114 -115 141 0
-115 114 -141 0
116 -114 -142 0
-116 114 -142 0
117 -143 -114 0
-117 -143 114 0
-118 144 -114 0
-119 -145 114 0
116 -115 -146 0
-115 -116 146 0
-116 115 -146 0
117 -147 -115 0
-117 147 -115 0
-117 -147 115 0
-118 -148 115 0
117 -150 -116 0
-117 -150 116 0
118 -151 -116 0
-118 -151 116 0
-118 -117 153 0
120 -129 -122 0
120 -131 -124 0
125 -132 -120 0
-132 -125 120 0
-134 -127 120 0
121 -135 -122 0
121 -136 -123 0
121 -137 -124 0
-138 -125 121 0
-140 127 -121 0
-122 123 -141 0
-123 122 -141 0
124 -122 -142 0
-124 -122 142 0
-124 122 -142 0
125 -143 -122 0
-125 143 -122 0
-125 -143 122 0
126 -144 -122 0
-126 -144 122 0
127 -145 -122 0
-127 -145 122 0
124 -123 -146 0
-123 -124 146 0
-124 123 -146 0
125 -147 -123 0
-125 147 -123 0
-125 -147 123 0
126 -148 -123 0
-126 -148 123 0
127 -149 -123 0
-127 149 -123 0
-127 -149 123 0
125 -150 -124 0
-125 -150 124 0
-126 -151 124 0
128 -135 -129 0
128 -136 -130 0
128 -137 -131 0
-138 -132 128 0
-129 130 -141 0
-129 -130 141 0
-130 129 -141 0
131 -129 -142 0
-131 -129 142 0
-131 129 -142 0
132 -143 -129 0
-132 143 -129 0
-132 -143 129 0
133 -144 -129 0
-133 -144 129 0
-134 -145 129 0
131 -130 -146 0
-130 -131 146 0
-131 130 -146 0
132 -147 -130 0
-132 147 -130 0
-132 -147 130 0
133 -148 -130 0
134 -149 -130 0
-134 -149 130 0
132 -150 -131 0
-132 150 -131 0
-132 -150 131 0
134 -152 -131 0
-134 -132 154 0
-135 136 -141 0
-135 -136 141 0
-136 135 -141 0
-135 137 -142 0
-137 135 -142 0
138 -143 -135 0
-138 143 -135 0
-138 -143 135 0
139 -144 -135 0
-139 144 -135 0
-139 -144 135 0
-140 -145 135 0
137 -136 -146 0
-136 -137 146 0
138 -147 -136 0
-138 147 -136 0
-138 -147 136 0
139 -148 -136 0
-139 -148 136 0
140 -149 -136 0
-140 149 -136 0
-140 -149 136 0
138 -150 -137 0
-138 150 -137 0
-138 -150 137 0
-139 -151 137 0
140 -152 -137 0
-140 152 -137 0
155 -140 -139 0
-147 143 -141 0
-143 147 -141 0
-143 -147 141 0
-148 144 -141 0
-144 148 -141 0
-149 145 -141 0
-145 149 -141 0
-150 143 -142 0
150 -143 -142 0
-150 -143 142 0
-151 144 -142 0
151 -144 -142 0
-151 -144 142 0
-152 145 -142 0
152 -145 -142 0
-152 -145 142 0
-144 -143 153 0
-145 -143 154 0
155 -145 -144 0
-150 147 -146 0
150 -147 -146 0
-150 -147 146 0
-151 148 -146 0
151 -148 -146 0
-151 -148 146 0
-152 149 -146 0
152 -149 -146 0
148 -147 -153 0
-148 -147 153 0
-149 -147 154 0
-151 -150 153 0
-152 -150 154 0
155 -152 -151 0
157 -156 -165 0
-156 -157 165 0
158 -166 -156 0
159 -156 -167 0
-156 -159 167 0
156 -159 -167 0
160 -156 -168 0
-156 -160 168 0
156 -160 -168 0
161 -156 -169 0
-156 -161 169 0
156 -161 -169 0
162 -156 -170 0
-156 -162 170 0
156 -162 -170 0
-156 -163 171 0
156 -163 -171 0
164 -156 -172 0
-156 -164 172 0
156 -164 -172 0
-157 -158 173 0
159 -157 -174 0
-157 -159 174 0
157 -159 -174 0
160 -157 -175 0
-157 -160 175 0
157 -160 -175 0
161 -157 -176 0
-157 -161 176 0
157 -161 -176 0
162 -157 -177 0
-157 -162 177 0
157 -162 -177 0
163 -157 -178 0
-157 -163 178 0
157 -163 -178 0
164 -157 -179 0
-157 -164 179 0
157 -164 -179 0
159 -158 -180 0
-158 -159 180 0
158 -180 -159 0
160 -181 -158 0
-158 -160 181 0
158 -181 -160 0
161 -182 -158 0
-158 -161 182 0
158 -182 -161 0
162 -183 -158 0
-158 -162 183 0
158 -183 -162 0
163 -184 -158 0
-158 -163 184 0
158 -184 -163 0
164 -185 -158 0
-158 -164 185 0
158 -185 -164 0
160 -159 -186 0
-160 -159 186 0
159 -160 -186 0
161 -159 -187 0
-161 -159 187 0
159 -161 -187 0
162 -159 -188 0
-162 -159 188 0
159 -162 -188 0
163 -159 -189 0
-163 -159 189 0
159 -163 -189 0
164 -159 -190 0
-164 -159 190 0
159 -164 -190 0
161 -160 -191 0
-160 -161 191 0
160 -161 -191 0
162 -160 -192 0
-160 -162 192 0
160 -162 -192 0
163 -160 -193 0
-160 -163 193 0
160 -163 -193 0
164 -160 -194 0
-160 -164 194 0
160 -164 -194 0
162 -161 -195 0
-161 -162 195 0
161 -162 -195 0
163 -161 -196 0
-161 -163 196 0
161 -163 -196 0
164 -161 -197 0
-161 -164 197 0
161 -164 -197 0
163 -162 -198 0
198 -162 -163 0
162 -163 -198 0
164 -162 -199 0
199 -162 -164 0
162 -164 -199 0
200 -163 -164 0
-173 -165 166 0
-166 -165 173 0
-173 -166 165 0
-174 -165 167 0
-167 -165 174 0
-174 -167 165 0
-175 -165 168 0
-168 -165 175 0
-168 -175 165 0
-176 -165 169 0
-169 -165 176 0
-169 -176 165 0
-177 -165 170 0
-170 -165 177 0
-170 -177 165 0
-178 -165 171 0
-171 -165 178 0
-171 -178 165 0
-179 -165 172 0
-172 -165 179 0
-172 -179 165 0
-166 -180 167 0
-166 -167 180 0
-180 -167 166 0
-166 -181 168 0
-166 -168 181 0
-181 -168 166 0
-166 -182 169 0
-166 -169 182 0
-182 -169 166 0
-166 -183 170 0
-166 -170 183 0
-183 -170 166 0
-166 -171 184 0
-184 -171 166 0
-185 -172 166 0
-167 168 -186 0
-167 -168 186 0
-168 167 -186 0
-167 169 -187 0
-167 -169 187 0
-169 167 -187 0
-188 -167 170 0
-167 -170 188 0
-188 -170 167 0
-167 -171 189 0
-189 -171 167 0
-167 -172 190 0
-168 169 -191 0
-168 -169 191 0
-169 168 -191 0
-192 -168 170 0
-168 -170 192 0
-192 -170 168 0
-193 -168 171 0
-168 -171 193 0
-193 -171 168 0
-194 -168 172 0
-168 -172 194 0
-194 -172 168 0
-195 -169 170 0
-169 -170 195 0
-195 -170 169 0
-196 -169 171 0
-197 -169 172 0
-169 -172 197 0
-197 -172 169 0
-198 -170 171 0
198 -171 -170 0
-199 -170 172 0
199 -172 -170 0
-199 -172 170 0
200 -171 -172 0
-173 -180 174 0
-173 -174 180 0
-180 -174 173 0
-173 -181 175 0
-173 -175 181 0
-181 -175 173 0
-173 -182 176 0
-173 -176 182 0
-182 -176 173 0
-173 -183 177 0
-173 -177 183 0
-183 -177 173 0
-173 -184 178 0
-173 -178 184 0
-173 -185 179 0
-185 -179 173 0
-174 175 -186 0
-174 -175 186 0
-175 174 -186 0
-174 176 -187 0
-174 -176 187 0
-176 174 -187 0
-188 -174 177 0
-174 -177 188 0
-188 -177 174 0
-189 -174 178 0
-174 -178 189 0
-189 -178 174 0
-190 -174 179 0
-174 -179 190 0
-190 -179 174 0
-175 176 -191 0
-175 -176 191 0
-176 175 -191 0
-192 -175 177 0
-175 -177 192 0
-192 -177 175 0
-193 -175 178 0
-194 -175 179 0
-175 -179 194 0
-195 -176 177 0
-176 -177 195 0
-195 -177 176 0
-196 -176 178 0
-176 -178 196 0
-196 -178 176 0
-197 -176 179 0
-176 -179 197 0
-197 -179 176 0
-198 -177 178 0
198 -178 -177 0
-198 -178 177 0
-199 -177 179 0
199 -179 -177 0
-199 -179 177 0
200 -178 -179 0
-180 -186 181 0
-181 -180 186 0
-181 180 -186 0
-180 -187 182 0
-182 -180 187 0
-182 180 -187 0
-180 -188 183 0
-183 -180 188 0
-183 -188 180 0
-180 -189 184 0
-184 -180 189 0
-180 -190 185 0
-185 -180 190 0
-185 -190 180 0
-181 -191 182 0
-181 -182 191 0
-182 181 -191 0
-181 -192 183 0
-181 -183 192 0
-183 -192 181 0
-181 -193 184 0
-181 -184 193 0
-184 -193 181 0
-181 -194 185 0
-181 -185 194 0
-185 -194 181 0
-182 -195 183 0
-182 -183 195 0
-183 -195 182 0
-182 -196 184 0
-182 -184 196 0
-184 -196 182 0
-182 -197 185 0
-182 -185 197 0
-185 -197 182 0
-183 -198 184 0
198 -183 -184 0
-184 -198 183 0
-183 -199 185 0
199 -183 -185 0
-185 -199 183 0
200 -184 -185 0
-191 -186 187 0
-187 -186 191 0
-191 -187 186 0
-192 188 -186 0
-188 192 -186 0
-188 -192 186 0
-193 189 -186 0
-189 193 -186 0
-189 -193 186 0
-194 190 -186 0
-190 194 -186 0
-190 -194 186 0
-195 188 -187 0
-188 195 -187 0
-188 -195 187 0
-196 189 -187 0
-189 196 -187 0
-189 -196 187 0
-197 190 -187 0
-190 197 -187 0
-190 -197 187 0
-188 -198 189 0
198 -188 -189 0
-189 -198 188 0
-188 -199 190 0
199 -188 -190 0
-190 -199 188 0
200 -189 -190 0
-195 192 -191 0
-192 195 -191 0
-192 -195 191 0
-196 193 -191 0
-193 196 -191 0
-193 -196 191 0
-197 194 -191 0
-194 197 -191 0
-194 -197 191 0
-192 -198 193 0
198 -192 -193 0
-193 -198 192 0
-192 -199 194 0
199 -192 -194 0
-194 -199 192 0
200 -193 -194 0
-195 -198 196 0
198 -195 -196 0
-196 -198 195 0
-195 -199 197 0
199 -195 -197 0
-197 -199 195 0
200 -196 -197 0
200 -198 -199 0
210 -202 -201 0
201 -202 -210 0
-211 -201 203 0
201 -203 -211 0
-212 -201 204 0
212 -204 -201 0
201 -204 -212 0
-213 -201 205 0
213 -205 -201 0
201 -205 -213 0
-214 -201 206 0
214 -206 -201 0
201 -206 -214 0
-215 -201 207 0
215 -207 -201 0
201 -207 -215 0
-216 -201 208 0
216 -208 -201 0
201 -208 -216 0
-217 -201 209 0
217 -209 -201 0
201 -217 -209 0
-202 -218 203 0
-202 -203 218 0
-203 -218 202 0
-202 -219 204 0
-202 -204 219 0
-219 -204 202 0
-202 -220 205 0
-202 -205 220 0
-220 -205 202 0
-202 -221 206 0
-202 -206 221 0
-221 -206 202 0
-202 -222 207 0
-202 -207 222 0
-222 -207 202 0
-202 -223 208 0
-202 -208 223 0
-223 -208 202 0
-202 -224 209 0
-224 -209 202 0
-203 -225 204 0
-203 -204 225 0
-225 -204 203 0
-203 -226 205 0
-203 -205 226 0
-226 -205 203 0
-203 -227 206 0
-203 -206 227 0
-227 -206 203 0
-203 -228 207 0
-203 -207 228 0
-228 -207 203 0
-203 -229 208 0
-203 -208 229 0
-203 -230 209 0
-203 -209 230 0
-230 -209 203 0
-204 205 -231 0
-204 -205 231 0
-205 204 -231 0
-204 206 -232 0
-204 -206 232 0
-206 204 -232 0
-233 -204 207 0
-204 -207 233 0
-233 -207 204 0
-234 -204 208 0
-204 -208 234 0
-234 -208 204 0
-235 -204 209 0
-204 -209 235 0
-235 -209 204 0
-205 206 -236 0
-205 -206 236 0
-206 205 -236 0
-237 -205 207 0
-205 -207 237 0
-237 -207 205 0
-238 -205 208 0
-205 -208 238 0
-238 -208 205 0
-239 -205 209 0
-205 -209 239 0
-239 -209 205 0
-240 -206 207 0
-206 -207 240 0
-240 -207 206 0
-241 -206 208 0
-206 -208 241 0
-241 -208 206 0
-242 -206 209 0
-206 -209 242 0
-242 -209 206 0
-243 -207 208 0
-207 -208 243 0
-243 -208 207 0
-244 -207 209 0
-207 -209 244 0
-244 -209 207 0
-208 -209 245 0
211 -210 -218 0
-210 -211 218 0
210 -211 -218 0
212 -210 -219 0
-210 -212 219 0
210 -219 -212 0
213 -210 -220 0
-210 -213 220 0
210 -220 -213 0
214 -210 -221 0
-210 -214 221 0
210 -221 -214 0
215 -210 -222 0
-210 -215 222 0
210 -222 -215 0
216 -210 -223 0
-210 -216 223 0
210 -223 -216 0
217 -210 -224 0
-210 -217 224 0
210 -224 -217 0
212 -211 -225 0
-211 -212 225 0
211 -225 -212 0
213 -211 -226 0
-211 -213 226 0
211 -226 -213 0
214 -211 -227 0
-211 -214 227 0
211 -227 -214 0
215 -211 -228 0
-211 -215 228 0
211 -228 -215 0
216 -211 -229 0
-211 -216 229 0
211 -229 -216 0
217 -211 -230 0
-211 -217 230 0
211 -230 -217 0
213 -212 -231 0
-212 -213 231 0
212 -213 -231 0
214 -212 -232 0
-212 -214 232 0
212 -214 -232 0
215 -233 -212 0
-212 -215 233 0
212 -233 -215 0
216 -234 -212 0
-212 -216 234 0
212 -234 -216 0
217 -235 -212 0
-212 -217 235 0
212 -235 -217 0
214 -213 -236 0
-213 -214 236 0
213 -214 -236 0
215 -237 -213 0
-213 -215 237 0
213 -237 -215 0
216 -238 -213 0
-213 -216 238 0
213 -238 -216 0
217 -239 -213 0
-213 -217 239 0
213 -239 -217 0
215 -240 -214 0
-214 -215 240 0
214 -240 -215 0
216 -241 -214 0
-214 -216 241 0
214 -241 -216 0
217 -242 -214 0
-214 -217 242 0
214 -242 -217 0
216 -243 -215 0
-215 -216 243 0
215 -243 -216 0
217 -244 -215 0
-215 -217 244 0
215 -244 -217 0
-216 -217 245 0
-225 -218 219 0
-219 -218 225 0
-219 -225 218 0
-226 -218 220 0
-220 -218 226 0
-220 -226 218 0
-227 -218 221 0
-221 -218 227 0
-221 -227 218 0
-228 -218 222 0
-222 -218 228 0
-222 -228 218 0
-229 -218 223 0
-223 -218 229 0
-223 -229 218 0
-230 -218 224 0
-224 -218 230 0
-224 -230 218 0
-219 220 -231 0
-219 -220 231 0
-220 219 -231 0
-219 221 -232 0
-219 -221 232 0
-221 219 -232 0
-219 -233 222 0
-219 -222 233 0
-222 -233 219 0
-219 -234 223 0
-219 -223 234 0
-223 -234 219 0
-219 -235 224 0
-219 -224 235 0
-224 -235 219 0
-220 221 -236 0
-220 -221 236 0
-221 220 -236 0
-220 -237 222 0
-220 -222 237 0
-222 -237 220 0
-220 -238 223 0
-220 -223 238 0
-223 -238 220 0
-220 -239 224 0
-220 -224 239 0
-224 -239 220 0
-221 -240 222 0
-221 -222 240 0
-222 -240 221 0
-221 -241 223 0
-221 -223 241 0
-223 -241 221 0
-221 -242 224 0
-221 -224 242 0
-224 -242 221 0
-222 -243 223 0
-222 -223 243 0
-223 -243 222 0
-222 -244 224 0
-222 -224 244 0
-224 -244 222 0
-223 -224 245 0
-225 -231 226 0
-225 -226 231 0
-226 225 -231 0
-225 -232 227 0
-225 -227 232 0
-227 225 -232 0
-225 -233 228 0
-225 -228 233 0
-228 -233 225 0
-225 -234 229 0
-225 -229 234 0
-229 -234 225 0
-225 -235 230 0
-225 -230 235 0
-230 -235 225 0
-226 -236 227 0
-226 -227 236 0
-227 226 -236 0
-226 -237 228 0
-226 -228 237 0
-228 -237 226 0
-226 -238 229 0
-226 -229 238 0
-229 -238 226 0
-226 -239 230 0
-226 -230 239 0
-230 -239 226 0
-227 -240 228 0
-227 -228 240 0
-228 -240 227 0
-227 -241 229 0
-227 -229 241 0
-229 -241 227 0
-227 -242 230 0
-227 -230 242 0
-230 -242 227 0
-228 -243 229 0
-228 -229 243 0
-229 -243 228 0
-228 -244 230 0
-228 -230 244 0
-230 -244 228 0
-229 -230 245 0
-236 -231 232 0
-232 -231 236 0
-236 -232 231 0
-237 233 -231 0
-233 237 -231 0
-233 -237 231 0
-238 234 -231 0
-234 238 -231 0
-234 -238 231 0
-239 235 -231 0
-235 239 -231 0
-235 -239 231 0
-240 233 -232 0
-233 240 -232 0
-233 -240 232 0
-241 234 -232 0
-234 241 -232 0
-234 -241 232 0
-242 235 -232 0
-235 242 -232 0
-235 -242 232 0
-233 -243 234 0
-233 -234 243 0
-234 -243 233 0
-233 -244 235 0
-233 -235 244 0
-235 -244 233 0
-234 -235 245 0
-240 237 -236 0
-237 240 -236 0
-237 -240 236 0
-241 238 -236 0
-238 241 -236 0
-238 -241 236 0
-242 239 -236 0
-239 242 -236 0
-239 -242 236 0
-237 -243 238 0
-237 -238 243 0
-238 -243 237 0
-237 -244 239 0
-237 -239 244 0
-239 -244 237 0
-238 -239 245 0
-240 -243 241 0
-240 -241 243 0
-241 -243 240 0
-240 -244 242 0
-240 -242 244 0
-242 -244 240 0
-241 -242 245 0
-243 -244 245 0
247 -246 -255 0
255 -246 -247 0
-247 -255 246 0
-256 -246 248 0
-248 -246 256 0
-248 -256 246 0
-246 -257 249 0
-249 -246 257 0
-249 -257 246 0
-246 -258 250 0
-250 -246 258 0
-250 -258 246 0
-246 -259 251 0
-251 -246 259 0
-251 -259 246 0
-246 -260 252 0
-252 -246 260 0
-252 -260 246 0
-246 -261 253 0
-253 -246 261 0
-253 -261 246 0
-246 -262 254 0
-254 -246 262 0
-254 -262 246 0
-263 -247 248 0
247 -248 -263 0
-247 -264 249 0
264 -249 -247 0
247 -249 -264 0
-247 -265 250 0
265 -250 -247 0
247 -250 -265 0
-247 -266 251 0
266 -251 -247 0
247 -251 -266 0
-247 -267 252 0
267 -252 -247 0
247 -252 -267 0
-247 -268 253 0
268 -253 -247 0
247 -253 -268 0
-247 -269 254 0
269 -254 -247 0
247 -254 -269 0
-248 -270 249 0
-249 -248 270 0
-249 -270 248 0
-248 -271 250 0
-250 -248 271 0
-250 -271 248 0
-248 -272 251 0
-251 -248 272 0
-251 -272 248 0
-248 -273 252 0
-252 -248 273 0
-252 -273 248 0
-248 -274 253 0
-253 -248 274 0
-253 -274 248 0
-248 -275 254 0
-254 -275 248 0
-249 250 -276 0
-250 -249 276 0
-250 249 -276 0
-249 251 -277 0
-251 -249 277 0
-251 249 -277 0
-249 -278 252 0
-252 -249 278 0
-252 -278 249 0
-249 -279 253 0
-253 -249 279 0
-253 -279 249 0
-249 -280 254 0
-254 -249 280 0
-254 -280 249 0
-250 251 -281 0
-250 -251 281 0
-251 250 -281 0
-250 -282 252 0
-250 -252 282 0
-252 -282 250 0
-250 -283 253 0
-250 -253 283 0
-253 -283 250 0
-250 -284 254 0
-250 -254 284 0
-254 -284 250 0
-251 -285 252 0
-251 -252 285 0
-252 -285 251 0
-251 -286 253 0
-251 -253 286 0
-253 -286 251 0
-251 -287 254 0
-251 -254 287 0
-254 -287 251 0
-252 -288 253 0
-252 -253 288 0
-253 -288 252 0
-252 -289 254 0
-252 -254 289 0
-254 -289 252 0
-253 -254 290 0
-263 -255 256 0
263 -256 -255 0
255 -256 -263 0
-264 -255 257 0
264 -257 -255 0
255 -257 -264 0
-265 -255 258 0
265 -258 -255 0
255 -258 -265 0
-266 -255 259 0
266 -259 -255 0
255 -259 -266 0
-267 -255 260 0
267 -260 -255 0
255 -260 -267 0
-268 -255 261 0
268 -261 -255 0
255 -261 -268 0
-269 -255 262 0
269 -262 -255 0
255 -262 -269 0
-256 -270 257 0
-256 -257 270 0
-270 -257 256 0
-256 -271 258 0
-256 -258 271 0
-271 -258 256 0
-256 -272 259 0
-256 -259 272 0
-272 -259 256 0
-256 -273 260 0
-256 -260 273 0
-273 -260 256 0
-256 -274 261 0
-256 -261 274 0
-274 -261 256 0
-256 -275 262 0
-256 -262 275 0
-275 -262 256 0
-257 258 -276 0
-257 -258 276 0
-258 257 -276 0
-257 259 -277 0
-257 -259 277 0
-259 257 -277 0
-278 -257 260 0
-257 -260 278 0
-278 -260 257 0
-279 -257 261 0
-257 -261 279 0
-279 -261 257 0
-280 -257 262 0
-257 -262 280 0
-280 -262 257 0
-258 259 -281 0
-258 -259 281 0
-259 258 -281 0
-282 -258 260 0
-258 -260 282 0
-282 -260 258 0
-283 -258 261 0
-258 -261 283 0
-283 -261 258 0
-284 -258 262 0
-258 -262 284 0
-284 -262 258 0
-285 -259 260 0
-259 -260 285 0
-285 -260 259 0
-286 -259 261 0
-259 -261 286 0
-286 -261 259 0
-287 -259 262 0
-259 -262 287 0
-287 -262 259 0
-288 -260 261 0
-260 -261 288 0
-288 -261 260 0
-289 -260 262 0
-260 -262 289 0
-289 -262 260 0
-261 -262 290 0
264 -263 -270 0
-263 -264 270 0
263 -270 -264 0
265 -263 -271 0
-263 -265 271 0
266 -263 -272 0
-263 -266 272 0
263 -272 -266 0
267 -263 -273 0
-263 -267 273 0
263 -273 -267 0
268 -263 -274 0
263 -274 -268 0
269 -263 -275 0
263 -275 -269 0
265 -264 -276 0
-264 -265 276 0
264 -265 -276 0
266 -264 -277 0
-264 -266 277 0
264 -266 -277 0
267 -278 -264 0
-264 -267 278 0
264 -278 -267 0
268 -279 -264 0
-264 -268 279 0
264 -279 -268 0
269 -280 -264 0
-264 -269 280 0
264 -280 -269 0
266 -265 -281 0
-265 -266 281 0
265 -266 -281 0
267 -282 -265 0
-265 -267 282 0
265 -282 -267 0
268 -283 -265 0
-265 -268 283 0
265 -283 -268 0
269 -284 -265 0
-265 -269 284 0
265 -284 -269 0
267 -285 -266 0
-266 -267 285 0
266 -285 -267 0
268 -286 -266 0
-266 -268 286 0
266 -286 -268 0
269 -287 -266 0
-266 -269 287 0
266 -287 -269 0
268 -288 -267 0
-267 -268 288 0
267 -288 -268 0
269 -289 -267 0
-267 -269 289 0
267 -289 -269 0
-268 -269 290 0
-270 -276 271 0
-271 -270 276 0
-271 270 -276 0
-270 -277 272 0
-272 -270 277 0
-272 270 -277 0
-270 -278 273 0
-273 -270 278 0
-273 -278 270 0
-270 -279 274 0
-274 -270 279 0
-274 -279 270 0
-270 -280 275 0
-275 -270 280 0
-275 -280 270 0
-271 -281 272 0
-271 -272 281 0
-272 271 -281 0
-271 -282 273 0
-271 -273 282 0
-273 -282 271 0
-271 -283 274 0
-271 -274 283 0
-274 -283 271 0
-271 -284 275 0
-271 -275 284 0
-275 -284 271 0
-272 -285 273 0
-272 -273 285 0
-273 -285 272 0
-272 -286 274 0
-272 -274 286 0
-274 -286 272 0
-272 -287 275 0
-272 -275 287 0
-275 -287 272 0
-273 -288 274 0
-273 -274 288 0
-274 -288 273 0
-273 -289 275 0
-273 -275 289 0
-275 -289 273 0
-274 -275 290 0
-281 -276 277 0
-277 -276 281 0
-281 -277 276 0
-282 278 -276 0
-278 282 -276 0
-278 -282 276 0
-283 279 -276 0
-279 283 -276 0
-279 -283 276 0
-284 280 -276 0
-280 284 -276 0
-280 -284 276 0
-285 278 -277 0
-278 285 -277 0
-278 -285 277 0
-286 279 -277 0
-279 286 -277 0
-279 -286 277 0
-287 280 -277 0
-280 287 -277 0
-280 -287 277 0
-278 -288 279 0
-278 -279 288 0
-279 -288 278 0
-278 -289 280 0
-278 -280 289 0
-280 -289 278 0
-279 -280 290 0
-285 282 -281 0
-282 285 -281 0
-282 -285 281 0
-286 283 -281 0
-283 286 -281 0
-283 -286 281 0
-287 284 -281 0
-284 287 -281 0
-284 -287 281 0
-282 -288 283 0
-282 -283 288 0
-283 -288 282 0
-282 -289 284 0
-282 -284 289 0
-284 -289 282 0
-283 -284 290 0
-285 -288 286 0
-285 -286 288 0
-286 -288 285 0
-285 -289 287 0
-285 -287 289 0
-287 -289 285 0
-286 -287 290 0
-288 -289 290 0
-294 -302 291 0
-295 -303 291 0
-305 -297 291 0
-291 -306 298 0
-291 -298 306 0
-298 -306 291 0
-295 -310 292 0
-296 -311 292 0
-292 -313 298 0
-292 -298 313 0
-298 -313 292 0
293 -294 -315 0
293 -295 -316 0
293 -318 -297 0
-293 319 -298 0
293 -298 -319 0
-295 294 -321 0
-296 294 -322 0
-294 -297 323 0
-294 -324 298 0
-294 -298 324 0
-324 -298 294 0
-296 -295 326 0
-296 295 -326 0
-297 -295 327 0
-295 -328 298 0
-298 -295 328 0
-298 -328 295 0
-296 -297 330 0
-330 -297 296 0
-296 -331 298 0
-296 -298 331 0
-331 -298 296 0
-333 -297 298 0
-297 -298 333 0
-333 -298 297 0
-298 -335 299 0
-299 -335 298 0
-308 -300 301 0
-300 -309 302 0
-300 -302 309 0
-300 -303 310 0
-300 -311 304 0
-300 -304 311 0
-304 -311 300 0
-300 -312 305 0
-300 -305 312 0
-300 -313 306 0
-300 -306 313 0
-313 -306 300 0
301 -302 -315 0
301 -316 -303 0
301 -304 -317 0
-301 318 -305 0
301 -305 -318 0
-301 -319 306 0
-301 319 -306 0
301 -319 -306 0
-303 302 -321 0
-302 304 -322 0
-302 -304 322 0
-302 -305 323 0
-323 -305 302 0
-302 -324 306 0
-302 -306 324 0
-324 -306 302 0
-303 304 -326 0
-304 -303 326 0
-304 303 -326 0
-305 -303 327 0
-328 -303 306 0
-306 -303 328 0
-306 -328 303 0
-304 -331 306 0
-304 -306 331 0
-331 -306 304 0
-305 -333 306 0
-305 -306 333 0
-333 -306 305 0
-306 -335 307 0
-307 -335 306 0
-308 315 -309 0
-309 -315 308 0
-308 -318 312 0
-308 318 -312 0
-312 -318 308 0
-308 -319 313 0
-308 319 -313 0
-313 -319 308 0
-309 -310 321 0
-309 -312 323 0
-309 -324 313 0
-309 -313 324 0
-324 -313 309 0
-310 311 -326 0
-311 -310 326 0
-311 310 -326 0
-312 -310 327 0
-310 -328 313 0
-313 -310 328 0
-313 -328 310 0
-311 -312 330 0
-311 -331 313 0
-311 -313 331 0
-331 -313 311 0
-312 -333 313 0
-312 -313 333 0
-333 -313 312 0
-313 -335 314 0
-314 -335 313 0
316 -315 -321 0
-315 -316 321 0
-315 -317 322 0
-315 -318 323 0
319 -324 -315 0
-315 -319 324 0
315 -324 -319 0
317 -316 -326 0
-317 -316 326 0
316 -317 -326 0
-318 -316 327 0
319 -316 -328 0
-319 -316 328 0
316 -319 -328 0
-317 -318 330 0
319 -331 -317 0
-317 -319 331 0
317 -331 -319 0
319 -318 -333 0
-318 -319 333 0
318 -333 -319 0
320 -319 -335 0
-320 319 -335 0
-323 327 -321 0
-328 324 -321 0
-324 328 -321 0
-324 -328 321 0
-323 330 -322 0
-331 324 -322 0
-324 331 -322 0
-324 -331 322 0
-323 -333 324 0
-323 -324 333 0
-324 -333 323 0
-324 -335 325 0
-325 -335 324 0
-331 328 -326 0
-328 331 -326 0
-331 -328 326 0
-327 -333 328 0
-327 -328 333 0
-333 -328 327 0
-328 -335 329 0
-329 -335 328 0
-330 -333 331 0
-330 -331 333 0
-331 -333 330 0
-331 -335 332 0
-332 -335 331 0
-333 -335 334 0
-334 -335 333 0
-336 -345 337 0
-336 -337 345 0
-337 -345 336 0
338 -336 -346 0
346 -338 -336 0
-338 -346 336 0
339 -336 -347 0
-339 -336 347 0
-339 -347 336 0
-336 -348 340 0
-340 -336 348 0
-340 -348 336 0
-336 -349 341 0
-341 -336 349 0
-341 -349 336 0
-336 -350 342 0
-342 -336 350 0
-342 -350 336 0
-336 -351 343 0
-343 -336 351 0
-343 -351 336 0
-336 -352 344 0
-344 -336 352 0
-344 -352 336 0
338 -337 -353 0
-338 -337 353 0
-338 -353 337 0
339 -337 -354 0
-339 -337 354 0
-339 -354 337 0
-337 -355 340 0
-340 -337 355 0
-340 -355 337 0
-337 -356 341 0
-341 -337 356 0
-341 -356 337 0
-337 -357 342 0
-342 -337 357 0
-342 -357 337 0
-337 -358 343 0
-343 -337 358 0
-343 -358 337 0
-337 -359 344 0
-344 -337 359 0
-344 -359 337 0
339 -360 -338 0
-338 -339 360 0
338 -360 -339 0
-338 -361 340 0
-340 -338 361 0
338 -340 -361 0
-338 -362 341 0
-341 -338 362 0
338 -341 -362 0
-338 -363 342 0
-342 -338 363 0
338 -342 -363 0
-338 -364 343 0
-343 -338 364 0
338 -343 -364 0
-338 -365 344 0
-344 -338 365 0
338 -344 -365 0
-339 -366 340 0
366 -340 -339 0
339 -340 -366 0
-339 -367 341 0
367 -341 -339 0
339 -341 -367 0
-339 -368 342 0
368 -342 -339 0
339 -342 -368 0
-339 -369 343 0
369 -343 -339 0
339 -343 -369 0
-339 -370 344 0
370 -344 -339 0
339 -344 -370 0
-340 341 -371 0
-340 -341 371 0
-341 340 -371 0
-372 -340 342 0
-340 -342 372 0
-372 -342 340 0
-373 -340 343 0
-340 -343 373 0
-373 -343 340 0
-374 -340 344 0
-340 -344 374 0
-374 -344 340 0
-375 -341 342 0
-341 -342 375 0
-375 -342 341 0
-376 -341 343 0
-341 -343 376 0
-376 -343 341 0
-377 -341 344 0
-341 -344 377 0
-377 -344 341 0
-378 -342 343 0
-342 -343 378 0
-378 -343 342 0
-379 -342 344 0
-342 -344 379 0
-379 -344 342 0
-343 -344 380 0
346 -353 -345 0
-346 -345 353 0
-346 -353 345 0
-354 -345 347 0
-347 -345 354 0
-347 -354 345 0
-355 -345 348 0
-348 -345 355 0
-348 -355 345 0
-356 -345 349 0
-349 -345 356 0
-349 -356 345 0
-357 -345 350 0
-350 -345 357 0
-350 -357 345 0
-358 -345 351 0
-351 -345 358 0
-351 -358 345 0
-359 -345 352 0
-352 -345 359 0
-352 -359 345 0
-360 -346 347 0
-346 -347 360 0
346 -360 -347 0
-361 -346 348 0
-346 -348 361 0
346 -361 -348 0
-362 -346 349 0
-346 -349 362 0
346 -362 -349 0
-363 -346 350 0
-346 -350 363 0
346 -363 -350 0
-364 -346 351 0
-346 -351 364 0
346 -364 -351 0
-365 -346 352 0
-346 -352 365 0
346 -365 -352 0
-366 -347 348 0
366 -348 -347 0
-366 -348 347 0
-367 -347 349 0
367 -349 -347 0
-367 -349 347 0
-368 -347 350 0
368 -350 -347 0
-368 -350 347 0
-369 -347 351 0
369 -351 -347 0
-369 -351 347 0
-370 -347 352 0
370 -352 -347 0
-370 -352 347 0
-348 349 -371 0
-348 -349 371 0
-349 348 -371 0
-372 -348 350 0
-348 -350 372 0
-372 -350 348 0
-373 -348 351 0
-348 -351 373 0
-373 -351 348 0
-374 -348 352 0
-348 -352 374 0
-374 -352 348 0
-375 -349 350 0
-349 -350 375 0
-375 -350 349 0
-376 -349 351 0
-349 -351 376 0
-376 -351 349 0
-377 -349 352 0
-349 -352 377 0
-377 -352 349 0
-378 -350 351 0
-350 -351 378 0
-378 -351 350 0
-379 -350 352 0
-350 -352 379 0
-379 -352 350 0
-351 -352 380 0
-360 -353 354 0
-353 -354 360 0
-360 -354 353 0
-361 -353 355 0
-353 -355 361 0
-361 -355 353 0
-362 -353 356 0
-353 -356 362 0
-362 -356 353 0
-363 -353 357 0
-353 -357 363 0
-363 -357 353 0
-364 -353 358 0
-353 -358 364 0
-364 -358 353 0
-365 -353 359 0
-353 -359 365 0
-365 -359 353 0
-366 -354 355 0
366 -355 -354 0
-366 -355 354 0
-367 -354 356 0
367 -356 -354 0
-367 -356 354 0
-368 -354 357 0
368 -357 -354 0
-368 -357 354 0
-369 -354 358 0
369 -358 -354 0
-369 -358 354 0
-370 -354 359 0
370 -359 -354 0
-370 -359 354 0
-355 356 -371 0
-355 -356 371 0
-356 355 -371 0
-372 -355 357 0
-355 -357 372 0
-372 -357 355 0
-373 -355 358 0
-355 -358 373 0
-373 -358 355 0
-374 -355 359 0
-355 -359 374 0
-374 -359 355 0
-375 -356 357 0
-356 -357 375 0
-375 -357 356 0
-376 -356 358 0
-356 -358 376 0
-376 -358 356 0
-377 -356 359 0
-356 -359 377 0
-377 -359 356 0
-378 -357 358 0
-357 -358 378 0
-378 -358 357 0
-379 -357 359 0
-357 -359 379 0
-379 -359 357 0
-358 -359 380 0
-360 -366 361 0
366 -360 -361 0
-361 -366 360 0
-360 -367 362 0
367 -360 -362 0
-362 -367 360 0
-360 -368 363 0
368 -360 -363 0
-363 -368 360 0
-360 -369 364 0
369 -360 -364 0
-364 -369 360 0
-360 -370 365 0
370 -360 -365 0
-365 -370 360 0
-361 362 -371 0
-361 -362 371 0
-362 361 -371 0
-372 -361 363 0
-361 -363 372 0
-372 -363 361 0
-373 -361 364 0
-361 -364 373 0
-374 -361 365 0
-361 -365 374 0
-375 -362 363 0
-362 -363 375 0
-375 -363 362 0
-376 -362 364 0
-362 -364 376 0
-377 -362 365 0
-362 -365 377 0
-377 -365 362 0
-378 -363 364 0
-363 -364 378 0
-378 -364 363 0
-379 -363 365 0
-363 -365 379 0
-379 -365 363 0
-364 -365 380 0
367 -366 -371 0
-366 -367 371 0
366 -367 -371 0
-366 -368 372 0
366 -372 -368 0
369 -373 -366 0
-366 -369 373 0
366 -373 -369 0
370 -374 -366 0
-366 -370 374 0
366 -374 -370 0
368 -375 -367 0
-367 -368 375 0
367 -375 -368 0
369 -376 -367 0
-367 -369 376 0
367 -376 -369 0
370 -377 -367 0
-367 -370 377 0
367 -377 -370 0
369 -378 -368 0
-368 -369 378 0
368 -378 -369 0
370 -379 -368 0
-368 -370 379 0
368 -379 -370 0
-369 -370 380 0
-375 372 -371 0
-372 375 -371 0
-372 -375 371 0
-376 373 -371 0
-373 376 -371 0
-373 -376 371 0
-377 374 -371 0
-374 377 -371 0
-374 -377 371 0
-372 -378 373 0
-372 -373 378 0
-373 -378 372 0
-372 -379 374 0
-372 -374 379 0
-374 -379 372 0
-373 -374 380 0
-375 -378 376 0
-375 -376 378 0
-376 -378 375 0
-375 -379 377 0
-375 -377 379 0
-377 -379 375 0
-376 -377 380 0
-378 -379 380 0
-381 -390 382 0
-381 -382 390 0
-382 -390 381 0
-381 -391 383 0
-383 -381 391 0
-383 -391 381 0
-381 -392 384 0
-384 -381 392 0
-384 -392 381 0
385 -381 -393 0
-385 -381 393 0
-385 -393 381 0
-381 -394 386 0
-386 -381 394 0
-386 -394 381 0
-381 -395 387 0
-387 -381 395 0
-387 -395 381 0
-381 -396 388 0
-388 -381 396 0
-388 -396 381 0
-381 -397 389 0
-389 -381 397 0
-389 -397 381 0
-382 -398 383 0
-383 -382 398 0
-383 -398 382 0
-382 -399 384 0
-384 -382 399 0
-384 -399 382 0
385 -382 -400 0
-385 -382 400 0
-385 -400 382 0
-382 -401 386 0
-386 -382 401 0
-386 -401 382 0
-382 -402 387 0
-387 -382 402 0
-387 -402 382 0
-382 -403 388 0
-388 -382 403 0
-388 -403 382 0
-382 -404 389 0
-389 -382 404 0
-389 -404 382 0
-405 -383 384 0
-383 -384 405 0
-405 -384 383 0
385 -406 -383 0
-383 -385 406 0
-406 -385 383 0
-383 -407 386 0
-386 -383 407 0
-386 -407 383 0
-383 -408 387 0
-387 -383 408 0
-387 -408 383 0
-383 -409 388 0
-388 -383 409 0
-388 -409 383 0
-383 -410 389 0
-389 -383 410 0
-389 -410 383 0
385 -411 -384 0
-384 -385 411 0
-411 -385 384 0
-384 -412 386 0
-386 -384 412 0
-386 -412 384 0
-384 -413 387 0
-387 -384 413 0
-387 -413 384 0
-384 -414 388 0
-388 -384 414 0
-384 -415 389 0
-389 -384 415 0
-389 -415 384 0
-385 386 -416 0
416 -386 -385 0
385 -386 -416 0
-385 -417 387 0
417 -387 -385 0
385 -387 -417 0
-385 -418 388 0
418 -388 -385 0
385 -388 -418 0
-385 389 -419 0
419 -389 -385 0
385 -389 -419 0
-420 -386 387 0
-386 -387 420 0
-420 -387 386 0
-421 -386 388 0
-386 -388 421 0
-421 -388 386 0
-422 -386 389 0
-386 -389 422 0
-422 -389 386 0
-423 -387 388 0
-388 -387 423 0
-423 -388 387 0
-424 -387 389 0
-389 -387 424 0
-424 -389 387 0
-388 -389 425 0
-398 -390 391 0
-391 -390 398 0
-391 -398 390 0
-399 -390 392 0
-392 -390 399 0
-392 -399 390 0
-400 -390 393 0
-393 -390 400 0
-393 -400 390 0
-401 -390 394 0
-394 -390 401 0
-401 -394 390 0
-402 -390 395 0
-395 -390 402 0
-395 -402 390 0
-403 -390 396 0
-396 -390 403 0
-396 -403 390 0
-404 -390 397 0
-397 -390 404 0
-397 -404 390 0
-405 -391 392 0
-391 -392 405 0
-405 -392 391 0
-406 -391 393 0
-391 -393 406 0
-406 -393 391 0
-407 -391 394 0
-391 -394 407 0
-407 -394 391 0
-408 -391 395 0
-391 -395 408 0
-408 -395 391 0
-409 -391 396 0
-391 -396 409 0
-409 -396 391 0
-410 -391 397 0
-391 -397 410 0
-410 -397 391 0
-411 -392 393 0
-392 -393 411 0
-411 -393 392 0
-412 -392 394 0
-392 -394 412 0
-412 -394 392 0
-413 -392 395 0
-392 -395 413 0
-413 -395 392 0
-414 -392 396 0
-392 -396 414 0
-414 -396 392 0
-415 -392 397 0
-392 -397 415 0
-415 -397 392 0
-393 394 -416 0
-394 393 -416 0
-417 -393 395 0
417 -395 -393 0
-417 -395 393 0
-418 -393 396 0
-418 -396 393 0
-393 397 -419 0
419 -397 -393 0
-397 393 -419 0
-420 -394 395 0
-394 -395 420 0
-420 -395 394 0
-421 -394 396 0
-394 -396 421 0
-421 -396 394 0
-422 -394 397 0
-394 -397 422 0
-422 -397 394 0
-423 -395 396 0
-395 -396 423 0
-423 -396 395 0
-424 -395 397 0
-395 -397 424 0
-424 -397 395 0
-396 -397 425 0
-405 -398 399 0
-398 -399 405 0
-405 -399 398 0
-406 -398 400 0
-398 -400 406 0
-406 -400 398 0
-407 -398 401 0
-398 -401 407 0
-407 -401 398 0
-408 -398 402 0
-398 -402 408 0
-408 -402 398 0
-409 -398 403 0
-398 -403 409 0
-409 -403 398 0
-410 -398 404 0
-398 -404 410 0
-410 -404 398 0
-411 -399 400 0
-399 -400 411 0
-411 -400 399 0
-412 -399 401 0
-399 -401 412 0
-412 -401 399 0
-413 -399 402 0
-399 -402 413 0
-413 -402 399 0
-414 -399 403 0
-399 -403 414 0
-414 -403 399 0
-415 -399 404 0
-399 -404 415 0
-415 -404 399 0
-400 401 -416 0
416 -401 -400 0
-401 400 -416 0
-417 -400 402 0
417 -402 -400 0
-417 -402 400 0
-418 -400 403 0
418 -403 -400 0
-418 -403 400 0
-400 404 -419 0
419 -404 -400 0
-420 -401 402 0
-401 -402 420 0
-420 -402 401 0
-421 -401 403 0
-401 -403 421 0
-421 -403 401 0
-422 -401 404 0
-401 -404 422 0
-422 -404 401 0
-423 -402 403 0
-402 -403 423 0
-423 -403 402 0
-424 -402 404 0
-402 -404 424 0
-424 -404 402 0
-403 -404 425 0
-411 -405 406 0
-405 -406 411 0
-411 -406 405 0
-405 -412 407 0
-405 -407 412 0
-407 -412 405 0
-405 -413 408 0
-405 -408 413 0
-408 -413 405 0
-405 -414 409 0
-405 -409 414 0
-409 -414 405 0
-405 -415 410 0
-405 -410 415 0
-410 -415 405 0
-406 407 -416 0
416 -406 -407 0
-407 406 -416 0
-406 -417 408 0
417 -406 -408 0
-408 -417 406 0
-406 -418 409 0
418 -406 -409 0
-406 410 -419 0
419 -406 -410 0
-410 406 -419 0
-420 -407 408 0
-407 -408 420 0
-420 -408 407 0
-421 -407 409 0
-407 -409 421 0
-421 -409 407 0
-422 -407 410 0
-407 -410 422 0
-422 -410 407 0
-423 -408 409 0
-408 -409 423 0
-423 -409 408 0
-424 -408 410 0
-408 -410 424 0
-424 -410 408 0
-409 -410 425 0
-411 412 -416 0
416 -411 -412 0
-412 411 -416 0
419 -411 -415 0
-415 411 -419 0
-420 -412 413 0
-412 -413 420 0
-420 -413 412 0
-421 -412 414 0
-412 -414 421 0
-422 -412 415 0
-412 -415 422 0
-422 -415 412 0
-424 -413 415 0
-413 -415 424 0
-424 -415 413 0
-414 -415 425 0
-417 420 -416 0
418 -421 -416 0
419 -422 -416 0
419 -424 -417 0
-417 424 -419 0
417 -424 -419 0
-418 425 -419 0
-420 -423 421 0
-420 -421 423 0
-421 -423 420 0
-420 -424 422 0
-420 -422 424 0
-422 -424 420 0
-421 -422 425 0
-423 -424 425 0
-426 -435 427 0
-426 -427 435 0
-427 -435 426 0
-426 -436 428 0
-428 -426 436 0
-428 -436 426 0
-426 -437 429 0
-429 -426 437 0
-429 -437 426 0
-426 -438 430 0
-430 -426 438 0
-430 -438 426 0
431 -426 -439 0
-431 -426 439 0
-431 -439 426 0
-426 -440 432 0
-432 -426 440 0
-432 -440 426 0
-426 -441 433 0
-433 -426 441 0
-433 -441 426 0
-426 -442 434 0
-434 -426 442 0
-434 -442 426 0
-427 -443 428 0
-428 -427 443 0
-428 -443 427 0
-427 -444 429 0
-429 -427 444 0
-429 -444 427 0
-427 -445 430 0
-430 -427 445 0
-430 -445 427 0
431 -427 -446 0
-431 -427 446 0
-431 -446 427 0
-427 -447 432 0
-432 -427 447 0
-432 -447 427 0
-427 -448 433 0
-433 -427 448 0
-433 -448 427 0
-427 -449 434 0
-434 -427 449 0
-434 -449 427 0
-450 -428 429 0
-428 -429 450 0
-450 -429 428 0
-451 -428 430 0
-428 -430 451 0
-451 -430 428 0
431 -452 -428 0
-428 -431 452 0
-452 -431 428 0
-428 -453 432 0
-432 -428 453 0
-432 -453 428 0
-428 -454 433 0
-433 -428 454 0
-433 -454 428 0
-428 -455 434 0
-434 -428 455 0
-434 -455 428 0
-456 -429 430 0
-429 -430 456 0
-456 -430 429 0
431 -457 -429 0
-429 -431 457 0
-457 -431 429 0
-429 -458 432 0
-432 -429 458 0
-432 -458 429 0
-429 -459 433 0
-433 -429 459 0
-433 -459 429 0
-429 -460 434 0
-434 -429 460 0
-434 -460 429 0
431 -430 -461 0
-430 -431 461 0
-431 430 -461 0
-430 -462 432 0
-432 -430 462 0
-432 -462 430 0
-430 -463 433 0
-433 -430 463 0
-433 -463 430 0
-430 -464 434 0
-434 -430 464 0
-434 -464 430 0
-431 -465 432 0
465 -432 -431 0
431 -432 -465 0
-431 -466 433 0
466 -433 -431 0
431 -433 -466 0
-431 -467 434 0
467 -434 -431 0
431 -434 -467 0
-468 -432 433 0
-433 -432 468 0
-468 -433 432 0
-469 -432 434 0
-434 -432 469 0
-469 -434 432 0
-433 -434 470 0
-443 -435 436 0
-436 -435 443 0
-436 -443 435 0
-444 -435 437 0
-437 -435 444 0
-437 -444 435 0
-445 -435 438 0
-438 -435 445 0
-445 -438 435 0
-446 -435 439 0
-439 -435 446 0
-439 -446 435 0
-447 -435 440 0
-440 -435 447 0
-440 -447 435 0
-448 -435 441 0
-441 -435 448 0
-441 -448 435 0
-449 -435 442 0
-442 -435 449 0
-442 -449 435 0
-450 -436 437 0
-436 -437 450 0
-450 -437 436 0
-451 -436 438 0
-436 -438 451 0
-451 -438 436 0
-452 -436 439 0
-436 -439 452 0
-452 -439 436 0
-453 -436 440 0
-436 -440 453 0
-453 -440 436 0
-454 -436 441 0
-436 -441 454 0
-454 -441 436 0
-455 -436 442 0
-436 -442 455 0
-455 -442 436 0
-456 -437 438 0
-437 -438 456 0
-456 -438 437 0
-457 -437 439 0
-437 -439 457 0
-457 -439 437 0
-458 -437 440 0
-437 -440 458 0
-458 -440 437 0
-459 -437 441 0
-437 -441 459 0
-459 -441 437 0
-460 -437 442 0
-437 -442 460 0
-460 -442 437 0
-438 439 -461 0
-438 -439 461 0
-439 438 -461 0
-462 -438 440 0
-438 -440 462 0
-462 -440 438 0
-463 -438 441 0
-438 -441 463 0
-463 -441 438 0
-464 -438 442 0
-438 -442 464 0
-464 -442 438 0
-465 -439 440 0
-465 -440 439 0
-466 -439 441 0
-466 -441 439 0
-467 -439 442 0
-468 -440 441 0
-440 -441 468 0
-468 -441 440 0
-469 -440 442 0
-440 -442 469 0
-469 -442 440 0
-441 -442 470 0
-450 -443 444 0
-443 -444 450 0
-450 -444 443 0
-451 -443 445 0
-443 -445 451 0
-451 -445 443 0
-452 -443 446 0
-443 -446 452 0
-452 -446 443 0
-453 -443 447 0
-443 -447 453 0
-453 -447 443 0
-454 -443 448 0
-443 -448 454 0
-454 -448 443 0
-455 -443 449 0
-443 -449 455 0
-455 -449 443 0
-456 -444 445 0
-444 -445 456 0
-456 -445 444 0
-457 -444 446 0
-444 -446 457 0
-457 -446 444 0
-458 -444 447 0
-444 -447 458 0
-458 -447 444 0
-459 -444 448 0
-444 -448 459 0
-459 -448 444 0
-460 -444 449 0
-444 -449 460 0
-460 -449 444 0
-445 446 -461 0
-445 -446 461 0
-446 445 -461 0
-462 -445 447 0
-445 -447 462 0
-462 -447 445 0
-463 -445 448 0
-445 -448 463 0
-463 -448 445 0
-464 -445 449 0
-445 -449 464 0
-464 -449 445 0
-465 -446 447 0
-465 -447 446 0
-466 -446 448 0
-466 -448 446 0
-467 -446 449 0
-467 -449 446 0
-468 -447 448 0
-447 -448 468 0
-468 -448 447 0
-469 -447 449 0
-447 -449 469 0
-469 -449 447 0
-448 -449 470 0
-456 -450 451 0
-450 -451 456 0
-456 -451 450 0
-457 -450 452 0
-450 -452 457 0
-457 -452 450 0
-450 -458 453 0
-450 -453 458 0
-453 -458 450 0
-450 -459 454 0
-450 -454 459 0
-454 -459 450 0
-450 -460 455 0
-450 -455 460 0
-455 -460 450 0
-451 452 -461 0
-451 -452 461 0
-452 451 -461 0
-451 -462 453 0
-451 -453 462 0
-453 -462 451 0
-451 -463 454 0
-451 -454 463 0
-454 -463 451 0
-451 -464 455 0
-451 -455 464 0
-455 -464 451 0
-452 -465 453 0
465 -452 -453 0
-453 -465 452 0
-454 -466 452 0
-452 -467 455 0
467 -452 -455 0
-455 -467 452 0
-468 -453 454 0
-453 -454 468 0
-468 -454 453 0
-469 -453 455 0
-453 -455 469 0
-469 -455 453 0
-454 -455 470 0
-456 -461 457 0
-456 -457 461 0
-457 456 -461 0
-458 -462 456 0
-456 -463 459 0
-456 -459 463 0
-460 -464 456 0
-457 -465 458 0
465 -457 -458 0
-458 -465 457 0
-459 -466 457 0
-457 -467 460 0
467 -457 -460 0
-460 -467 457 0
-468 -458 459 0
-468 -459 458 0
-469 -458 460 0
-458 -460 469 0
-469 -460 458 0
-459 -460 470 0
-465 462 -461 0
-462 -465 461 0
-463 -466 461 0
-467 464 -461 0
-464 -467 461 0
-462 -463 468 0
-468 -463 462 0
-463 -464 470 0
-465 -466 468 0
465 -469 -467 0
-466 -467 470 0
-468 -469 470 0
-471 -480 472 0
-472 -471 480 0
-472 -480 471 0
-471 -481 473 0
-473 -471 481 0
-473 -481 471 0
-471 -482 474 0
-474 -471 482 0
-474 -482 471 0
-471 -483 475 0
-475 -471 483 0
-475 -483 471 0
-471 -484 476 0
-476 -471 484 0
-476 -484 471 0
477 -471 -485 0
-477 -471 485 0
-477 -485 471 0
-471 -486 478 0
-478 -471 486 0
-478 -486 471 0
-471 -487 479 0
-479 -471 487 0
-479 -487 471 0
-472 -488 473 0
-473 -472 488 0
-473 -488 472 0
-472 -489 474 0
-474 -472 489 0
-474 -489 472 0
-472 -490 475 0
-475 -472 490 0
-475 -490 472 0
-472 -491 476 0
-476 -472 491 0
-476 -491 472 0
477 -472 -492 0
-477 -472 492 0
-477 -492 472 0
-472 -493 478 0
-478 -472 493 0
-472 -494 479 0
-479 -472 494 0
-495 -473 474 0
-473 -474 495 0
-495 -474 473 0
-496 -473 475 0
-473 -475 496 0
-496 -475 473 0
-497 -473 476 0
-473 -476 497 0
-497 -476 473 0
477 -498 -473 0
-473 -477 498 0
-498 -477 473 0
-473 -499 478 0
-478 -473 499 0
-478 -499 473 0
-473 -500 479 0
-479 -473 500 0
-479 -500 473 0
-474 -475 501 0
-501 -475 474 0
-502 -474 476 0
-474 -476 502 0
-502 -476 474 0
-474 -477 503 0
-503 -477 474 0
-474 -505 479 0
-479 -505 474 0
-475 476 -506 0
-475 -476 506 0
477 -475 -507 0
-475 -477 507 0
-477 475 -507 0
-476 -477 510 0
-477 476 -510 0
-476 -511 478 0
-476 -512 479 0
-477 -513 478 0
-477 -514 479 0
-488 -480 481 0
-481 -480 488 0
-481 -488 480 0
-489 -480 482 0
-482 -480 489 0
-482 -489 480 0
-490 -480 483 0
-483 -480 490 0
-490 -483 480 0
-491 -480 484 0
-484 -480 491 0
-484 -491 480 0
-492 -480 485 0
-485 -480 492 0
-485 -492 480 0
-493 -480 486 0
-486 -480 493 0
-486 -493 480 0
-494 -480 487 0
-487 -480 494 0
-487 -494 480 0
-495 -481 482 0
-481 -482 495 0
-495 -482 481 0
-496 -481 483 0
-481 -483 496 0
-496 -483 481 0
-497 -481 484 0
-481 -484 497 0
-497 -484 481 0
-498 -481 485 0
-481 -485 498 0
-498 -485 481 0
-499 -481 486 0
-481 -486 499 0
-499 -486 481 0
-500 -481 487 0
-481 -487 500 0
-500 -487 481 0
-482 -483 501 0
-501 -483 482 0
-502 -482 484 0
-482 -484 502 0
-502 -484 482 0
-503 -482 485 0
-482 -485 503 0
-503 -485 482 0
-504 -482 486 0
-482 -486 504 0
-504 -486 482 0
-505 -482 487 0
-482 -487 505 0
-505 -487 482 0
-483 484 -506 0
-483 -484 506 0
-484 483 -506 0
-483 485 -507 0
-483 -485 507 0
-485 483 -507 0
-508 -483 486 0
-483 -486 508 0
-509 -483 487 0
-483 -487 509 0
-509 -487 483 0
-484 485 -510 0
-484 -485 510 0
-485 484 -510 0
-484 -486 511 0
-484 -487 512 0
-512 -487 484 0
-513 -485 486 0
-514 -485 487 0
514 -487 -485 0
-514 -487 485 0
-486 -487 515 0
-495 -488 489 0
-488 -489 495 0
-495 -489 488 0
-496 -488 490 0
-488 -490 496 0
-496 -490 488 0
-497 -488 491 0
-488 -491 497 0
-497 -491 488 0
-498 -488 492 0
-488 -492 498 0
-498 -492 488 0
-499 -488 493 0
-488 -493 499 0
-499 -493 488 0
-500 -488 494 0
-488 -494 500 0
-500 -494 488 0
-501 -489 490 0
-489 -490 501 0
-501 -490 489 0
-502 -489 491 0
-489 -491 502 0
-502 -491 489 0
-489 -492 503 0
-503 -492 489 0
-489 -493 504 0
-505 -489 494 0
-489 -494 505 0
-505 -494 489 0
-490 491 -506 0
-490 -491 506 0
-491 490 -506 0
-490 -492 507 0
-492 490 -507 0
-490 -493 508 0
-490 -494 509 0
-509 -494 490 0
-491 492 -510 0
-491 -492 510 0
-492 491 -510 0
-491 -493 511 0
-514 -492 494 0
-514 -494 492 0
-493 -494 515 0
-501 -495 496 0
-495 -496 501 0
-501 -496 495 0
-502 -495 497 0
-495 -497 502 0
-502 -497 495 0
-503 -495 498 0
-495 -498 503 0
-503 -498 495 0
-495 -504 499 0
-495 -499 504 0
-499 -504 495 0
-495 -505 500 0
-495 -500 505 0
-500 -505 495 0
-496 497 -506 0
-497 -496 506 0
-497 496 -506 0
-496 498 -507 0
-496 -498 507 0
-498 496 -507 0
-496 -499 508 0
-496 -509 500 0
-496 -500 509 0
-500 -509 496 0
-497 498 -510 0
-497 -498 510 0
-498 497 -510 0
-497 -512 500 0
-497 -500 512 0
-498 -513 499 0
-498 -514 500 0
-499 -500 515 0
-505 -509 501 0
-503 502 -510 0
-505 -512 502 0
-504 -505 515 0
-509 -514 507 0
-516 -525 517 0
-516 -517 525 0
-517 -525 516 0
-516 -526 518 0
-518 -516 526 0
-518 -526 516 0
-516 -527 519 0
-519 -516 527 0
-519 -527 516 0
-516 -528 520 0
-520 -516 528 0
-520 -528 516 0
-516 -529 521 0
-521 -516 529 0
-521 -529 516 0
-516 -530 522 0
-522 -516 530 0
-522 -530 516 0
523 -516 -531 0
-523 -531 516 0
-516 -532 524 0
-524 -516 532 0
-524 -532 516 0
-517 -533 518 0
-518 -517 533 0
-518 -533 517 0
-517 -534 519 0
-519 -517 534 0
-519 -534 517 0
-517 -535 520 0
-520 -535 517 0
-521 -517 536 0
-521 -536 517 0
-517 -537 522 0
-522 -517 537 0
-522 -537 517 0
523 -517 -538 0
-523 -517 538 0
-523 -538 517 0
-517 -539 524 0
-524 -517 539 0
-524 -539 517 0
-540 -518 519 0
-518 -519 540 0
-540 -519 518 0
-541 -518 520 0
-541 -520 518 0
-542 -518 521 0
-518 -521 542 0
-542 -521 518 0
-543 -518 522 0
-518 -522 543 0
-543 -522 518 0
523 -544 -518 0
-518 -523 544 0
-544 -523 518 0
-524 -518 545 0
-524 -545 518 0
-546 -519 520 0
-519 -520 546 0
-546 -520 519 0
-547 -519 521 0
-519 -521 547 0
-547 -521 519 0
-548 -519 522 0
-519 -522 548 0
-548 -522 519 0
523 -549 -519 0
-519 -523 549 0
-549 -523 519 0
-519 -550 524 0
-524 -550 519 0
-520 521 -551 0
-520 -521 551 0
-521 520 -551 0
-520 522 -552 0
-520 -522 552 0
-522 520 -552 0
523 -553 -520 0
-520 -523 553 0
-520 -554 524 0
-524 -520 554 0
-524 -554 520 0
-521 522 -555 0
-521 -522 555 0
-522 521 -555 0
-521 -523 556 0
-521 -557 524 0
523 -558 -522 0
-522 -523 558 0
-522 -559 524 0
-524 -559 522 0
-523 -560 524 0
-533 -525 526 0
-526 -525 533 0
-526 -533 525 0
-534 -525 527 0
-527 -525 534 0
-527 -534 525 0
-535 -525 528 0
-528 -525 535 0
-535 -528 525 0
-536 -525 529 0
-529 -525 536 0
-537 -525 530 0
-530 -525 537 0
-530 -537 525 0
-538 -525 531 0
-531 -525 538 0
-531 -538 525 0
-539 -525 532 0
-532 -525 539 0
-532 -539 525 0
-540 -526 527 0
-526 -527 540 0
-540 -527 526 0
-541 -526 528 0
-526 -528 541 0
-541 -528 526 0
-526 -529 542 0
-542 -529 526 0
-526 -530 543 0
-543 -530 526 0
-544 -526 531 0
-526 -531 544 0
-544 -531 526 0
-545 -526 532 0
-526 -532 545 0
-545 -532 526 0
-546 -527 528 0
-527 -528 546 0
-546 -528 527 0
-547 -527 529 0
-527 -529 547 0
-547 -529 527 0
-548 -527 530 0
-527 -530 548 0
-548 -530 527 0
-549 -527 531 0
-527 -531 549 0
-549 -531 527 0
-550 -527 532 0
-550 -532 527 0
-528 529 -551 0
-528 -529 551 0
-529 528 -551 0
-528 530 -552 0
-528 -530 552 0
-530 528 -552 0
-528 -531 553 0
-553 -531 528 0
-528 -532 554 0
-554 -532 528 0
-529 530 -555 0
-530 529 -555 0
-556 -529 531 0
-529 -531 556 0
-556 -531 529 0
-557 -532 529 0
-558 -530 531 0
-530 -531 558 0
-558 -531 530 0
-559 -530 532 0
-559 -532 530 0
-560 -531 532 0
-560 -532 531 0
-540 -533 534 0
-533 -534 540 0
-540 -534 533 0
-541 -533 535 0
-533 -535 541 0
-541 -535 533 0
-542 -533 536 0
-533 -536 542 0
-542 -536 533 0
-543 -533 537 0
-533 -537 543 0
-543 -537 533 0
-544 -533 538 0
-533 -538 544 0
-544 -538 533 0
-545 -533 539 0
-533 -539 545 0
-545 -539 533 0
-546 -534 535 0
-534 -535 546 0
-546 -535 534 0
-547 -534 536 0
-534 -536 547 0
-547 -536 534 0
-548 -534 537 0
-534 -537 548 0
-548 -537 534 0
-549 -534 538 0
-534 -538 549 0
-549 -538 534 0
-550 -534 539 0
-534 -539 550 0
-550 -539 534 0
-535 536 -551 0
-535 -536 551 0
-536 535 -551 0
-535 537 -552 0
-535 -537 552 0
-537 535 -552 0
-535 -538 553 0
-553 -538 535 0
-554 -535 539 0
-535 -539 554 0
-554 -539 535 0
-536 537 -555 0
-536 -537 555 0
-537 536 -555 0
-536 -538 556 0
-556 -538 536 0
-557 -539 536 0
-558 -537 538 0
-537 -538 558 0
-558 -538 537 0
-559 -537 539 0
-537 -539 559 0
-559 -539 537 0
-560 -538 539 0
560 -538 -539 0
-546 -540 541 0
-540 -541 546 0
-546 -541 540 0
-547 -540 542 0
-540 -542 547 0
-547 -542 540 0
-548 -540 543 0
-540 -543 548 0
-548 -543 540 0
-549 -540 544 0
-540 -544 549 0
-549 -544 540 0
-540 -550 545 0
-540 -545 550 0
-545 -550 540 0
-541 542 -551 0
-541 -542 551 0
-542 541 -551 0
-541 543 -552 0
-541 -543 552 0
-543 541 -552 0
-553 -541 544 0
-541 -544 553 0
-553 -544 541 0
-545 -554 541 0
-542 543 -555 0
-542 -543 555 0
-543 542 -555 0
-556 -542 544 0
-542 -544 556 0
-542 -557 545 0
-542 -545 557 0
-545 -557 542 0
-558 -543 544 0
-544 -543 558 0
-558 -544 543 0
-543 -559 545 0
-543 -545 559 0
-545 -559 543 0
-544 -560 545 0
-545 -560 544 0
-546 -551 547 0
-546 -547 551 0
-547 546 -551 0
-546 -552 548 0
-546 -548 552 0
-548 546 -552 0
-546 -553 549 0
-546 -549 553 0
-549 -553 546 0
-546 -554 550 0
-546 -550 554 0
-550 -554 546 0
-547 -555 548 0
-547 -548 555 0
-548 547 -555 0
-547 -556 549 0
-547 -549 556 0
-549 -556 547 0
-547 -550 557 0
-550 -557 547 0
-548 -558 549 0
-548 -549 558 0
-549 -558 548 0
-548 -559 550 0
-548 -550 559 0
-550 -559 548 0
-549 -560 550 0
-550 -560 549 0
-555 -551 552 0
-552 -551 555 0
-555 -552 551 0
-556 553 -551 0
-553 556 -551 0
-553 -556 551 0
-557 554 -551 0
-554 -557 551 0
-558 553 -552 0
-553 558 -552 0
-553 -558 552 0
-559 554 -552 0
-554 -560 553 0
-558 556 -555 0
-556 558 -555 0
-556 -558 555 0
-557 -559 555 0
-557 -560 556 0
560 -558 -559 0
-559 -560 558 0
-570 -561 562 0
-562 -561 570 0
-562 -570 561 0
-571 -561 563 0
-563 -561 571 0
-563 -571 561 0
-572 -561 564 0
-564 -561 572 0
-564 -572 561 0
-573 -561 565 0
-565 -561 573 0
-565 -573 561 0
-574 -561 566 0
-566 -561 574 0
-566 -574 561 0
-575 -561 567 0
-567 -561 575 0
-567 -575 561 0
-576 -561 568 0
-568 -561 576 0
-568 -576 561 0
-578 -562 563 0
-562 -563 578 0
-578 -563 562 0
-579 -562 564 0
-562 -564 579 0
-579 -564 562 0
-580 -562 565 0
-562 -565 580 0
-580 -565 562 0
-581 -562 566 0
-562 -566 581 0
-581 -566 562 0
-582 -562 567 0
-562 -567 582 0
-582 -567 562 0
-583 -562 568 0
-562 -568 583 0
-583 -568 562 0
569 -584 -562 0
-562 -569 584 0
-584 -569 562 0
-585 -563 564 0
-563 -564 585 0
-585 -564 563 0
-586 -563 565 0
-563 -565 586 0
-586 -565 563 0
-587 -563 566 0
-563 -566 587 0
-587 -566 563 0
-588 -563 567 0
-563 -567 588 0
-588 -567 563 0
-589 -563 568 0
-563 -568 589 0
-589 -568 563 0
569 -590 -563 0
-563 -569 590 0
-591 -564 565 0
-564 -565 591 0
-591 -565 564 0
-592 -564 566 0
-564 -566 592 0
-592 -566 564 0
-593 -564 567 0
-564 -567 593 0
-593 -567 564 0
-594 -564 568 0
-564 -568 594 0
-594 -568 564 0
-564 -569 595 0
-595 -569 564 0
-565 566 -596 0
-565 -566 596 0
-566 565 -596 0
-565 567 -597 0
-565 -567 597 0
-567 565 -597 0
-598 -565 568 0
-565 -568 598 0
-598 -568 565 0
-565 -569 599 0
-599 -569 565 0
-566 567 -600 0
-566 -567 600 0
-567 566 -600 0
-601 -566 568 0
-566 -568 601 0
569 -602 -566 0
-566 -569 602 0
-602 -569 566 0
-603 -567 568 0
-568 -567 603 0
569 -604 -567 0
-569 -567 604 0
-604 -569 567 0
569 -605 -568 0
-568 -569 605 0
-605 -569 568 0
-578 -570 571 0
-570 -571 578 0
-578 -571 570 0
-579 -570 572 0
-570 -572 579 0
-579 -572 570 0
-580 -570 573 0
-570 -573 580 0
-580 -573 570 0
-581 -570 574 0
-570 -574 581 0
-581 -574 570 0
-582 -570 575 0
-570 -575 582 0
-582 -575 570 0
-583 -570 576 0
-570 -576 583 0
-583 -576 570 0
-584 -570 577 0
-570 -577 584 0
-585 -571 572 0
-571 -572 585 0
-585 -572 571 0
-586 -571 573 0
-571 -573 586 0
-586 -573 571 0
-587 -571 574 0
-571 -574 587 0
-587 -574 571 0
-588 -571 575 0
-571 -575 588 0
-588 -575 571 0
-589 -571 576 0
-571 -576 589 0
-589 -576 571 0
-590 -571 577 0
-571 -577 590 0
-591 -572 573 0
-572 -573 591 0
-591 -573 572 0
-592 -572 574 0
-572 -574 592 0
-592 -574 572 0
-593 -572 575 0
-572 -575 593 0
-593 -575 572 0
-594 -572 576 0
-572 -576 594 0
-594 -576 572 0
-595 -572 577 0
-572 -577 595 0
-573 574 -596 0
-573 -574 596 0
-574 573 -596 0
-573 575 -597 0
-573 -575 597 0
-575 573 -597 0
-598 -573 576 0
-573 -576 598 0
-598 -576 573 0
-573 -577 599 0
-599 -577 573 0
-574 575 -600 0
-574 -575 600 0
-575 574 -600 0
-601 -574 576 0
-574 -576 601 0
-601 -576 574 0
-602 -574 577 0
-602 -577 574 0
-603 -575 576 0
-576 -575 603 0
-603 -576 575 0
-604 -577 575 0
-576 -577 605 0
-578 -585 579 0
-578 -579 585 0
-579 -585 578 0
-578 -586 580 0
-578 -580 586 0
-580 -586 578 0
-578 -587 581 0
-578 -581 587 0
-581 -587 578 0
-578 -588 582 0
-578 -582 588 0
-582 -588 578 0
-578 -589 583 0
-578 -583 589 0
-583 -589 578 0
-578 -590 584 0
-578 -584 590 0
-584 -590 578 0
-579 -591 580 0
-579 -580 591 0
-580 -591 579 0
-579 -592 581 0
-579 -581 592 0
-581 -592 579 0
-579 -593 582 0
-579 -582 593 0
-582 -593 579 0
-579 -594 583 0
-579 -583 594 0
-583 -594 579 0
-579 -595 584 0
-579 -584 595 0
-584 -595 579 0
-580 581 -596 0
-580 -581 596 0
-581 580 -596 0
-580 582 -597 0
-580 -582 597 0
-582 580 -597 0
-580 -598 583 0
-580 -583 598 0
-583 -598 580 0
-580 -599 584 0
-580 -584 599 0
-584 -599 580 0
-581 582 -600 0
-581 -582 600 0
-582 581 -600 0
-581 -601 583 0
-581 -583 601 0
-583 -601 581 0
-581 -602 584 0
-581 -584 602 0
-584 -602 581 0
-582 -603 583 0
-582 -583 603 0
-583 -603 582 0
-582 -604 584 0
-582 -584 604 0
-584 -604 582 0
-605 -583 584 0
-605 -584 583 0
-585 -591 586 0
-585 -586 591 0
-586 -591 585 0
-585 -592 587 0
-585 -587 592 0
-587 -592 585 0
-585 -593 588 0
-585 -588 593 0
-588 -593 585 0
-585 -594 589 0
-585 -589 594 0
-589 -594 585 0
-585 -595 590 0
-585 -590 595 0
-590 -595 585 0
-586 587 -596 0
-586 -587 596 0
-587 586 -596 0
-586 588 -597 0
-586 -588 597 0
-588 586 -597 0
-586 -598 589 0
-586 -589 598 0
-589 -598 586 0
-586 -599 590 0
-586 -590 599 0
-590 -599 586 0
-587 588 -600 0
-587 -588 600 0
-588 587 -600 0
-587 -601 589 0
-587 -589 601 0
-589 -601 587 0
-587 -602 590 0
-587 -590 602 0
-590 -602 587 0
-588 -603 589 0
-588 -589 603 0
-589 -603 588 0
-588 -604 590 0
-588 -590 604 0
-590 -604 588 0
-605 -589 590 0
-589 -590 605 0
-605 -590 589 0
-591 -596 592 0
-591 -592 596 0
-592 591 -596 0
-591 -597 593 0
-591 -593 597 0
-593 591 -597 0
-591 -598 594 0
-591 -594 598 0
-594 -598 591 0
-591 -599 595 0
-591 -595 599 0
-595 -599 591 0
-592 -600 593 0
-592 -593 600 0
-593 592 -600 0
-592 -601 594 0
-592 -594 601 0
-594 -601 592 0
-592 -602 595 0
-592 -595 602 0
-595 -602 592 0
-593 -603 594 0
-593 -594 603 0
-594 -603 593 0
-593 -604 595 0
-593 -595 604 0
-595 -604 593 0
-605 -594 595 0
-594 -595 605 0
-605 -595 594 0
-600 -596 597 0
-597 -596 600 0
-600 -597 596 0
-601 598 -596 0
-598 601 -596 0
-598 -601 596 0
-602 599 -596 0
-599 602 -596 0
-599 -602 596 0
-603 598 -597 0
-598 603 -597 0
-598 -603 597 0
-604 599 -597 0
-599 604 -597 0
-599 -604 597 0
-605 -598 599 0
-598 -599 605 0
-605 -599 598 0
-603 601 -600 0
-601 603 -600 0
-601 -603 600 0
-604 602 -600 0
-602 604 -600 0
-602 -604 600 0
-605 -601 602 0
-601 -602 605 0
-605 -602 601 0
-605 -603 604 0
-603 -604 605 0
-605 -604 603 0
1 7 8 6 9 2 3 0
6 5 10 4 1 3 9 0
1 7 10 5 4 3 8 0
4 7 9 5 1 3 10 0
1 7 8 6 9 3 4 0
4 7 10 6 1 3 9 0
6 5 8 4 3 2 10 0
6 5 10 4 3 2 9 0
4 7 8 5 3 2 10 0
4 7 9 5 2 3 10 0
2 7 10 6 8 4 3 0
114 -1 -5 0
115 -1 -6 0
116 -1 -7 0
117 -1 -8 0
118 -1 -9 0
119 -10 -1 0
-2 122 -5 0
-2 123 -6 0
-2 124 -7 0
125 -2 -8 0
126 -2 -9 0
127 -10 -2 0
129 -3 -5 0
130 -3 -6 0
131 -3 -7 0
132 -3 -8 0
133 -3 -9 0
134 -10 -3 0
135 -4 -5 0
136 -4 -6 0
137 -4 -7 0
138 -4 -8 0
139 -4 -9 0
140 -10 -4 0
-5 -6 141 0
143 -8 -5 0
144 -9 -5 0
-10 145 -5 0
147 -6 -8 0
148 -6 -9 0
-10 149 -6 0
150 -8 -7 0
151 -9 -7 0
-10 152 -7 0
155 -10 -9 0
19 13 14 11 15 16 12 0
16 13 14 11 15 20 12 0
15 12 14 11 17 18 13 0
15 12 11 13 14 17 19 0
17 12 11 20 13 14 15 0
19 13 11 18 12 14 15 0
20 13 14 11 12 18 15 0
11 13 12 20 19 14 15 0
19 12 11 13 14 17 16 0
11 13 12 17 14 20 16 0
11 13 12 14 19 18 16 0
20 13 14 11 12 18 16 0
11 13 12 20 19 14 16 0
11 12 14 17 13 18 19 0
20 13 14 11 12 18 17 0
20 13 14 11 12 19 17 0
11 13 12 19 15 16 17 0
11 13 12 17 20 15 16 0
15 12 11 13 16 18 19 0
15 12 11 18 20 13 16 0
20 12 11 16 19 15 13 0
15 12 11 13 17 18 19 0
15 12 11 13 17 20 18 0
20 12 11 19 15 13 17 0
18 12 11 13 19 20 15 0
11 13 12 17 16 18 19 0
20 12 11 13 16 17 18 0
20 12 11 19 13 17 16 0
18 12 11 13 19 20 16 0
20 12 11 13 18 19 17 0
16 12 14 11 15 19 17 0
16 12 14 11 20 15 17 0
16 12 14 11 19 15 18 0
16 12 14 11 20 15 18 0
11 12 14 16 20 15 19 0
15 12 14 11 19 18 17 0
15 12 14 11 20 18 17 0
15 12 14 11 20 19 17 0
19 12 11 14 20 18 15 0
16 12 11 14 19 17 18 0
16 12 11 14 20 17 18 0
16 12 11 14 19 20 17 0
20 12 14 11 19 18 16 0
19 12 11 14 20 18 17 0
19 18 11 17 16 15 12 0
16 12 11 15 20 18 17 0
19 20 16 17 15 11 12 0
19 20 15 18 16 12 11 0
19 12 11 20 18 15 17 0
19 20 18 16 17 12 11 0
19 13 11 14 17 15 16 0
20 13 14 11 15 17 16 0
19 13 14 11 18 15 16 0
16 13 14 11 15 18 20 0
19 13 14 11 15 16 20 0
19 13 11 14 18 17 15 0
15 13 14 11 20 18 17 0
15 13 11 14 17 20 19 0
20 13 14 11 19 18 15 0
19 13 11 14 18 17 16 0
17 13 11 14 20 18 16 0
17 13 14 11 20 19 16 0
20 13 14 11 19 18 16 0
20 13 14 11 19 18 17 0
19 18 15 17 16 11 13 0
16 18 11 20 15 17 13 0
16 13 11 20 19 17 15 0
19 20 11 18 15 16 13 0
19 20 17 18 15 11 13 0
19 20 11 18 16 17 13 0
19 18 11 17 16 15 14 0
16 18 14 11 20 15 17 0
19 20 11 14 17 16 15 0
19 20 11 18 15 16 14 0
19 20 17 18 15 11 14 0
19 20 11 18 16 17 14 0
16 13 15 14 12 19 17 0
15 12 17 20 13 14 16 0
16 12 15 18 19 14 13 0
16 12 15 14 13 20 18 0
16 12 19 20 15 13 14 0
15 13 19 14 17 12 18 0
15 13 17 20 18 12 14 0
15 12 14 19 20 17 13 0
19 12 20 14 18 13 15 0
19 13 18 17 14 16 12 0
20 12 17 18 13 14 16 0
17 12 19 20 13 14 16 0
19 13 14 20 16 12 18 0
19 13 20 12 18 14 17 0
19 18 15 17 16 13 12 0
16 18 15 17 20 12 13 0
16 12 20 15 17 19 13 0
19 20 15 18 16 12 13 0
19 20 17 18 15 12 13 0
19 20 18 16 17 13 12 0
19 18 15 17 16 12 14 0
16 18 15 17 14 20 12 0
19 20 16 17 15 12 14 0
19 20 15 18 16 12 14 0
19 20 17 18 15 12 14 0
19 20 18 16 17 12 14 0
19 18 17 15 16 13 14 0
16 13 15 20 17 18 14 0
19 20 14 17 15 16 13 0
19 20 14 18 16 15 13 0
15 13 19 14 18 20 17 0
19 20 18 16 17 13 14 0
156 -12 -11 0
157 -13 -11 0
158 -14 -11 0
159 -15 -11 0
160 -16 -11 0
161 -17 -11 0
162 -18 -11 0
163 -19 -11 0
164 -20 -11 0
-12 -13 165 0
-14 -12 166 0
-12 -15 167 0
-12 -16 168 0
-12 -17 169 0
-12 -18 170 0
-19 -12 171 0
-12 -20 172 0
-14 -13 173 0
-13 -15 174 0
-13 -16 175 0
-13 -17 176 0
-13 -18 177 0
-19 -13 178 0
-13 -20 179 0
-14 -15 180 0
-14 -16 181 0
-14 -17 182 0
-14 -18 183 0
-14 -19 184 0
-14 -20 185 0
-16 -15 186 0
-17 -15 187 0
-18 -15 188 0
-19 -15 189 0
-20 -15 190 0
-16 -17 191 0
-16 -18 192 0
-19 -16 193 0
-20 -16 194 0
-17 -18 195 0
-19 -17 196 0
-20 -17 197 0
198 -19 -18 0
199 -20 -18 0
200 -19 -20 0
27 22 23 26 25 21 24 0
26 22 24 23 25 21 29 0
26 21 23 24 25 30 22 0
25 21 24 29 23 22 27 0
25 21 23 24 30 22 27 0
29 21 23 24 28 22 25 0
23 21 30 24 28 22 25 0
23 21 30 24 29 22 25 0
29 21 23 24 27 22 26 0
23 21 27 24 22 30 26 0
29 21 23 24 28 22 26 0
23 21 30 24 28 22 26 0
26 21 23 24 29 30 22 0
29 21 23 24 28 27 22 0
23 21 30 24 28 22 27 0
29 22 23 24 27 30 21 0
25 21 23 29 22 26 27 0
25 21 23 26 27 30 22 0
25 22 23 26 28 29 21 0
25 22 23 30 26 28 21 0
25 21 23 30 29 22 26 0
25 21 23 29 27 28 22 0
25 22 23 30 28 21 27 0
25 22 23 29 30 21 27 0
29 21 23 28 30 22 25 0
23 22 28 21 29 26 27 0
23 22 28 21 27 26 30 0
29 21 23 30 27 26 22 0
29 21 23 28 30 22 26 0
29 21 23 27 28 30 22 0
29 21 24 25 22 26 27 0
25 21 24 27 30 26 22 0
25 22 24 21 26 28 29 0
25 21 24 26 30 28 22 0
25 22 24 30 29 26 21 0
25 21 24 29 27 22 28 0
25 21 24 30 27 28 22 0
27 21 24 29 30 25 22 0
29 21 24 30 22 28 25 0
29 22 24 28 21 26 27 0
28 21 24 27 30 22 26 0
27 22 24 29 30 26 21 0
29 21 24 30 22 28 26 0
29 22 24 30 28 27 21 0
29 21 27 28 25 22 26 0
27 21 30 28 22 26 25 0
29 22 27 30 25 26 21 0
29 21 30 26 22 25 28 0
29 21 30 28 27 22 25 0
29 21 30 22 26 27 28 0
23 21 27 24 29 26 25 0
25 21 23 27 26 30 24 0
26 21 24 23 29 25 28 0
26 21 23 24 30 28 25 0
26 21 24 23 29 30 25 0
25 21 23 24 27 28 29 0
25 21 24 27 30 23 28 0
25 21 23 24 27 30 29 0
23 21 30 24 28 29 25 0
29 21 23 24 26 27 28 0
23 21 28 24 30 26 27 0
23 21 27 24 29 30 26 0
23 21 30 24 28 29 26 0
29 21 23 24 27 30 28 0
25 21 23 29 28 26 27 0
23 21 27 26 25 30 28 0
29 30 26 27 25 21 23 0
30 29 28 26 25 21 23 0
29 30 27 28 25 21 23 0
29 30 23 27 28 26 21 0
25 21 24 26 29 27 28 0
25 21 24 26 30 28 27 0
29 30 24 27 25 26 21 0
29 30 24 28 26 25 21 0
25 21 24 28 29 30 27 0
29 30 24 27 28 26 21 0
26 22 23 24 29 27 25 0
25 22 24 26 30 27 23 0
25 22 23 28 24 26 29 0
25 22 24 30 26 28 23 0
25 22 24 23 26 30 29 0
25 22 24 29 23 28 27 0
25 22 24 23 28 30 27 0
27 22 23 30 25 29 24 0
25 22 24 23 28 30 29 0
29 22 23 24 27 28 26 0
23 22 28 24 30 27 26 0
26 22 23 24 29 27 30 0
24 22 30 23 28 29 26 0
29 22 24 23 27 30 28 0
29 22 28 26 27 25 23 0
27 22 23 26 30 25 28 0
29 30 26 27 25 22 23 0
25 22 30 28 29 26 23 0
29 22 30 25 28 27 23 0
27 22 30 29 26 28 23 0
29 28 24 27 25 26 22 0
25 22 24 26 30 27 28 0
25 22 24 26 29 30 27 0
25 22 24 26 29 30 28 0
25 22 24 28 30 29 27 0
29 30 24 27 28 26 22 0
29 28 24 23 27 25 26 0
28 30 24 23 25 26 27 0
29 30 23 26 25 24 27 0
29 30 24 28 26 25 23 0
29 30 24 23 27 28 25 0
29 30 27 28 26 23 24 0
201 -22 -21 0
-23 202 -21 0
-24 203 -21 0
204 -25 -21 0
205 -26 -21 0
206 -27 -21 0
207 -28 -21 0
-29 208 -21 0
209 -30 -21 0
210 -23 -22 0
211 -24 -22 0
212 -22 -25 0
213 -22 -26 0
214 -22 -27 0
215 -22 -28 0
216 -29 -22 0
217 -22 -30 0
-23 -24 218 0
-23 -25 219 0
-23 -26 220 0
-23 -27 221 0
-23 -28 222 0
-23 -29 223 0
-23 -30 224 0
-24 -25 225 0
-24 -26 226 0
-24 -27 227 0
-24 -28 228 0
-24 -29 229 0
-24 -30 230 0
-25 -26 231 0
-25 -27 232 0
-25 -28 233 0
-29 -25 234 0
-30 -25 235 0
-26 -27 236 0
-26 -28 237 0
-29 -26 238 0
-30 -26 239 0
-28 -27 240 0
-29 -27 241 0
-30 -27 242 0
-29 243 -28 0
244 -30 -28 0
-29 -30 245 0
31 32 36 34 39 35 33 0
31 32 36 34 40 35 33 0
35 33 31 34 37 32 39 0
35 32 31 34 40 33 37 0
31 33 38 34 39 32 35 0
31 33 34 40 38 32 35 0
35 33 31 34 40 39 32 0
34 33 32 39 36 37 31 0
34 33 32 40 36 37 31 0
31 33 38 34 39 32 36 0
31 33 34 40 38 32 36 0
31 33 39 34 40 32 36 0
31 33 39 34 38 32 37 0
31 33 34 40 38 32 37 0
31 33 39 34 40 32 37 0
36 33 35 32 39 37 31 0
36 33 35 32 40 31 37 0
36 33 35 32 39 31 38 0
36 32 40 35 33 31 38 0
36 32 40 35 33 31 39 0
35 32 39 37 31 33 38 0
35 32 31 40 37 38 33 0
35 33 32 40 39 31 37 0
35 33 32 40 31 38 39 0
39 32 37 31 36 38 33 0
37 32 40 36 31 38 33 0
40 32 37 39 33 31 36 0
40 32 39 31 33 38 36 0
40 32 39 38 37 33 31 0
31 32 36 34 39 37 35 0
37 32 31 34 36 40 35 0
39 32 31 38 35 36 34 0
31 32 36 34 40 35 38 0
35 32 31 34 39 40 36 0
35 32 31 34 38 37 39 0
35 32 31 34 38 40 37 0
35 32 31 40 34 39 37 0
35 32 31 34 40 39 38 0
31 32 39 34 38 37 36 0
38 32 34 31 40 36 37 0
36 32 31 34 40 37 39 0
36 32 31 34 38 39 40 0
40 32 31 34 39 38 37 0
39 38 37 36 35 31 32 0
37 40 38 35 36 31 32 0
39 40 36 37 35 31 32 0
39 40 38 36 35 31 32 0
39 40 31 38 37 35 32 0
39 40 37 36 38 31 32 0
35 33 31 34 36 37 39 0
36 33 31 34 40 35 37 0
31 33 36 34 38 39 35 0
36 33 35 40 31 38 34 0
31 33 36 34 40 39 35 0
35 33 31 34 37 38 39 0
35 33 31 34 40 37 38 0
35 33 31 34 40 39 37 0
35 33 31 34 38 40 39 0
37 33 34 31 39 36 38 0
31 33 34 36 40 37 38 0
31 33 39 34 40 36 37 0
36 33 40 34 31 38 39 0
31 33 39 34 40 37 38 0
39 38 37 36 35 33 31 0
37 40 38 35 31 36 33 0
35 33 37 40 39 36 31 0
39 40 38 35 36 31 33 0
39 40 35 38 37 33 31 0
39 40 37 36 38 31 33 0
39 38 34 37 36 35 31 0
37 40 38 35 36 34 31 0
39 40 34 36 37 35 31 0
39 40 38 35 36 31 34 0
39 40 31 34 35 38 37 0
39 40 34 31 37 36 38 0
35 33 34 37 32 39 36 0
35 33 34 40 32 37 36 0
36 33 35 39 32 38 34 0
36 32 40 35 33 38 34 0
35 32 39 40 33 36 34 0
35 33 34 37 32 38 39 0
35 33 40 34 32 37 38 0
35 32 39 40 33 34 37 0
35 33 34 40 32 38 39 0
36 33 39 34 38 32 37 0
37 33 32 34 40 36 38 0
34 33 32 40 39 36 37 0
39 33 32 34 40 38 36 0
37 33 32 34 38 40 39 0
36 33 35 32 39 37 38 0
36 33 35 40 38 37 32 0
35 33 37 32 40 39 36 0
39 40 35 38 36 32 33 0
39 40 35 38 37 33 32 0
40 32 39 33 38 36 37 0
39 38 34 36 37 35 32 0
40 32 34 38 36 35 37 0
40 32 34 37 39 36 35 0
36 32 34 38 39 40 35 0
40 32 34 37 39 38 35 0
38 32 34 39 40 36 37 0
39 33 38 34 37 36 35 0
37 40 38 35 36 34 33 0
39 40 36 37 35 34 33 0
39 40 34 36 35 38 33 0
35 33 38 40 34 39 37 0
39 40 34 37 36 38 33 0
39 40 37 36 38 33 35 0
39 40 34 37 38 36 35 0
-32 246 -31 0
247 -33 -31 0
-34 248 -31 0
249 -35 -31 0
-36 250 -31 0
251 -37 -31 0
252 -38 -31 0
-39 253 -31 0
-40 254 -31 0
255 -32 -33 0
-34 -32 256 0
-32 257 -35 0
-36 -32 258 0
-32 259 -37 0
-32 260 -38 0
-39 -32 261 0
-40 -32 262 0
263 -34 -33 0
264 -33 -35 0
265 -36 -33 0
266 -33 -37 0
267 -33 -38 0
268 -39 -33 0
269 -40 -33 0
-34 -35 270 0
-34 -36 271 0
-34 -37 272 0
-34 -38 273 0
-34 -39 274 0
-34 -40 275 0
-36 -35 276 0
-37 -35 277 0
-35 -38 278 0
-39 -35 279 0
-40 -35 280 0
-36 -37 281 0
-36 -38 282 0
-36 -39 283 0
-36 -40 284 0
-37 -38 285 0
-39 -37 286 0
-40 -37 287 0
-39 288 -38 0
-40 289 -38 0
-39 -40 290 0
44 42 43 41 45 46 47 0
44 42 43 45 41 48 46 0
44 42 43 47 41 48 45 0
44 42 43 47 41 48 46 0
46 47 45 48 43 41 42 0
49 46 45 47 41 42 43 0
50 46 43 47 45 41 42 0
49 45 43 46 48 41 42 0
50 45 43 46 48 41 42 0
49 47 42 41 43 48 45 0
50 45 42 47 41 43 48 0
49 46 42 41 43 47 48 0
50 42 43 47 41 48 46 0
46 45 41 48 47 44 42 0
49 46 44 42 47 41 45 0
50 45 44 46 41 47 42 0
49 46 44 41 48 45 42 0
50 45 44 42 41 48 46 0
49 47 44 41 42 48 45 0
50 48 44 45 47 41 42 0
49 46 44 47 48 41 42 0
50 46 44 48 41 42 47 0
46 45 41 48 47 44 43 0
49 46 44 45 47 43 41 0
50 46 43 41 44 45 47 0
49 46 43 44 45 48 41 0
50 48 44 41 46 43 45 0
49 44 43 48 45 41 47 0
50 48 41 43 45 47 44 0
49 46 44 47 41 48 43 0
50 46 43 47 48 44 41 0
46 47 45 48 43 44 42 0
49 42 43 45 46 44 47 0
50 46 44 45 47 43 42 0
49 44 43 45 48 42 46 0
50 45 44 42 48 46 43 0
49 44 43 45 47 48 42 0
50 42 43 47 45 48 44 0
49 46 44 47 48 42 43 0
50 46 42 47 48 44 43 0
294 -45 -41 0
295 -46 -41 0
-47 296 -41 0
297 -48 -41 0
-49 298 -41 0
-42 302 -45 0
-42 -46 303 0
-42 -47 304 0
-42 -48 305 0
-49 -42 306 0
-50 -42 307 0
-43 309 -45 0
-46 -43 310 0
-47 -43 311 0
-48 -43 312 0
-49 -43 313 0
-50 -43 314 0
315 -44 -45 0
316 -44 -46 0
317 -44 -47 0
318 -44 -48 0
319 -44 -49 0
320 -44 -50 0
-49 -45 324 0
-49 -46 328 0
-49 -47 331 0
-49 333 -48 0
-49 -50 335 0
54 55 53 56 58 51 52 0
54 55 59 53 52 51 56 0
54 55 60 53 52 51 56 0
54 55 59 53 52 51 57 0
54 55 60 53 52 51 57 0
54 55 59 53 58 52 51 0
54 55 60 53 52 51 58 0
54 53 51 57 58 52 56 0
54 52 59 51 53 56 57 0
54 53 51 60 52 56 57 0
54 53 59 58 51 52 56 0
54 53 51 60 58 52 56 0
54 52 59 51 53 57 58 0
54 53 51 60 58 52 57 0
51 53 59 60 52 58 54 0
51 53 57 56 52 55 59 0
51 52 60 57 56 55 53 0
51 52 55 58 56 53 59 0
51 53 55 60 58 56 52 0
51 52 59 60 56 53 55 0
51 52 55 59 58 57 53 0
51 52 58 60 55 53 57 0
51 52 59 60 57 53 55 0
51 53 59 58 60 52 55 0
51 52 57 56 58 59 53 0
51 52 56 57 58 53 60 0
51 53 59 60 52 56 57 0
51 53 59 60 52 56 58 0
51 52 59 60 53 57 58 0
54 55 52 57 51 56 59 0
54 52 51 55 56 60 57 0
54 52 59 55 58 56 51 0
54 52 51 60 55 58 56 0
54 55 52 60 56 59 51 0
54 52 59 55 57 58 51 0
54 52 57 55 51 60 58 0
51 52 59 60 54 57 55 0
54 52 58 55 51 60 59 0
59 52 57 58 56 54 51 0
51 52 58 60 56 57 54 0
51 52 59 60 54 56 57 0
51 52 59 60 54 56 58 0
51 52 59 58 60 54 57 0
51 52 56 57 58 59 55 0
51 52 55 56 60 57 58 0
51 52 60 55 56 59 57 0
51 52 58 59 60 55 56 0
51 52 58 60 59 55 57 0
51 52 56 60 57 59 58 0
55 54 57 53 59 56 51 0
54 53 51 55 56 60 57 0
54 55 59 53 58 56 51 0
54 55 60 53 56 58 51 0
54 55 59 53 60 51 56 0
54 55 59 53 57 58 51 0
54 53 60 51 55 57 58 0
54 55 60 53 59 51 57 0
54 55 60 53 59 58 51 0
59 53 57 58 56 54 51 0
54 53 60 57 56 51 58 0
54 53 51 60 59 56 57 0
54 53 60 58 59 51 56 0
54 53 60 59 58 51 57 0
51 53 59 56 57 55 58 0
51 53 60 57 55 56 58 0
51 53 60 59 55 56 57 0
51 53 58 55 59 60 56 0
51 53 55 60 58 57 59 0
51 53 58 60 59 56 57 0
59 55 57 58 56 54 51 0
54 55 60 51 56 57 58 0
54 55 56 57 59 60 51 0
54 55 60 58 56 59 51 0
55 54 51 58 59 57 60 0
59 60 57 58 56 54 51 0
57 55 60 59 58 56 51 0
54 55 56 59 52 57 53 0
54 52 60 57 56 55 53 0
54 55 53 56 58 52 59 0
54 55 53 60 58 56 52 0
54 55 53 60 52 59 56 0
55 54 57 53 58 59 52 0
54 55 53 60 57 58 52 0
54 55 53 52 60 59 57 0
54 55 53 58 52 60 59 0
54 52 57 56 58 59 53 0
54 53 57 58 56 60 52 0
54 53 59 60 52 57 56 0
54 53 59 60 52 58 56 0
54 53 59 60 52 57 58 0
57 53 59 56 52 55 58 0
60 53 55 58 57 56 52 0
60 52 59 56 57 53 55 0
60 52 55 58 56 53 59 0
60 53 55 59 57 58 52 0
60 52 59 58 57 56 53 0
55 54 57 56 52 58 59 0
54 52 60 55 56 57 58 0
54 52 60 55 56 59 57 0
54 52 58 55 56 59 60 0
54 52 60 59 58 55 57 0
54 52 56 58 59 57 60 0
60 52 59 58 56 57 55 0
54 55 59 53 56 57 58 0
54 55 53 56 58 57 60 0
54 55 60 53 56 57 59 0
54 55 53 58 56 60 59 0
55 54 57 58 53 59 60 0
54 53 57 58 56 59 60 0
60 53 59 56 58 57 55 0
54 55 60 58 59 57 56 0
336 -52 -51 0
337 -53 -51 0
338 -54 -51 0
339 -55 -51 0
-56 340 -51 0
341 -57 -51 0
-58 342 -51 0
-59 343 -51 0
344 -60 -51 0
345 -52 -53 0
346 -52 -54 0
-55 -52 347 0
-56 348 -52 0
349 -52 -57 0
-58 350 -52 0
-59 351 -52 0
352 -60 -52 0
-54 -53 353 0
-55 -53 354 0
-56 355 -53 0
356 -53 -57 0
-58 357 -53 0
-59 358 -53 0
359 -60 -53 0
-55 -54 360 0
-56 361 -54 0
362 -54 -57 0
-58 363 -54 0
-59 364 -54 0
365 -60 -54 0
366 -56 -55 0
367 -55 -57 0
368 -58 -55 0
369 -59 -55 0
370 -55 -60 0
-56 -57 371 0
-56 -58 372 0
-56 -59 373 0
-56 -60 374 0
-58 375 -57 0
-59 376 -57 0
-60 377 -57 0
-58 -59 378 0
-58 379 -60 0
-59 -60 380 0
64 62 69 61 63 65 66 0
64 66 65 62 61 70 63 0
61 62 69 64 63 65 67 0
64 62 61 70 63 65 67 0
61 63 62 68 64 69 65 0
61 63 70 62 68 64 65 0
61 62 69 64 63 67 66 0
64 62 61 70 63 67 66 0
61 63 62 68 64 69 66 0
61 63 70 62 64 68 66 0
61 63 62 68 64 67 69 0
61 63 70 62 68 64 67 0
61 62 65 69 63 67 66 0
61 63 66 70 67 65 62 0
61 63 66 65 68 69 62 0
61 63 66 68 70 65 62 0
61 63 69 70 62 66 65 0
69 63 61 68 65 67 62 0
61 62 70 67 65 68 63 0
61 63 69 70 67 62 65 0
61 62 70 69 63 68 65 0
61 63 66 68 62 67 69 0
61 62 66 68 70 67 63 0
61 63 62 69 70 66 67 0
61 63 69 70 62 68 66 0
67 62 61 68 70 69 63 0
64 66 65 61 67 62 69 0
64 66 65 62 67 70 61 0
64 66 65 68 69 62 61 0
64 66 65 62 70 61 68 0
64 62 61 69 70 65 66 0
69 62 67 68 65 61 64 0
64 62 61 68 65 70 67 0
64 62 61 69 70 67 65 0
64 62 69 70 61 65 68 0
69 62 66 67 64 68 61 0
64 62 66 67 61 70 68 0
64 62 69 70 61 67 66 0
64 62 66 70 69 61 68 0
69 62 61 68 67 64 70 0
67 62 61 65 66 68 69 0
61 62 66 65 68 67 70 0
61 62 65 70 69 66 67 0
61 62 70 65 68 69 66 0
67 62 61 68 70 69 65 0
67 62 61 66 69 68 70 0
64 66 65 69 67 61 63 0
64 66 65 63 67 70 61 0
64 66 65 69 68 63 61 0
64 66 65 63 68 70 61 0
64 66 65 63 69 70 61 0
69 63 68 67 64 61 65 0
68 63 67 65 70 61 64 0
64 63 61 65 69 70 67 0
64 63 69 70 61 65 68 0
64 63 66 69 61 68 67 0
64 63 66 70 68 61 67 0
64 63 69 61 67 66 70 0
64 63 69 70 68 61 66 0
69 70 68 67 61 63 64 0
69 63 65 61 66 68 67 0
67 63 66 61 70 65 68 0
67 63 61 66 70 65 69 0
61 63 66 70 69 65 68 0
68 63 67 70 61 69 65 0
67 63 61 69 66 68 70 0
64 66 65 69 67 61 68 0
64 66 65 70 68 61 67 0
64 66 65 61 69 70 67 0
64 66 69 68 65 61 70 0
69 70 67 68 65 61 64 0
69 70 67 64 68 61 66 0
64 63 66 67 62 65 69 0
64 63 66 70 67 65 62 0
64 66 65 63 68 69 62 0
64 66 65 70 63 62 68 0
64 62 69 70 66 63 65 0
64 62 68 67 69 65 63 0
64 63 68 70 65 62 67 0
64 62 70 69 65 63 67 0
64 63 69 70 62 68 65 0
64 63 67 68 62 66 69 0
64 62 67 68 70 66 63 0
64 63 69 70 62 67 66 0
64 63 62 68 69 70 66 0
64 63 69 68 70 62 67 0
68 63 66 67 62 65 69 0
68 62 65 66 67 63 70 0
70 63 66 67 69 65 62 0
70 62 66 65 69 63 68 0
70 63 68 67 69 65 62 0
70 63 67 68 66 69 62 0
64 66 65 68 67 62 69 0
64 62 67 70 65 66 68 0
64 62 67 70 65 66 69 0
64 66 68 65 70 69 62 0
64 62 70 68 67 65 69 0
64 62 66 67 69 70 68 0
70 62 66 67 65 68 69 0
64 66 65 63 68 67 69 0
64 66 65 63 68 70 67 0
64 66 65 63 70 67 69 0
64 66 65 63 69 68 70 0
64 63 68 67 65 69 70 0
64 63 69 66 70 67 68 0
70 63 65 68 67 66 69 0
64 66 65 67 70 68 69 0
381 -62 -61 0
382 -63 -61 0
383 -64 -61 0
384 -65 -61 0
385 -66 -61 0
386 -67 -61 0
387 -68 -61 0
-69 388 -61 0
-70 389 -61 0
390 -63 -62 0
391 -64 -62 0
-65 -62 392 0
-62 393 -66 0
394 -62 -67 0
395 -68 -62 0
-69 396 -62 0
-70 397 -62 0
-64 -63 398 0
-65 -63 399 0
-63 400 -66 0
401 -63 -67 0
402 -68 -63 0
-69 403 -63 0
-70 404 -63 0
-65 -64 405 0
-64 406 -66 0
407 -64 -67 0
408 -68 -64 0
-69 409 -64 0
-70 410 -64 0
-65 411 -66 0
412 -65 -67 0
413 -68 -65 0
-69 414 -65 0
-70 415 -65 0
416 -67 -66 0
417 -68 -66 0
418 -69 -66 0
419 -70 -66 0
-68 420 -67 0
-69 421 -67 0
-70 422 -67 0
-69 423 -68 0
-70 424 -68 0
-69 -70 425 0
74 72 75 76 78 73 71 0
74 73 79 71 72 75 76 0
74 72 71 80 73 76 75 0
74 73 79 77 71 72 75 0
74 72 71 80 73 75 77 0
78 72 71 79 73 74 75 0
80 72 71 78 74 73 75 0
74 72 77 78 76 73 71 0
74 73 79 76 71 77 72 0
80 73 71 74 72 76 77 0
78 72 71 79 74 73 76 0
74 72 71 76 80 73 78 0
79 72 78 77 74 71 73 0
74 72 71 80 73 77 78 0
78 72 75 76 77 73 71 0
71 73 76 77 75 72 79 0
80 72 71 76 75 77 73 0
78 73 76 71 79 75 72 0
71 72 75 76 78 80 73 0
80 73 71 79 72 75 76 0
78 72 71 77 79 73 75 0
71 73 72 78 77 75 80 0
80 73 71 79 72 75 77 0
79 80 78 71 72 73 75 0
78 72 77 71 76 79 73 0
71 73 76 77 78 80 72 0
80 73 71 79 77 72 76 0
80 72 71 78 79 73 76 0
80 72 71 78 79 73 77 0
74 77 76 75 71 79 72 0
74 77 76 80 75 71 72 0
78 72 75 76 71 79 74 0
74 72 71 78 75 76 80 0
74 72 79 75 80 71 76 0
74 72 79 71 75 78 77 0
74 72 71 80 75 78 77 0
74 72 79 80 71 77 75 0
79 80 78 75 71 74 72 0
78 72 76 71 77 79 74 0
71 72 76 80 77 78 74 0
80 72 71 79 74 76 77 0
79 80 78 71 72 74 76 0
79 80 78 71 77 72 74 0
78 72 76 77 71 75 79 0
71 72 76 77 78 75 80 0
80 72 71 75 76 79 77 0
79 80 71 75 78 72 76 0
79 80 78 71 72 77 75 0
76 77 79 71 80 78 72 0
74 77 76 75 71 73 79 0
74 77 75 76 71 80 73 0
74 73 71 78 76 79 75 0
78 73 76 75 80 71 74 0
74 73 79 75 71 80 76 0
74 73 79 71 75 77 78 0
74 73 77 71 80 75 78 0
74 73 79 80 71 75 77 0
79 80 78 71 73 74 75 0
78 73 76 71 79 77 74 0
71 73 76 77 80 78 74 0
74 73 71 80 79 76 77 0
79 80 78 71 73 74 76 0
71 73 78 79 77 80 74 0
78 73 76 77 71 75 79 0
71 73 75 80 77 76 78 0
80 73 71 75 76 77 79 0
80 73 71 79 78 76 75 0
79 77 71 80 75 78 73 0
79 80 71 78 73 77 76 0
74 77 75 76 78 71 79 0
74 77 75 76 78 71 80 0
74 77 76 75 80 79 71 0
79 80 78 75 76 71 74 0
74 77 75 80 78 71 79 0
79 80 71 78 77 76 74 0
74 77 75 76 73 79 72 0
74 73 72 75 76 77 80 0
74 73 75 78 76 72 79 0
74 73 72 78 75 76 80 0
74 72 79 80 75 76 73 0
74 72 77 78 79 75 73 0
74 73 78 72 75 77 80 0
74 72 80 79 73 75 77 0
74 73 79 78 75 80 72 0
74 73 77 76 78 72 79 0
74 73 78 72 76 77 80 0
74 72 80 79 76 77 73 0
74 73 80 78 79 72 76 0
74 72 80 79 73 78 77 0
78 73 76 75 77 72 79 0
78 72 76 80 75 77 73 0
79 72 80 76 75 77 73 0
79 72 80 78 76 73 75 0
79 73 80 77 78 72 75 0
79 73 77 80 78 72 76 0
74 77 75 76 72 79 78 0
74 77 75 76 72 78 80 0
74 77 75 76 72 80 79 0
74 72 78 80 79 75 76 0
74 72 79 77 78 80 75 0
74 72 80 77 76 79 78 0
78 72 80 75 76 77 79 0
74 77 75 76 73 79 78 0
74 77 75 76 73 78 80 0
74 77 75 76 73 80 79 0
74 73 75 80 78 79 76 0
74 73 79 78 77 80 75 0
74 73 80 78 76 77 79 0
79 73 80 75 76 77 78 0
79 80 78 77 74 76 75 0
426 -72 -71 0
427 -73 -71 0
428 -74 -71 0
429 -75 -71 0
430 -76 -71 0
431 -77 -71 0
-78 432 -71 0
-79 433 -71 0
-80 434 -71 0
435 -73 -72 0
436 -74 -72 0
-75 -72 437 0
-76 -72 438 0
-77 -72 439 0
-78 440 -72 0
-79 441 -72 0
-80 442 -72 0
-74 -73 443 0
-75 -73 444 0
-76 -73 445 0
-77 -73 446 0
-78 447 -73 0
-79 448 -73 0
-80 449 -73 0
-75 -74 450 0
-76 -74 451 0
-77 -74 452 0
-78 453 -74 0
-79 454 -74 0
-80 455 -74 0
-75 -76 456 0
-77 -75 457 0
-78 458 -75 0
-79 459 -75 0
-80 460 -75 0
-77 -76 461 0
-78 462 -76 0
-79 463 -76 0
-80 464 -76 0
465 -78 -77 0
466 -79 -77 0
467 -80 -77 0
-78 -79 468 0
-78 -80 469 0
-79 -80 470 0
89 83 82 86 81 85 87 0
87 83 82 86 90 81 85 0
89 83 82 86 81 85 88 0
81 83 82 85 86 88 90 0
87 83 82 89 81 85 88 0
87 83 82 88 90 85 81 0
89 83 82 86 81 87 88 0
87 83 82 86 90 81 88 0
84 82 86 85 87 81 89 0
84 82 86 81 85 87 90 0
84 82 88 89 85 81 86 0
84 82 86 85 81 88 90 0
84 82 81 89 85 87 88 0
84 82 81 90 85 87 88 0
84 82 86 87 81 88 89 0
84 82 86 87 88 81 90 0
88 82 81 87 86 85 89 0
88 82 86 85 87 81 90 0
81 82 89 90 85 86 87 0
81 82 89 90 85 88 86 0
81 82 89 90 87 85 88 0
81 82 89 90 87 88 86 0
84 83 81 89 87 85 86 0
84 83 81 90 85 86 87 0
84 83 86 89 88 85 81 0
84 83 81 88 86 85 90 0
84 83 81 87 85 88 89 0
84 83 81 85 87 88 90 0
84 83 81 89 86 88 87 0
84 83 86 90 88 87 81 0
86 83 85 88 87 89 81 0
86 83 85 88 87 81 90 0
81 83 89 90 87 86 85 0
81 90 89 86 83 88 85 0
81 83 89 90 87 85 88 0
90 83 81 88 86 89 87 0
84 88 85 87 86 89 81 0
84 88 85 86 87 81 90 0
84 90 81 89 87 85 86 0
84 90 81 89 88 86 85 0
84 90 81 89 87 85 88 0
84 90 81 89 88 87 86 0
90 89 88 81 85 86 87 0
87 83 82 89 85 86 90 0
89 83 82 86 90 85 88 0
87 83 82 89 85 88 90 0
89 83 82 86 88 87 90 0
84 82 89 87 85 86 90 0
84 82 89 85 88 86 90 0
84 82 89 85 88 90 87 0
84 82 89 87 90 86 88 0
88 82 87 86 85 89 90 0
84 83 86 85 89 87 90 0
84 83 86 89 88 85 90 0
84 83 87 90 89 88 85 0
84 83 86 89 90 88 87 0
86 83 85 88 87 90 89 0
84 88 86 87 85 89 90 0
-82 471 -81 0
472 -83 -81 0
-84 473 -81 0
474 -85 -81 0
475 -86 -81 0
-87 476 -81 0
477 -88 -81 0
-82 480 -83 0
-82 481 -84 0
-82 -85 482 0
-82 -86 483 0
-87 -82 484 0
-88 -82 485 0
-89 -82 486 0
-90 -82 487 0
-84 -83 488 0
-85 -83 489 0
-83 -86 490 0
-87 -83 491 0
-88 -83 492 0
-89 493 -83 0
-90 494 -83 0
-85 -84 495 0
-84 -86 496 0
-87 -84 497 0
-88 -84 498 0
-84 -89 499 0
-84 -90 500 0
-89 504 -85 0
-90 505 -85 0
-89 508 -86 0
-90 509 -86 0
-87 -89 511 0
-87 -90 512 0
513 -89 -88 0
514 -90 -88 0
95 92 96 91 94 93 97 0
91 92 98 95 96 94 93 0
94 93 91 96 95 99 92 0
91 100 92 93 95 94 96 0
94 92 98 97 95 93 91 0
94 93 91 99 95 97 92 0
91 100 92 94 93 95 97 0
94 93 91 99 92 98 95 0
100 91 98 94 93 95 92 0
94 92 91 97 98 93 96 0
94 93 91 99 96 97 92 0
100 91 97 92 93 94 96 0
94 93 98 99 96 91 92 0
91 92 99 94 100 93 96 0
94 93 98 97 99 91 92 0
91 92 97 100 93 98 94 0
91 92 99 100 93 97 94 0
91 100 92 93 98 99 94 0
91 93 96 95 98 92 97 0
91 92 99 97 95 96 93 0
100 91 96 92 93 97 95 0
91 93 96 92 98 99 95 0
100 91 96 92 93 98 95 0
91 92 99 100 93 95 96 0
91 93 98 99 97 95 92 0
91 100 92 93 95 98 97 0
91 92 99 100 93 97 95 0
91 100 92 93 95 98 99 0
91 92 98 99 97 93 96 0
91 92 97 96 100 93 98 0
100 91 96 99 92 93 97 0
91 100 92 93 99 96 98 0
91 100 92 93 98 99 97 0
94 92 97 95 96 91 98 0
94 92 91 95 97 99 96 0
91 100 92 94 96 95 97 0
91 92 98 95 96 99 94 0
91 100 92 95 98 94 96 0
91 100 92 99 94 95 96 0
94 92 98 99 91 97 95 0
100 91 97 95 92 98 94 0
100 91 97 92 99 94 95 0
100 91 98 99 92 95 94 0
94 92 98 91 97 96 99 0
91 100 92 97 94 98 96 0
100 91 96 99 92 94 97 0
94 100 91 92 99 96 98 0
91 100 92 94 99 98 97 0
91 92 95 97 96 98 99 0
91 100 92 95 97 98 96 0
91 100 92 97 96 99 95 0
91 100 92 96 98 99 95 0
100 91 95 99 98 97 92 0
91 92 99 98 97 96 100 0
94 93 95 96 97 98 91 0
94 93 91 95 97 99 96 0
100 91 97 95 93 94 96 0
94 93 98 91 99 95 96 0
91 100 93 95 94 96 98 0
94 100 91 99 95 93 96 0
94 93 98 99 91 97 95 0
100 91 98 95 97 93 94 0
94 100 99 91 95 97 93 0
91 100 93 98 95 94 99 0
94 93 98 99 97 96 91 0
100 91 97 94 93 98 96 0
100 91 97 99 96 93 94 0
94 100 91 96 99 98 93 0
100 91 98 97 99 93 94 0
91 93 99 95 98 96 97 0
91 100 93 95 97 96 98 0
100 91 95 99 93 96 97 0
100 91 95 99 93 96 98 0
100 91 98 95 99 97 93 0
100 91 96 99 98 93 97 0
94 99 97 98 96 95 91 0
94 100 98 97 96 91 95 0
94 100 91 97 95 96 99 0
94 100 91 95 96 99 98 0
94 100 91 99 98 95 97 0
94 100 91 99 98 97 96 0
100 91 98 95 99 96 97 0
94 93 95 96 97 99 92 0
94 93 97 100 92 95 96 0
94 93 96 92 95 98 99 0
100 93 95 96 94 92 98 0
94 92 99 100 95 93 96 0
94 93 98 97 95 92 99 0
94 93 100 97 95 92 98 0
94 93 100 99 97 95 92 0
94 92 99 100 95 93 98 0
94 92 97 98 93 96 99 0
94 92 98 97 93 96 100 0
94 93 92 99 96 100 97 0
94 93 98 99 96 100 92 0
94 93 98 99 97 100 92 0
98 93 97 95 92 96 99 0
98 93 95 97 92 96 100 0
100 92 99 96 97 93 95 0
100 93 96 98 95 99 92 0
100 92 98 95 97 99 93 0
100 92 97 99 93 98 96 0
94 92 95 97 96 98 99 0
94 92 97 96 95 98 100 0
94 92 99 95 96 100 97 0
100 92 95 96 98 99 94 0
94 92 99 100 98 95 97 0
94 92 99 97 98 96 100 0
100 92 97 98 95 96 99 0
94 99 96 97 98 95 93 0
94 93 95 96 97 98 100 0
94 93 99 100 95 96 97 0
100 93 95 96 99 98 94 0
94 93 100 99 98 97 95 0
94 93 97 96 99 100 98 0
100 93 97 95 98 96 99 0
94 100 95 99 96 98 97 0
-91 -92 516 0
-91 -93 517 0
-91 -94 518 0
-91 -95 519 0
-91 -96 520 0
-91 -97 521 0
-91 -98 522 0
523 -91 -99 0
-91 -100 524 0
-92 -93 525 0
-94 -92 526 0
-95 -92 527 0
-96 -92 528 0
-97 -92 529 0
-98 -92 530 0
-99 -92 531 0
-100 -92 532 0
-94 -93 533 0
-95 -93 534 0
-96 -93 535 0
-97 -93 536 0
-98 -93 537 0
-99 -93 538 0
-100 -93 539 0
-94 -95 540 0
-94 -96 541 0
-94 -97 542 0
-94 -98 543 0
-94 -99 544 0
-94 -100 545 0
-95 -96 546 0
-95 -97 547 0
-95 -98 548 0
-95 -99 549 0
-95 -100 550 0
-96 -97 551 0
-96 -98 552 0
-96 -99 553 0
-96 -100 554 0
-97 -98 555 0
-97 -99 556 0
-97 -100 557 0
-98 -99 558 0
-98 -100 559 0
560 -99 -100 0
103 101 104 106 107 105 102 0
104 102 105 106 101 108 103 0
103 101 104 105 109 102 106 0
103 102 106 101 105 104 110 0
103 101 104 105 108 107 102 0
103 101 104 105 109 102 107 0
105 102 101 104 107 110 103 0
103 101 104 105 102 109 108 0
104 101 110 103 105 102 108 0
103 102 101 107 106 108 104 0
104 101 106 103 107 109 102 0
104 101 106 103 107 110 102 0
104 101 106 109 103 108 102 0
104 102 101 106 108 103 110 0
104 101 110 103 109 102 106 0
103 101 104 109 107 102 108 0
104 102 101 108 107 110 103 0
104 101 110 109 103 102 107 0
104 101 110 109 108 103 102 0
103 101 107 105 106 108 102 0
106 102 101 105 109 107 103 0
103 102 101 106 107 110 105 0
103 101 108 106 105 102 109 0
103 102 101 106 110 105 108 0
103 101 105 110 109 102 106 0
103 102 105 109 101 107 108 0
103 102 105 107 101 108 110 0
103 101 105 110 109 102 107 0
103 101 105 110 109 102 108 0
103 102 107 101 106 108 109 0
103 102 101 108 107 106 110 0
103 102 110 101 109 106 107 0
103 102 110 109 108 106 101 0
103 102 110 109 101 108 107 0
104 102 108 105 106 107 101 0
104 102 107 106 109 105 101 0
105 102 101 107 106 110 104 0
104 102 106 105 108 101 109 0
104 102 105 106 101 108 110 0
104 102 110 105 101 109 106 0
104 102 105 108 101 107 109 0
104 102 105 108 110 107 101 0
109 102 101 105 104 110 107 0
104 102 110 105 108 109 101 0
104 102 106 101 107 108 109 0
104 102 101 107 108 110 106 0
104 102 110 101 107 106 109 0
104 102 101 110 108 109 106 0
104 102 110 101 108 109 107 0
109 102 101 105 107 108 106 0
105 102 101 107 108 106 110 0
109 102 101 105 106 110 107 0
108 102 101 106 109 110 105 0
109 102 101 108 110 105 107 0
110 102 101 109 108 107 106 0
103 101 104 106 107 108 105 0
104 101 106 103 107 109 105 0
104 101 107 106 110 105 103 0
103 101 104 105 108 106 109 0
103 101 106 105 108 104 110 0
106 101 103 110 105 109 104 0
104 101 109 105 107 103 108 0
104 101 105 110 107 108 103 0
103 101 104 107 110 109 105 0
104 101 108 109 110 105 103 0
103 101 104 109 106 108 107 0
104 101 107 110 103 108 106 0
104 101 106 110 103 109 107 0
104 101 110 109 103 106 108 0
104 101 110 109 103 108 107 0
103 101 109 105 108 106 107 0
103 101 106 108 107 110 105 0
103 101 106 107 110 105 109 0
103 101 105 110 109 106 108 0
103 101 108 109 110 107 105 0
103 101 109 106 107 108 110 0
104 101 109 108 105 107 106 0
104 101 106 107 108 110 105 0
104 101 105 107 110 109 106 0
104 101 108 106 109 110 105 0
104 101 108 109 110 107 105 0
104 101 110 109 107 108 106 0
108 101 110 105 106 107 109 0
104 102 107 106 105 103 109 0
103 102 105 107 110 106 104 0
104 102 105 108 103 106 109 0
104 102 106 103 108 110 105 0
104 102 105 110 103 106 109 0
104 102 105 108 107 103 109 0
103 102 105 110 107 104 108 0
103 102 110 105 107 104 109 0
104 102 110 105 108 109 103 0
103 102 104 107 106 108 109 0
103 102 110 106 107 104 108 0
104 102 110 106 109 103 107 0
104 102 110 103 109 106 108 0
103 102 110 108 109 107 104 0
103 102 109 105 108 106 107 0
103 102 105 108 110 106 107 0
103 102 105 107 110 106 109 0
103 102 108 105 106 109 110 0
103 102 109 108 110 107 105 0
103 102 108 110 109 107 106 0
104 102 108 107 106 105 109 0
104 102 106 107 108 110 105 0
104 102 105 107 110 109 106 0
104 102 110 105 109 106 108 0
104 102 108 109 110 105 107 0
104 102 109 110 106 107 108 0
108 102 110 105 106 107 109 0
106 108 107 103 105 104 109 0
106 108 103 110 105 104 107 0
106 110 103 105 109 104 107 0
106 110 109 103 108 105 104 0
105 108 110 107 109 103 104 0
106 108 110 107 103 109 104 0
106 110 103 107 109 105 108 0
106 110 109 104 108 105 107 0
-102 561 -101 0
562 -103 -101 0
-104 563 -101 0
-105 564 -101 0
565 -106 -101 0
-107 566 -101 0
567 -108 -101 0
-109 568 -101 0
569 -110 -101 0
-102 570 -103 0
-104 -102 571 0
-105 -102 572 0
-102 -106 573 0
-107 -102 574 0
-102 -108 575 0
-109 -102 576 0
-110 -102 577 0
-104 -103 578 0
-105 -103 579 0
-103 -106 580 0
-107 -103 581 0
-108 -103 582 0
-109 -103 583 0
-110 -103 584 0
-104 -105 585 0
-104 -106 586 0
-104 -107 587 0
-104 -108 588 0
-104 -109 589 0
-104 -110 590 0
-105 -106 591 0
-105 -107 592 0
-105 -108 593 0
-105 -109 594 0
-105 -110 595 0
-107 -106 596 0
-108 -106 597 0
-109 -106 598 0
-110 -106 599 0
-107 -108 600 0
-107 -109 601 0
-107 -110 602 0
-109 -108 603 0
-110 -108 604 0
-109 -110 605 0
336 -11 -1 -5 -15 0
381 -16 -1 -11 -6 0
426 -17 -1 -11 -7 0
471 -11 -8 -18 -1 0
-19 -11 -9 -1 516 0
-20 -11 -10 -1 561 0
-42 -20 572 -14 -50 0
-15 -51 114 -11 -52 0
-17 -71 116 -11 -72 0
-18 -81 117 -11 -82 0
-102 307 -20 -14 -105 0
337 -25 -2 -21 -5 0
382 -26 -21 -2 -6 0
427 -27 -21 -2 -7 0
472 -21 -8 -28 -2 0
517 -21 -9 -29 -2 0
-30 -21 -10 -2 562 0
-22 -21 -11 -12 111 0
255 -23 -12 -13 -22 0
-22 -24 -12 -14 300 0
345 -22 -15 -25 -12 0
390 -16 -26 -22 -12 0
435 -12 -27 -22 -17 0
480 -12 -28 -18 -22 0
-22 -29 -19 -12 525 0
-22 -30 -20 -12 570 0
-21 -51 122 -25 -53 0
-21 -61 123 -26 -63 0
314 -105 -30 -24 -103 0
338 -35 -31 -3 -5 0
383 -36 -3 -31 -6 0
428 -37 -3 -31 -7 0
-38 -31 -8 -3 473 0
-39 -31 -9 -3 518 0
563 -40 -31 -3 -10 0
-32 -13 112 -11 -31 0
210 -32 -12 -13 -33 0
-32 -34 -13 -14 301 0
-32 -35 -15 -13 346 0
391 -36 -13 -16 -32 0
-32 -13 -37 -17 436 0
-32 -13 -38 -18 481 0
-39 -32 -19 -13 526 0
571 -32 -20 -40 -13 0
-33 -21 120 -23 -31 0
-32 -33 -22 -23 165 0
-33 -24 308 -34 -23 0
-33 -23 -35 -25 353 0
-33 -36 -26 -23 398 0
-33 -37 -27 -23 443 0
-33 -23 488 -38 -28 0
-39 -33 -29 -23 533 0
-40 -23 578 -33 -30 0
-44 -39 540 -34 -49 0
-84 -81 132 -31 -38 0
-104 320 -40 -105 -34 0
339 -41 -4 -5 -45 0
384 -41 -4 -6 -46 0
429 -47 -4 -7 -41 0
474 -41 -8 -48 -4 0
519 -41 -9 -4 -49 0
564 -41 -4 -10 -50 0
-14 -45 347 -15 -42 0
-46 -16 392 -42 -14 0
-42 -17 437 -14 -47 0
-42 -18 482 -48 -14 0
-42 -19 527 -14 -49 0
-43 -25 354 -45 -24 0
-43 -26 399 -46 -24 0
-43 -47 -24 -27 444 0
-43 -48 -28 -24 489 0
-43 -29 534 -24 -49 0
-43 -30 579 -24 -50 0
-35 -45 360 -34 -44 0
-36 -46 405 -34 -44 0
-44 -34 450 -47 -37 0
-44 -34 495 -48 -38 0
-44 -40 585 -34 -50 0
-41 -51 135 -45 -55 0
-55 -45 591 -60 -50 0
-70 -46 592 -65 -50 0
-89 -49 -48 -85 549 0
-90 -50 594 -48 -85 0
-91 -41 139 -95 -49 0
-95 -42 184 -92 -49 0
-95 414 -46 -97 -49 0
-99 504 -48 -95 -49 0
-100 -49 595 -95 -50 0
-105 -43 230 -103 -50 0
-104 -44 275 -105 -50 0
-105 370 -45 -106 -50 0
159 -51 -1 -52 -5 0
204 -53 -2 -51 -5 0
249 -54 -3 -5 -51 0
-55 294 -4 -51 -5 0
385 -51 -6 -56 -5 0
430 -57 -7 -51 -5 0
475 -58 -5 -51 -8 0
520 -59 -9 -51 -5 0
565 -10 -51 -60 -5 0
-15 -51 114 -52 -11 0
212 -12 -52 -53 -15 0
257 -54 -15 -52 -13 0
-55 302 -14 -52 -15 0
-56 -52 393 -15 -16 0
-52 -17 -57 -15 438 0
-52 -18 483 -15 -58 0
-59 -19 -15 -52 528 0
-60 -52 573 -15 -20 0
-53 -51 122 -21 -25 0
-22 -53 167 -52 -25 0
264 -54 -25 -53 -23 0
309 -24 -53 -25 -55 0
-56 -26 -25 -53 400 0
-27 -53 445 -57 -25 0
-58 -28 -25 -53 490 0
-29 -53 535 -25 -59 0
-60 -25 580 -53 -30 0
-31 -51 129 -35 -54 0
-32 -52 -54 -35 174 0
-33 -54 -53 -35 219 0
315 -55 -35 -34 -54 0
-56 -36 406 -54 -35 0
-37 -54 -57 -35 451 0
-58 -35 496 -38 -54 0
-39 -54 541 -35 -59 0
-60 -35 586 -54 -40 0
-41 -51 135 -45 -55 0
-55 -42 180 -52 -45 0
-55 -45 225 -43 -53 0
-44 -54 270 -55 -45 0
-59 -45 546 -55 -49 0
-86 -81 143 -58 -51 0
-96 -99 -59 -58 508 0
-105 -60 325 -55 -106 0
160 -61 -1 -6 -62 0
205 -2 -61 -6 -63 0
250 -61 -6 -64 -3 0
-65 295 -61 -6 -4 0
340 -61 -6 -5 -66 0
-67 -61 -7 -6 431 0
476 -68 -6 -8 -61 0
-69 -61 -9 -6 521 0
-70 -10 -61 -6 566 0
-16 -62 115 -61 -11 0
213 -16 -63 -62 -12 0
258 -13 -64 -62 -16 0
-14 -65 -62 -16 303 0
-62 -15 -66 -16 348 0
-62 439 -67 -16 -17 0
-68 -16 484 -18 -62 0
-69 -19 -62 -16 529 0
-70 -20 -62 -16 574 0
-26 -63 123 -61 -21 0
-63 -62 168 -26 -22 0
265 -64 -26 -63 -23 0
310 -65 -26 -63 -24 0
-25 -63 -66 -26 355 0
-27 -63 446 -67 -26 0
-68 -28 -63 -26 491 0
-29 -63 536 -69 -26 0
-70 -30 -63 -26 581 0
-36 -61 130 -31 -64 0
-32 -64 175 -62 -36 0
-33 -64 -63 -36 220 0
316 -36 -65 -64 -34 0
361 -35 -66 -64 -36 0
-36 -64 452 -67 -37 0
-36 -68 497 -38 -64 0
-36 -64 542 -69 -39 0
-36 -64 587 -40 -70 0
-41 -61 136 -46 -65 0
-46 -62 181 -65 -42 0
-46 -63 226 -65 -43 0
-44 -64 271 -46 -65 0
-69 -46 547 -65 -49 0
-61 -56 141 -51 -66 0
-56 -52 -62 -66 186 0
-53 -66 231 -63 -56 0
-64 -54 276 -66 -56 0
-56 -65 321 -66 -55 0
-56 -67 -66 -57 461 0
-56 -68 -66 -58 506 0
-59 -66 551 -69 -56 0
-70 -56 -60 -66 596 0
-87 -81 -61 -68 147 0
-105 -65 329 -70 -107 0
161 -72 -1 -71 -7 0
206 -2 -71 -7 -73 0
251 -74 -3 -7 -71 0
296 -75 -7 -71 -4 0
341 -76 -5 -71 -7 0
-77 386 -71 -6 -7 0
-78 -71 -8 -7 477 0
522 -71 -9 -79 -7 0
567 -10 -71 -7 -80 0
-17 -71 116 -11 -72 0
214 -73 -17 -72 -12 0
259 -13 -17 -72 -74 0
304 -14 -75 -17 -72 0
-76 -72 -15 -17 349 0
-77 -16 -72 -17 394 0
-78 -72 485 -17 -18 0
-79 -19 -72 -17 530 0
-80 -20 -72 -17 575 0
-27 -71 124 -73 -21 0
-22 -73 -72 -27 169 0
266 -74 -27 -73 -23 0
-24 -75 -73 -27 311 0
-76 -25 -73 -27 356 0
-77 -26 -73 -27 401 0
-78 -28 -73 -27 492 0
-79 -29 -73 -27 537 0
-80 -30 582 -27 -73 0
-74 -37 131 -31 -71 0
-37 -72 176 -32 -74 0
-74 -73 221 -37 -33 0
317 -34 -74 -75 -37 0
362 -35 -74 -76 -37 0
-77 -36 -74 -37 407 0
-38 -74 498 -37 -78 0
-79 -39 -37 -74 543 0
-80 -40 -37 -74 588 0
-47 -75 137 -41 -71 0
-42 -75 182 -47 -72 0
-47 -75 227 -43 -73 0
-44 -74 272 -47 -75 0
-79 -47 548 -75 -49 0
-80 -47 593 -75 -50 0
-76 -71 -57 -51 142 0
-76 -52 187 -57 -72 0
-76 -73 -53 -57 232 0
-76 -74 -54 -57 277 0
-75 -55 -76 -57 322 0
416 -77 -57 -76 -56 0
-78 -58 -57 -76 507 0
-79 -59 -57 -76 552 0
-80 -60 -57 -76 597 0
-77 -67 146 -61 -71 0
-77 -72 -62 -67 191 0
-73 -63 -67 -77 236 0
-77 -74 -64 -67 281 0
-77 -65 326 -67 -75 0
-77 -66 371 -67 -76 0
-78 -68 -77 -67 510 0
-79 -69 -67 -77 555 0
-80 -70 -77 -67 600 0
-105 -80 332 -75 -108 0
-82 162 -8 -81 -1 0
207 -81 -8 -2 -83 0
-84 252 -8 -81 -3 0
297 -4 -8 -81 -85 0
342 -86 -8 -5 -81 0
-87 -81 -6 -8 387 0
-88 432 -7 -81 -8 0
-81 -11 117 -18 -82 0
-82 215 -18 -12 -83 0
-84 260 -13 -18 -82 0
305 -14 -85 -18 -82 0
350 -86 -15 -82 -18 0
-87 395 -16 -82 -18 0
-82 440 -18 -17 -88 0
-89 -18 531 -19 -82 0
-90 -20 576 -18 -82 0
-81 -21 125 -28 -83 0
-82 -22 -83 -28 170 0
267 -23 -83 -84 -28 0
312 -24 -28 -83 -85 0
357 -86 -28 -83 -25 0
-87 402 -26 -28 -83 0
-88 447 -27 -28 -83 0
-89 -29 -83 -28 538 0
-90 -30 583 -28 -83 0
-84 -81 132 -31 -38 0
-82 -38 177 -84 -32 0
-33 -83 222 -38 -84 0
318 -34 -85 -84 -38 0
363 -86 -35 -38 -84 0
-87 408 -38 -36 -84 0
-88 453 -38 -37 -84 0
-89 -38 544 -39 -84 0
-84 -40 589 -38 -90 0
-81 -41 138 -48 -85 0
-82 -48 183 -85 -42 0
-43 -83 228 -48 -85 0
-84 -44 273 -48 -85 0
-86 -81 143 -58 -51 0
-58 -86 188 -52 -82 0
-86 -53 233 -58 -83 0
-84 -58 278 -86 -54 0
-89 -59 -86 -58 553 0
-90 -60 -86 -58 598 0
-68 -81 147 -61 -87 0
-82 -68 192 -62 -87 0
-87 -63 237 -68 -83 0
-84 -64 282 -68 -87 0
-87 -89 -68 -69 556 0
-87 -70 601 -90 -68 0
-88 -78 150 -71 -81 0
-88 -72 195 -78 -82 0
-88 -73 240 -83 -78 0
-88 -78 285 -84 -74 0
-89 -79 558 -78 -88 0
-90 -78 603 -88 -80 0
-105 334 -85 -90 -109 0
-91 343 -9 -96 -5 0
-97 388 -9 -91 -6 0
-91 -19 118 -11 -92 0
-92 216 -12 -19 -93 0
-92 -94 -19 -13 261 0
-95 306 -19 -92 -14 0
-96 351 -15 -19 -92 0
-97 396 -16 -19 -92 0
-98 441 -19 -92 -17 0
-99 -92 -19 -18 486 0
-93 -92 -22 -29 171 0
-93 268 -23 -94 -29 0
-95 -93 -29 -24 313 0
-93 -96 -29 -25 358 0
403 -97 -29 -26 -93 0
-93 448 -27 -98 -29 0
-99 493 -29 -93 -28 0
-94 -93 -39 -33 223 0
-95 -94 -39 -34 319 0
-94 -96 -39 -35 364 0
-97 -94 -39 -36 409 0
-98 -94 -37 -39 454 0
-99 -94 -38 -39 499 0
-95 -43 229 -93 -49 0
-95 -44 274 -94 -49 0
-95 369 -45 -96 -49 0
-98 459 -47 -95 -49 0
-96 -59 279 -54 -94 0
-95 -55 324 -59 -96 0
-97 -91 -69 -61 148 0
-97 -69 193 -92 -62 0
-97 -95 -69 -65 328 0
-97 -96 -69 -66 373 0
-97 -98 -67 -69 466 0
-98 -93 -79 -73 241 0
-97 -98 -79 -77 421 0
-98 -99 -79 -78 513 0
-92 -82 198 -99 -89 0
-99 243 -83 -89 -93 0
-99 -84 288 -94 -89 0
-99 333 -85 -95 -89 0
-99 378 -86 -89 -96 0
-99 -87 423 -89 -97 0
-98 -99 -88 -89 468 0
-110 -100 -101 -91 155 0
-110 -100 -103 -93 245 0
-110 -104 -100 -94 290 0
-110 -100 -108 -98 470 0
-102 164 -1 -101 -10 0
-103 -101 -10 -2 209 0
-104 -101 -3 -10 254 0
-105 -101 -4 -10 299 0
344 -106 -10 -101 -5 0
389 -107 -10 -101 -6 0
434 -108 -7 -10 -101 0
-101 -11 119 -20 -102 0
-102 -103 -20 -12 217 0
-102 262 -20 -104 -13 0
-102 352 -20 -15 -106 0
-102 397 -20 -16 -107 0
-102 -108 -20 -17 442 0
-109 -102 -20 -18 487 0
-101 -21 127 -30 -103 0
-102 -22 172 -103 -30 0
269 -23 -103 -30 -104 0
359 -30 -106 -103 -25 0
-107 -30 -26 -103 404 0
-108 -103 -27 -30 449 0
-109 494 -28 -103 -30 0
-104 -40 134 -101 -31 0
-102 -40 179 -32 -104 0
-40 -103 224 -33 -104 0
-104 365 -40 -106 -35 0
-104 410 -36 -107 -40 0
-104 -108 -37 -40 455 0
-109 500 -40 -104 -38 0
-105 -41 140 -101 -50 0
-105 -42 185 -102 -50 0
-105 415 -46 -107 -50 0
-105 460 -47 -108 -50 0
-105 505 -48 -109 -50 0
-105 550 -49 -50 -110 0
-101 -51 145 -60 -106 0
-102 -60 -52 -106 190 0
-103 -53 235 -60 -106 0
-104 -106 -54 -60 280 0
419 -56 -106 -107 -60 0
-108 -106 -57 -60 464 0
-109 509 -58 -106 -60 0
-107 -70 -101 -61 149 0
-107 -70 194 -62 -102 0
-107 -70 239 -63 -103 0
-104 -64 284 -70 -107 0
-107 -70 374 -106 -66 0
-107 -70 -108 -67 467 0
-108 -80 152 -71 -101 0
-102 -72 197 -108 -80 0
-80 -103 242 -108 -73 0
-104 -80 -74 -108 287 0
-80 -108 377 -76 -106 0
-107 -80 -77 -108 422 0
-109 -78 -80 -108 514 0
-109 -82 199 -90 -102 0
244 -103 -83 -109 -90 0
-109 -90 289 -104 -84 0
-109 379 -86 -106 -90 0
-109 -107 -87 -90 424 0
-109 -90 -108 -88 469 0
-110 -102 -100 -92 200 0
-110 -100 -106 -96 380 0
-110 -109 -99 -100 515 0
-165 -120 0
-166 -121 0
-167 -122 0
-168 -123 0
-169 -124 0
-170 -125 0
-171 -126 0
-172 -127 0
-173 -128 0
-174 -129 0
-175 -130 0
-176 -131 0
-177 -132 0
-178 -133 0
-179 -134 0
-180 -135 0
-181 -136 0
-182 -137 0
-183 -138 0
-184 -139 0
-185 -140 0
-186 -141 0
-187 -142 0
-188 -143 0
-189 -144 0
-190 -145 0
-191 -146 0
-192 -147 0
-193 -148 0
-194 -149 0
-195 -150 0
-196 -151 0
-197 -152 0
-198 -153 0
-199 -154 0
-218 -128 0
-219 -129 0
-220 -130 0
-221 -131 0
-222 -132 0
-223 -133 0
-224 -134 0
-225 -135 0
-226 -136 0
-227 -137 0
-228 -138 0
-229 -139 0
-230 -140 0
-231 -141 0
-232 -142 0
-233 -143 0
-234 -144 0
-235 -145 0
-236 -146 0
-237 -147 0
-238 -148 0
-239 -149 0
-240 -150 0
-241 -151 0
-242 -152 0
-243 -153 0
-245 -155 0
-255 -111 0
-270 -135 0
-271 -136 0
-272 -137 0
-273 -138 0
-274 -139 0
-275 -140 0
-276 -141 0
-277 -142 0
-278 -143 0
-279 -144 0
-280 -145 0
-281 -146 0
-282 -147 0
-283 -148 0
-284 -149 0
-285 -150 0
-286 -151 0
-287 -152 0
-288 -153 0
-289 -154 0
-290 -155 0
-300 -111 0
-321 -141 0
-322 -142 0
-323 -143 0
-324 -144 0
-325 -145 0
-326 -146 0
-327 -147 0
-328 -148 0
-329 -149 0
-330 -150 0
-331 -151 0
-332 -152 0
-333 -153 0
-334 -154 0
-335 -155 0
-345 -111 0
-346 -112 0
-347 -113 0
-353 -120 0
-354 -121 0
-360 -128 0
-371 -146 0
-372 -147 0
-373 -148 0
-374 -149 0
-375 -150 0
-376 -151 0
-377 -152 0
-378 -153 0
-379 -154 0
-380 -155 0
-390 -111 0
-391 -112 0
-392 -113 0
-393 -114 0
-398 -120 0
-399 -121 0
-400 -122 0
-405 -128 0
-406 -129 0
-411 -135 0
-420 -150 0
-421 -151 0
-422 -152 0
-423 -153 0
-424 -154 0
-435 -111 0
-436 -112 0
-437 -113 0
-438 -114 0
-439 -115 0
-443 -120 0
-444 -121 0
-445 -122 0
-446 -123 0
-450 -128 0
-451 -129 0
-452 -130 0
-456 -135 0
-457 -136 0
-461 -141 0
-468 -153 0
-480 -111 0
-481 -112 0
-482 -113 0
-483 -114 0
-484 -115 0
-485 -116 0
-488 -120 0
-489 -121 0
-490 -122 0
-491 -123 0
-492 -124 0
-495 -128 0
-496 -129 0
-497 -130 0
-498 -131 0
-501 -135 0
-502 -136 0
-503 -137 0
-506 -141 0
-507 -142 0
-510 -146 0
-525 -111 0
-526 -112 0
-528 -114 0
-529 -115 0
-530 -116 0
-531 -117 0
-533 -120 0
-534 -121 0
-535 -122 0
-536 -123 0
-537 -124 0
-538 -125 0
-540 -128 0
-541 -129 0
-542 -130 0
-543 -131 0
-544 -132 0
-546 -135 0
-547 -136 0
-548 -137 0
-549 -138 0
-551 -141 0
-552 -142 0
-553 -143 0
-555 -146 0
-556 -147 0
-558 -150 0
-570 -111 0
-571 -112 0
-572 -113 0
-573 -114 0
-574 -115 0
-575 -116 0
-576 -117 0
-577 -118 0
-578 -120 0
-579 -121 0
-580 -122 0
-581 -123 0
-582 -124 0
-583 -125 0
-584 -126 0
-585 -128 0
-586 -129 0
-587 -130 0
-588 -131 0
-589 -132 0
-590 -133 0
-591 -135 0
-592 -136 0
-593 -137 0
-594 -138 0
-595 -139 0
-596 -141 0
-597 -142 0
-598 -143 0
-599 -144 0
-600 -146 0
-601 -147 0
-602 -148 0
-603 -150 0
-604 -151 0
-605 -153 0
-202 -157 0
-203 -158 0
-204 -159 0
-205 -160 0
-206 -161 0
-207 -162 0
-208 -163 0
-209 -164 0
-218 -173 0
-219 -174 0
-220 -175 0
-221 -176 0
-222 -177 0
-223 -178 0
-224 -179 0
-225 -180 0
-226 -181 0
-227 -182 0
-228 -183 0
-229 -184 0
-230 -185 0
-231 -186 0
-232 -187 0
-233 -188 0
-234 -189 0
-235 -190 0
-236 -191 0
-237 -192 0
-238 -193 0
-239 -194 0
-240 -195 0
-241 -196 0
-242 -197 0
-243 -198 0
-244 -199 0
-245 -200 0
-248 -158 0
-249 -159 0
-250 -160 0
-251 -161 0
-252 -162 0
-253 -163 0
-254 -164 0
-270 -180 0
-271 -181 0
-272 -182 0
-273 -183 0
-274 -184 0
-275 -185 0
-276 -186 0
-277 -187 0
-278 -188 0
-279 -189 0
-280 -190 0
-281 -191 0
-282 -192 0
-283 -193 0
-284 -194 0
-285 -195 0
-286 -196 0
-287 -197 0
-288 -198 0
-289 -199 0
-290 -200 0
-294 -159 0
-295 -160 0
-296 -161 0
-297 -162 0
-298 -163 0
-299 -164 0
-308 -165 0
-321 -186 0
-322 -187 0
-323 -188 0
-324 -189 0
-325 -190 0
-326 -191 0
-327 -192 0
-328 -193 0
-329 -194 0
-330 -195 0
-331 -196 0
-332 -197 0
-333 -198 0
-334 -199 0
-335 -200 0
-340 -160 0
-341 -161 0
-342 -162 0
-343 -163 0
-344 -164 0
-353 -165 0
-354 -166 0
-360 -173 0
-371 -191 0
-372 -192 0
-373 -193 0
-374 -194 0
-375 -195 0
-376 -196 0
-377 -197 0
-378 -198 0
-379 -199 0
-380 -200 0
-386 -161 0
-387 -162 0
-388 -163 0
-389 -164 0
-398 -165 0
-399 -166 0
-400 -167 0
-405 -173 0
-406 -174 0
-411 -180 0
-420 -195 0
-421 -196 0
-422 -197 0
-423 -198 0
-424 -199 0
-425 -200 0
-432 -162 0
-433 -163 0
-434 -164 0
-443 -165 0
-444 -166 0
-445 -167 0
-446 -168 0
-450 -173 0
-451 -174 0
-452 -175 0
-456 -180 0
-457 -181 0
-461 -186 0
-468 -198 0
-469 -199 0
-470 -200 0
-478 -163 0
-479 -164 0
-488 -165 0
-489 -166 0
-490 -167 0
-491 -168 0
-492 -169 0
-495 -173 0
-496 -174 0
-497 -175 0
-498 -176 0
-501 -180 0
-502 -181 0
-503 -182 0
-506 -186 0
-507 -187 0
-510 -191 0
-515 -200 0
-524 -164 0
-533 -165 0
-534 -166 0
-535 -167 0
-536 -168 0
-537 -169 0
-538 -170 0
-540 -173 0
-541 -174 0
-542 -175 0
-543 -176 0
-544 -177 0
-546 -180 0
-547 -181 0
-548 -182 0
-549 -183 0
-551 -186 0
-552 -187 0
-553 -188 0
-555 -191 0
-556 -192 0
-558 -195 0
-578 -165 0
-579 -166 0
-580 -167 0
-581 -168 0
-582 -169 0
-583 -170 0
-584 -171 0
-585 -173 0
-586 -174 0
-587 -175 0
-588 -176 0
-589 -177 0
-590 -178 0
-591 -180 0
-592 -181 0
-593 -182 0
-594 -183 0
-595 -184 0
-596 -186 0
-597 -187 0
-598 -188 0
-599 -189 0
-600 -191 0
-601 -192 0
-602 -193 0
-603 -195 0
-604 -196 0
-605 -198 0
-246 -201 0
-248 -203 0
-249 -204 0
-250 -205 0
-251 -206 0
-252 -207 0
-253 -208 0
-254 -209 0
-256 -211 0
-257 -212 0
-258 -213 0
-259 -214 0
-260 -215 0
-261 -216 0
-262 -217 0
-270 -225 0
-271 -226 0
-272 -227 0
-273 -228 0
-274 -229 0
-275 -230 0
-276 -231 0
-277 -232 0
-278 -233 0
-279 -234 0
-280 -235 0
-281 -236 0
-282 -237 0
-283 -238 0
-284 -239 0
-285 -240 0
-286 -241 0
-287 -242 0
-288 -243 0
-289 -244 0
-290 -245 0
-291 -201 0
-294 -204 0
-295 -205 0
-296 -206 0
-297 -207 0
-298 -208 0
-299 -209 0
-302 -212 0
-303 -213 0
-304 -214 0
-305 -215 0
-306 -216 0
-307 -217 0
-321 -231 0
-322 -232 0
-323 -233 0
-324 -234 0
-325 -235 0
-326 -236 0
-327 -237 0
-328 -238 0
-329 -239 0
-330 -240 0
-331 -241 0
-332 -242 0
-333 -243 0
-334 -244 0
-335 -245 0
-336 -201 0
-340 -205 0
-341 -206 0
-342 -207 0
-343 -208 0
-344 -209 0
-348 -213 0
-349 -214 0
-350 -215 0
-351 -216 0
-352 -217 0
-360 -218 0
-371 -236 0
-372 -237 0
-373 -238 0
-374 -239 0
-375 -240 0
-376 -241 0
-377 -242 0
-378 -243 0
-379 -244 0
-381 -201 0
-386 -206 0
-387 -207 0
-388 -208 0
-389 -209 0
-394 -214 0
-395 -215 0
-396 -216 0
-397 -217 0
-405 -218 0
-406 -219 0
-411 -225 0
-420 -240 0
-421 -241 0
-422 -242 0
-423 -243 0
-424 -244 0
-425 -245 0
-426 -201 0
-432 -207 0
-433 -208 0
-434 -209 0
-440 -215 0
-441 -216 0
-442 -217 0
-450 -218 0
-451 -219 0
-452 -220 0
-456 -225 0
-457 -226 0
-461 -231 0
-468 -243 0
-469 -244 0
-470 -245 0
-471 -201 0
-478 -208 0
-479 -209 0
-486 -216 0
-487 -217 0
-495 -218 0
-496 -219 0
-497 -220 0
-498 -221 0
-501 -225 0
-502 -226 0
-503 -227 0
-506 -231 0
-507 -232 0
-510 -236 0
-515 -245 0
-516 -201 0
-524 -209 0
-532 -217 0
-540 -218 0
-541 -219 0
-542 -220 0
-543 -221 0
-544 -222 0
-546 -225 0
-547 -226 0
-548 -227 0
-549 -228 0
-551 -231 0
-552 -232 0
-553 -233 0
-555 -236 0
-556 -237 0
-558 -240 0
-561 -201 0
-585 -218 0
-586 -219 0
-587 -220 0
-588 -221 0
-589 -222 0
-590 -223 0
-591 -225 0
-592 -226 0
-593 -227 0
-594 -228 0
-595 -229 0
-596 -231 0
-597 -232 0
-598 -233 0
-599 -234 0
-600 -236 0
-601 -237 0
-602 -238 0
-603 -240 0
-604 -241 0
-605 -243 0
-291 -246 0
-292 -247 0
-294 -249 0
-295 -250 0
-296 -251 0
-297 -252 0
-298 -253 0
-299 -254 0
-300 -255 0
-302 -257 0
-303 -258 0
-304 -259 0
-305 -260 0
-306 -261 0
-307 -262 0
-309 -264 0
-310 -265 0
-311 -266 0
-312 -267 0
-313 -268 0
-314 -269 0
-321 -276 0
-322 -277 0
-323 -278 0
-324 -279 0
-325 -280 0
-326 -281 0
-327 -282 0
-328 -283 0
-329 -284 0
-330 -285 0
-331 -286 0
-332 -287 0
-333 -288 0
-334 -289 0
-335 -290 0
-336 -246 0
-337 -247 0
-340 -250 0
-341 -251 0
-342 -252 0
-343 -253 0
-344 -254 0
-345 -255 0
-348 -258 0
-349 -259 0
-350 -260 0
-351 -261 0
-352 -262 0
-355 -265 0
-356 -266 0
-357 -267 0
-358 -268 0
-359 -269 0
-371 -281 0
-372 -282 0
-373 -283 0
-374 -284 0
-375 -285 0
-376 -286 0
-377 -287 0
-378 -288 0
-379 -289 0
-380 -290 0
-381 -246 0
-382 -247 0
-386 -251 0
-387 -252 0
-388 -253 0
-389 -254 0
-390 -255 0
-394 -259 0
-395 -260 0
-396 -261 0
-397 -262 0
-401 -266 0
-402 -267 0
-403 -268 0
-404 -269 0
-411 -270 0
-420 -285 0
-421 -286 0
-422 -287 0
-423 -288 0
-424 -289 0
-425 -290 0
-426 -246 0
-427 -247 0
-432 -252 0
-433 -253 0
-434 -254 0
-435 -255 0
-440 -260 0
-441 -261 0
-442 -262 0
-447 -267 0
-448 -268 0
-449 -269 0
-456 -270 0
-457 -271 0
-461 -276 0
-468 -288 0
-469 -289 0
-470 -290 0
-471 -246 0
-472 -247 0
-478 -253 0
-479 -254 0
-480 -255 0
-486 -261 0
-487 -262 0
-493 -268 0
-494 -269 0
-501 -270 0
-502 -271 0
-503 -272 0
-506 -276 0
-507 -277 0
-510 -281 0
-515 -290 0
-516 -246 0
-517 -247 0
-524 -254 0
-525 -255 0
-532 -262 0
-539 -269 0
-546 -270 0
-547 -271 0
-548 -272 0
-549 -273 0
-551 -276 0
-552 -277 0
-553 -278 0
-555 -281 0
-556 -282 0
-558 -285 0
-561 -246 0
-562 -247 0
-570 -255 0
-591 -270 0
-592 -271 0
-593 -272 0
-594 -273 0
-595 -274 0
-596 -276 0
-597 -277 0
-598 -278 0
-599 -279 0
-600 -281 0
-601 -282 0
-602 -283 0
-603 -285 0
-604 -286 0
-605 -288 0
-291 -336 0
-292 -337 0
-293 -338 0
-340 -295 0
-341 -296 0
-342 -297 0
-343 -298 0
-344 -299 0
-300 -345 0
-301 -346 0
-348 -303 0
-349 -304 0
-350 -305 0
-351 -306 0
-352 -307 0
-308 -353 0
-355 -310 0
-356 -311 0
-357 -312 0
-358 -313 0
-359 -314 0
-361 -316 0
-362 -317 0
-363 -318 0
-364 -319 0
-365 -320 0
-371 -326 0
-327 -372 0
-373 -328 0
-374 -329 0
-330 -375 0
-376 -331 0
-377 -332 0
-378 -333 0
-379 -334 0
-380 -335 0
-291 -381 0
-292 -382 0
-293 -383 0
-386 -296 0
-387 -297 0
-388 -298 0
-389 -299 0
-300 -390 0
-301 -391 0
-394 -304 0
-395 -305 0
-396 -306 0
-397 -307 0
-308 -398 0
-401 -311 0
-402 -312 0
-403 -313 0
-404 -314 0
-407 -317 0
-408 -318 0
-409 -319 0
-410 -320 0
-330 -420 0
-421 -331 0
-422 -332 0
-423 -333 0
-424 -334 0
-425 -335 0
-291 -426 0
-292 -427 0
-293 -428 0
-432 -297 0
-433 -298 0
-434 -299 0
-300 -435 0
-301 -436 0
-440 -305 0
-441 -306 0
-442 -307 0
-308 -443 0
-447 -312 0
-448 -313 0
-449 -314 0
-453 -318 0
-454 -319 0
-455 -320 0
-461 -321 0
-468 -333 0
-469 -334 0
-470 -335 0
-291 -471 0
-292 -472 0
-293 -473 0
-478 -298 0
-479 -299 0
-300 -480 0
-301 -481 0
-486 -306 0
-487 -307 0
-308 -488 0
-493 -313 0
-494 -314 0
-499 -319 0
-500 -320 0
-506 -321 0
-507 -322 0
-510 -326 0
-515 -335 0
-291 -516 0
-292 -517 0
-293 -518 0
-524 -299 0
-300 -525 0
-301 -526 0
-532 -307 0
-308 -533 0
-539 -314 0
-545 -320 0
-551 -321 0
-552 -322 0
-323 -553 0
-555 -326 0
-327 -556 0
-330 -558 0
-291 -561 0
-292 -562 0
-293 -563 0
-300 -570 0
-301 -571 0
-308 -578 0
-596 -321 0
-597 -322 0
-323 -598 0
-599 -324 0
-600 -326 0
-327 -601 0
-602 -328 0
-330 -603 0
-604 -331 0
-605 -333 0
-381 -336 0
-382 -337 0
-383 -338 0
-384 -339 0
-386 -341 0
-387 -342 0
-388 -343 0
-389 -344 0
-390 -345 0
-391 -346 0
-392 -347 0
-394 -349 0
-395 -350 0
-396 -351 0
-397 -352 0
-398 -353 0
-399 -354 0
-401 -356 0
-402 -357 0
-403 -358 0
-404 -359 0
-405 -360 0
-407 -362 0
-408 -363 0
-409 -364 0
-410 -365 0
-412 -367 0
-413 -368 0
-414 -369 0
-415 -370 0
-420 -375 0
-421 -376 0
-422 -377 0
-423 -378 0
-424 -379 0
-425 -380 0
-426 -336 0
-427 -337 0
-428 -338 0
-429 -339 0
-432 -342 0
-433 -343 0
-434 -344 0
-435 -345 0
-436 -346 0
-437 -347 0
-440 -350 0
-441 -351 0
-442 -352 0
-443 -353 0
-444 -354 0
-447 -357 0
-448 -358 0
-449 -359 0
-450 -360 0
-453 -363 0
-454 -364 0
-455 -365 0
-458 -368 0
-459 -369 0
-460 -370 0
-468 -378 0
-469 -379 0
-470 -380 0
-471 -336 0
-472 -337 0
-473 -338 0
-474 -339 0
-478 -343 0
-479 -344 0
-480 -345 0
-481 -346 0
-482 -347 0
-486 -351 0
-487 -352 0
-488 -353 0
-489 -354 0
-493 -358 0
-494 -359 0
-495 -360 0
-499 -364 0
-500 -365 0
-504 -369 0
-505 -370 0
-510 -371 0
-515 -380 0
-516 -336 0
-517 -337 0
-518 -338 0
-519 -339 0
-524 -344 0
-525 -345 0
-526 -346 0
-527 -347 0
-532 -352 0
-533 -353 0
-534 -354 0
-539 -359 0
-540 -360 0
-545 -365 0
-550 -370 0
-555 -371 0
-556 -372 0
-558 -375 0
-561 -336 0
-562 -337 0
-563 -338 0
-564 -339 0
-570 -345 0
-571 -346 0
-572 -347 0
-578 -353 0
-579 -354 0
-585 -360 0
-600 -371 0
-601 -372 0
-602 -373 0
-603 -375 0
-604 -376 0
-605 -378 0
-426 -381 0
-427 -382 0
-428 -383 0
-429 -384 0
-430 -385 0
-432 -387 0
-433 -388 0
-434 -389 0
-435 -390 0
-436 -391 0
-437 -392 0
-438 -393 0
-440 -395 0
-441 -396 0
-442 -397 0
-443 -398 0
-444 -399 0
-445 -400 0
-447 -402 0
-448 -403 0
-449 -404 0
-450 -405 0
-451 -406 0
-453 -408 0
-454 -409 0
-455 -410 0
-456 -411 0
-458 -413 0
-459 -414 0
-460 -415 0
-462 -417 0
-463 -418 0
-464 -419 0
-468 -423 0
-469 -424 0
-471 -381 0
-472 -382 0
-473 -383 0
-474 -384 0
-475 -385 0
-478 -388 0
-479 -389 0
-480 -390 0
-481 -391 0
-482 -392 0
-483 -393 0
-486 -396 0
-487 -397 0
-488 -398 0
-489 -399 0
-490 -400 0
-493 -403 0
-494 -404 0
-495 -405 0
-496 -406 0
-499 -409 0
-500 -410 0
-501 -411 0
-504 -414 0
-505 -415 0
-508 -418 0
-509 -419 0
-516 -381 0
-517 -382 0
-518 -383 0
-519 -384 0
-520 -385 0
-524 -389 0
-525 -390 0
-526 -391 0
-527 -392 0
-528 -393 0
-532 -397 0
-533 -398 0
-534 -399 0
-535 -400 0
-539 -404 0
-540 -405 0
-541 -406 0
-545 -410 0
-546 -411 0
-550 -415 0
-554 -419 0
-558 -420 0
-561 -381 0
-562 -382 0
-563 -383 0
-564 -384 0
-565 -385 0
-570 -390 0
-571 -391 0
-572 -392 0
-573 -393 0
-578 -398 0
-579 -399 0
-580 -400 0
-585 -405 0
-586 -406 0
-591 -411 0
-603 -420 0
-604 -421 0
-605 -423 0
-471 -426 0
-472 -427 0
-473 -428 0
-474 -429 0
-475 -430 0
-476 -431 0
-478 -433 0
-479 -434 0
-480 -435 0
-481 -436 0
-482 -437 0
-483 -438 0
-484 -439 0
-486 -441 0
-487 -442 0
-488 -443 0
-489 -444 0
-490 -445 0
-491 -446 0
-493 -448 0
-494 -449 0
-495 -450 0
-496 -451 0
-497 -452 0
-499 -454 0
-500 -455 0
-501 -456 0
-502 -457 0
-504 -459 0
-505 -460 0
-506 -461 0
-508 -463 0
-509 -464 0
-511 -466 0
-512 -467 0
-516 -426 0
-517 -427 0
-518 -428 0
-519 -429 0
-520 -430 0
-521 -431 0
-524 -434 0
-525 -435 0
-526 -436 0
-527 -437 0
-528 -438 0
-529 -439 0
-532 -442 0
-533 -443 0
-534 -444 0
-535 -445 0
-536 -446 0
-539 -449 0
-540 -450 0
-541 -451 0
-542 -452 0
-545 -455 0
-546 -456 0
-547 -457 0
-550 -460 0
-551 -461 0
-554 -464 0
-557 -467 0
-561 -426 0
-562 -427 0
-563 -428 0
-564 -429 0
-565 -430 0
-566 -431 0
-570 -435 0
-571 -436 0
-572 -437 0
-573 -438 0
-574 -439 0
-578 -443 0
-579 -444 0
-580 -445 0
-581 -446 0
-585 -450 0
-586 -451 0
-587 -452 0
-591 -456 0
-592 -457 0
-596 -461 0
-605 -468 0
-516 -471 0
-517 -472 0
-518 -473 0
-519 -474 0
-520 -475 0
-521 -476 0
-522 -477 0
-479 -524 0
-525 -480 0
-526 -481 0
-527 -482 0
-528 -483 0
-529 -484 0
-530 -485 0
-532 -487 0
-533 -488 0
-534 -489 0
-535 -490 0
-536 -491 0
-537 -492 0
-539 -494 0
-540 -495 0
-541 -496 0
-542 -497 0
-543 -498 0
-545 -500 0
-501 -546 0
-502 -547 0
-503 -548 0
-550 -505 0
-551 -506 0
-552 -507 0
-554 -509 0
-555 -510 0
-557 -512 0
-559 -514 0
-561 -471 0
-562 -472 0
-563 -473 0
-564 -474 0
-565 -475 0
-566 -476 0
-567 -477 0
-570 -480 0
-571 -481 0
-572 -482 0
-573 -483 0
-574 -484 0
-575 -485 0
-578 -488 0
-579 -489 0
-580 -490 0
-581 -491 0
-582 -492 0
-585 -495 0
-586 -496 0
-587 -497 0
-588 -498 0
-501 -591 0
-502 -592 0
-503 -593 0
-596 -506 0
-597 -507 0
-600 -510 0
-561 -516 0
-562 -517 0
-563 -518 0
-564 -519 0
-565 -520 0
-566 -521 0
-567 -522 0
-568 -523 0
-570 -525 0
-571 -526 0
-572 -527 0
-573 -528 0
-574 -529 0
-575 -530 0
-576 -531 0
-578 -533 0
-579 -534 0
-580 -535 0
-581 -536 0
-582 -537 0
-583 -538 0
-585 -540 0
-586 -541 0
-587 -542 0
-588 -543 0
-589 -544 0
-591 -546 0
-592 -547 0
-593 -548 0
-594 -549 0
-596 -551 0
-597 -552 0
-598 -553 0
-600 -555 0
-601 -556 0
-603 -558 0
-606 0
611 612 0
611 613 0
612 613 0
608 607 609 610 606 0
615 614 616 606 0
-1 607 0
1 -607 0
608 -2 0
2 -608 0
609 -3 0
3 -609 0
610 -4 0
4 -610 0
-5 611 0
5 -611 0
-6 612 0
6 -612 0
-7 613 0
7 -613 0
-8 614 0
8 -614 0
615 -9 0
-615 9 0
-10 616 0
-616 10 0
-16 -77 -2 -12 -5 -76 0
-97 -96 -16 -12 -5 -2 0
-107 -16 -106 -5 -12 -2 0
-98 -12 -2 -17 -96 -5 0
-12 -106 -2 -108 -5 -17 0
-109 -12 -2 -106 -18 -5 0
-110 -12 -106 -5 -2 -19 0
-97 -98 -12 -17 -2 -6 0
-12 -108 -2 -107 -6 -17 0
-99 -97 -12 -18 -2 -6 0
-107 -12 -2 -109 -18 -6 0
-110 -107 -19 -12 -6 -2 0
-99 -98 -12 -18 -7 -2 0
-109 -12 -108 -18 -7 -2 0
-19 -108 -2 -12 -7 -110 0
-13 -76 -3 -77 -5 -16 0
-97 -96 -16 -13 -3 -5 0
-107 -16 -106 -5 -3 -13 0
-13 -108 -106 -17 -3 -5 0
-109 -106 -3 -5 -18 -13 0
-13 -106 -3 -5 -19 -110 0
-97 -13 -3 -17 -98 -6 0
-107 -13 -3 -6 -108 -17 0
-107 -13 -3 -109 -6 -18 0
-107 -19 -3 -6 -13 -110 0
-13 -108 -3 -109 -7 -18 0
-110 -19 -3 -7 -108 -13 0
-77 -16 -76 -5 -4 -14 0
-16 -106 -4 -14 -5 -107 0
-96 -14 -4 -17 -98 -5 0
-14 -108 -106 -17 -4 -5 0
-106 -18 -4 -14 -109 -5 0
-14 -106 -4 -5 -19 -110 0
-97 -14 -4 -17 -98 -6 0
-107 -14 -108 -17 -6 -4 0
-99 -14 -4 -97 -18 -6 0
-107 -14 -4 -109 -6 -18 0
-107 -19 -4 -110 -14 -6 0
-109 -14 -4 -108 -7 -18 0
-110 -19 -4 -7 -108 -14 0
-97 -98 -15 -17 -6 -5 0
-77 -106 -5 -107 -72 -1 0
-107 -108 -15 -17 -6 -5 0
-97 -87 -5 -82 -96 -1 0
-97 -99 -15 -18 -5 -6 0
-87 -106 -1 -107 -82 -5 0
-109 -107 -15 -18 -6 -5 0
-107 -19 -5 -15 -110 -6 0
-98 -96 -82 -88 -1 -5 0
-98 -99 -15 -18 -7 -5 0
-82 -108 -106 -88 -5 -1 0
-109 -108 -15 -18 -5 -7 0
-108 -19 -5 -15 -7 -110 0
-109 -92 -1 -106 -99 -5 0
-109 -110 -15 -19 -8 -5 0
-97 -82 -1 -98 -88 -6 0
-107 -82 -108 -88 -6 -1 0
-109 -108 -16 -18 -7 -6 0
-110 -108 -16 -19 -6 -7 0
-109 -110 -16 -19 -6 -8 0
-110 -109 -19 -17 -8 -7 0
-77 -76 -26 -23 -5 -3 0
-107 -106 -3 -26 -23 -5 0
-23 -108 -106 -5 -3 -27 0
-109 -106 -28 -23 -3 -5 0
-110 -29 -3 -106 -23 -5 0
-23 -108 -3 -107 -27 -6 0
-97 -23 -3 -6 -28 -99 0
-107 -23 -3 -109 -6 -28 0
-110 -23 -3 -29 -107 -6 0
-108 -28 -3 -109 -7 -23 0
-110 -29 -108 -23 -3 -7 0
-24 -76 -4 -77 -5 -26 0
-106 -26 -4 -107 -5 -24 0
-24 -106 -4 -108 -5 -27 0
-109 -106 -28 -24 -5 -4 0
-29 -106 -4 -110 -24 -5 0
-24 -108 -4 -107 -6 -27 0
-107 -24 -4 -6 -28 -109 0
-110 -107 -29 -24 -4 -6 0
-109 -28 -4 -108 -7 -24 0
-110 -24 -4 -108 -7 -29 0
-96 -97 -73 -77 -2 -5 0
-97 -98 -25 -27 -6 -5 0
-106 -73 -5 -107 -2 -77 0
-107 -108 -25 -27 -5 -6 0
-97 -83 -2 -96 -87 -5 0
-99 -97 -25 -28 -5 -6 0
-87 -106 -2 -107 -5 -83 0
-109 -28 -5 -25 -107 -6 0
-107 -97 -106 -93 -2 -5 0
-110 -107 -29 -25 -5 -6 0
-98 -88 -2 -96 -83 -5 0
-99 -98 -25 -28 -7 -5 0
-108 -83 -106 -88 -5 -2 0
-109 -108 -25 -28 -7 -5 0
-110 -29 -108 -25 -5 -7 0
-109 -99 -106 -93 -2 -5 0
-110 -109 -29 -25 -8 -5 0
-98 -83 -6 -88 -97 -2 0
-99 -98 -28 -26 -6 -7 0
-108 -107 -2 -83 -6 -88 0
-109 -108 -28 -26 -7 -6 0
-110 -29 -108 -26 -7 -6 0
-109 -110 -29 -26 -8 -6 0
-109 -27 -8 -110 -7 -29 0
-36 -77 -76 -5 -4 -34 0
-96 -36 -4 -97 -34 -5 0
-107 -36 -4 -106 -5 -34 0
-34 -106 -4 -108 -37 -5 0
-109 -34 -106 -5 -38 -4 0
-39 -106 -4 -5 -110 -34 0
-97 -34 -4 -98 -37 -6 0
-34 -108 -4 -107 -37 -6 0
-107 -109 -34 -38 -6 -4 0
-107 -34 -4 -110 -6 -39 0
-99 -38 -4 -98 -34 -7 0
-109 -34 -108 -38 -7 -4 0
-34 -108 -4 -110 -7 -39 0
-97 -96 -77 -74 -5 -3 0
-97 -98 -37 -35 -6 -5 0
-107 -77 -3 -74 -106 -5 0
-107 -108 -37 -35 -6 -5 0
-96 -87 -3 -97 -5 -84 0
-107 -106 -84 -3 -87 -5 0
-107 -38 -5 -35 -109 -6 0
-107 -110 -39 -35 -5 -6 0
-98 -88 -3 -84 -96 -5 0
-99 -98 -35 -38 -5 -7 0
-88 -106 -3 -108 -5 -84 0
-109 -108 -38 -7 -5 -35 0
-98 -106 -3 -108 -94 -5 0
-108 -39 -5 -35 -7 -110 0
-109 -110 -39 -35 -8 -5 0
-99 -98 -36 -38 -7 -6 0
-88 -108 -3 -107 -6 -84 0
-109 -36 -108 -38 -6 -7 0
-110 -39 -108 -36 -7 -6 0
-110 -109 -39 -36 -8 -6 0
-109 -110 -37 -39 -8 -7 0
-75 -106 -5 -107 -77 -4 0
-107 -110 -45 -49 -6 -5 0
-110 -45 -7 -49 -108 -5 0
-109 -45 -8 -110 -5 -49 0
-110 -108 -46 -49 -7 -6 0
-109 -46 -8 -110 -6 -49 0
-110 -47 -8 -7 -109 -49 0
-110 -56 -108 -59 -7 -6 0
-110 -109 -56 -59 -6 -8 0
-110 -109 -57 -59 -8 -7 0
-23 -14 -65 -66 -13 -25 0
-13 -75 -25 -23 -76 -14 0
-55 -13 -53 -12 -84 -85 0
-96 -13 -25 -23 -14 -95 0
-104 -12 -53 -13 -55 -105 0
-13 -106 -25 -23 -14 -105 0
-12 -75 -63 -65 -13 -74 0
-14 -75 -26 -13 -77 -23 0
-13 -65 -63 -12 -85 -84 0
-97 -95 -26 -23 -14 -13 0
-104 -12 -63 -65 -13 -105 0
-105 -13 -26 -14 -107 -23 0
-13 -75 -73 -12 -84 -85 0
-105 -13 -73 -104 -75 -12 0
-105 -13 -27 -108 -14 -23 0
-104 -12 -85 -105 -13 -83 0
-109 -14 -28 -23 -13 -105 0
-105 -29 -14 -13 -110 -23 0
-13 -63 -66 -12 -76 -74 0
-77 -26 -15 -23 -13 -76 0
-13 -63 -66 -12 -84 -86 0
-97 -26 -15 -96 -13 -23 0
-104 -12 -63 -66 -13 -106 0
-107 -13 -26 -106 -15 -23 0
-13 -86 -76 -73 -12 -84 0
-98 -96 -27 -23 -15 -13 0
-104 -106 -76 -73 -12 -13 0
-13 -108 -27 -106 -23 -15 0
-96 -23 -13 -28 -15 -99 0
-104 -83 -106 -86 -13 -12 0
-13 -106 -28 -23 -15 -109 0
-29 -13 -106 -110 -15 -23 0
-87 -13 -73 -12 -84 -77 0
-104 -13 -77 -107 -73 -12 0
-13 -108 -27 -107 -16 -23 0
-104 -87 -13 -107 -12 -83 0
-107 -23 -13 -109 -28 -16 0
-110 -107 -29 -23 -13 -16 0
-99 -23 -13 -98 -17 -28 0
-104 -88 -12 -13 -83 -108 0
-109 -108 -28 -23 -17 -13 0
-29 -13 -108 -17 -110 -23 0
-109 -29 -13 -110 -18 -23 0
-12 -63 -66 -14 -76 -75 0
-24 -77 -15 -76 -14 -26 0
-95 -12 -66 -14 -96 -63 0
-97 -26 -15 -96 -14 -24 0
-14 -106 -63 -66 -105 -12 0
-24 -14 -106 -107 -15 -26 0
-105 -106 -76 -73 -12 -14 0
-24 -106 -15 -108 -14 -27 0
-14 -106 -86 -105 -83 -12 0
-106 -28 -15 -109 -24 -14 0
-110 -29 -14 -24 -15 -106 0
-97 -14 -73 -12 -95 -77 0
-98 -16 -27 -97 -24 -14 0
-105 -14 -77 -73 -107 -12 0
-24 -108 -16 -107 -14 -27 0
-97 -14 -83 -12 -87 -95 0
-105 -107 -83 -87 -14 -12 0
-107 -24 -14 -109 -28 -16 0
-110 -29 -14 -24 -107 -16 0
-105 -88 -14 -108 -83 -12 0
-109 -108 -28 -24 -17 -14 0
-105 -93 -108 -98 -14 -12 0
-110 -24 -17 -108 -29 -14 0
-110 -109 -29 -24 -18 -14 0
-97 -77 -15 -96 -73 -12 0
-107 -27 -15 -108 -16 -25 0
-97 -87 -15 -12 -83 -96 0
-87 -106 -15 -107 -12 -83 0
-109 -107 -15 -16 -28 -25 0
-110 -29 -15 -107 -25 -16 0
-12 -83 -106 -108 -88 -15 0
-109 -25 -17 -108 -28 -15 0
-29 -108 -17 -110 -25 -15 0
-109 -99 -15 -93 -106 -12 0
-110 -29 -15 -109 -25 -18 0
-97 -98 -16 -12 -83 -88 0
-99 -16 -26 -98 -28 -17 0
-88 -108 -16 -107 -12 -83 0
-108 -16 -26 -109 -17 -28 0
-108 -16 -26 -110 -29 -17 0
-109 -26 -18 -110 -29 -16 0
-109 -27 -17 -110 -18 -29 0
-13 -76 -64 -66 -14 -75 0
-36 -14 -76 -77 -15 -34 0
-105 -13 -64 -66 -14 -106 0
-36 -14 -106 -107 -34 -15 0
-98 -96 -15 -14 -34 -37 0
-14 -106 -76 -105 -74 -13 0
-34 -14 -106 -108 -15 -37 0
-95 -14 -86 -84 -96 -13 0
-96 -99 -15 -14 -34 -38 0
-14 -106 -86 -13 -84 -105 0
-14 -106 -38 -109 -15 -34 0
-110 -39 -14 -15 -106 -34 0
-105 -13 -74 -14 -107 -77 0
-107 -14 -37 -108 -16 -34 0
-97 -14 -84 -95 -87 -13 0
-107 -87 -13 -105 -14 -84 0
-107 -14 -38 -109 -16 -34 0
-107 -110 -39 -34 -14 -16 0
-98 -99 -34 -38 -17 -14 0
-105 -88 -13 -108 -14 -84 0
-14 -108 -38 -109 -34 -17 0
-110 -39 -108 -34 -14 -17 0
-109 -110 -39 -34 -14 -18 0
-107 -74 -15 -106 -13 -77 0
-97 -96 -15 -13 -84 -87 0
-87 -13 -106 -107 -15 -84 0
-109 -107 -15 -16 -35 -38 0
-110 -39 -16 -15 -107 -35 0
-98 -96 -15 -13 -84 -88 0
-108 -106 -15 -13 -84 -88 0
-109 -38 -17 -15 -35 -108 0
-110 -39 -108 -35 -17 -15 0
-109 -99 -106 -94 -15 -13 0
-110 -35 -15 -39 -109 -18 0
-97 -98 -16 -13 -88 -84 0
-107 -108 -16 -13 -84 -88 0
-36 -108 -16 -109 -17 -38 0
-110 -39 -16 -108 -17 -36 0
-107 -99 -16 -94 -109 -13 0
-110 -109 -39 -36 -16 -18 0
-109 -110 -37 -39 -18 -17 0
-14 -75 -106 -15 -77 -107 0
-110 -107 -15 -16 -45 -49 0
-110 -108 -15 -17 -45 -49 0
-109 -99 -15 -95 -106 -14 0
-109 -110 -15 -18 -45 -49 0
-110 -46 -16 -17 -108 -49 0
-109 -46 -18 -110 -16 -49 0
-109 -47 -18 -110 -17 -49 0
-109 -58 -17 -16 -108 -56 0
-110 -56 -108 -59 -17 -16 0
-24 -76 -66 -64 -75 -23 0
-96 -34 -24 -25 -36 -97 0
-36 -24 -106 -107 -34 -25 0
-105 -23 -76 -24 -106 -74 0
-108 -106 -25 -24 -37 -34 0
-105 -23 -106 -24 -84 -86 0
-109 -34 -106 -38 -25 -24 0
-34 -24 -106 -110 -25 -39 0
-97 -98 -37 -34 -26 -24 0
-105 -24 -74 -77 -107 -23 0
-108 -37 -26 -107 -24 -34 0
-105 -107 -23 -24 -87 -84 0
-109 -107 -24 -26 -38 -34 0
-107 -39 -26 -110 -24 -34 0
-98 -99 -34 -38 -27 -24 0
-105 -23 -108 -24 -88 -84 0
-34 -108 -27 -109 -24 -38 0
-34 -108 -27 -39 -110 -24 0
-109 -39 -28 -110 -24 -34 0
-97 -77 -25 -74 -96 -23 0
-107 -23 -77 -106 -74 -25 0
-97 -96 -23 -25 -84 -87 0
-87 -23 -106 -107 -25 -84 0
-109 -107 -25 -26 -38 -35 0
-98 -96 -23 -25 -84 -88 0
-88 -108 -25 -106 -23 -84 0
-108 -38 -27 -109 -35 -25 0
-108 -35 -27 -39 -110 -25 0
-110 -35 -25 -39 -109 -28 0
-97 -98 -26 -23 -88 -84 0
-99 -38 -27 -98 -36 -26 0
-107 -88 -26 -108 -23 -84 0
-109 -38 -26 -36 -27 -108 0
-39 -108 -27 -36 -110 -26 0
-109 -36 -26 -28 -39 -110 0
-109 -110 -37 -39 -27 -28 0
-107 -75 -25 -106 -77 -24 0
-110 -107 -25 -26 -45 -49 0
-110 -108 -25 -27 -45 -49 0
-109 -110 -25 -28 -45 -49 0
-110 -108 -27 -26 -46 -49 0
-109 -46 -26 -110 -28 -49 0
-109 -47 -28 -110 -27 -49 0
-99 -98 -56 -58 -27 -26 0
-56 -108 -27 -109 -26 -58 0
-110 -56 -27 -59 -26 -108 0
-107 -110 -35 -36 -45 -49 0
-110 -37 -45 -35 -108 -49 0
-110 -35 -45 -38 -109 -49 0
-110 -108 -37 -36 -46 -49 0
-109 -36 -46 -110 -38 -49 0
-109 -47 -37 -38 -110 -49 0
-109 -58 -37 -108 -56 -36 0
-110 -108 -37 -36 -56 -59 0
-13 -63 -66 -12 -3 -5 0
-13 -73 -3 -12 -5 -76 0
-12 -86 -3 -13 -5 -83 0
-13 -103 -106 -12 -5 -3 0
-12 -77 -3 -13 -73 -6 0
-13 -83 -3 -12 -6 -87 0
-107 -13 -103 -12 -6 -3 0
-88 -13 -3 -12 -7 -83 0
-14 -63 -66 -4 -12 -5 0
-12 -76 -73 -14 -5 -4 0
-12 -83 -86 -14 -5 -4 0
-12 -106 -4 -14 -5 -103 0
-12 -77 -73 -14 -4 -6 0
-87 -12 -4 -14 -6 -83 0
-107 -12 -103 -14 -6 -4 0
-14 -83 -4 -88 -7 -12 0
-12 -108 -4 -103 -7 -14 0
-110 -12 -4 -14 -103 -9 0
-73 -63 -72 -66 -5 -1 0
-77 -73 -15 -12 -5 -6 0
-82 -63 -1 -66 -5 -83 0
-87 -12 -83 -5 -6 -15 0
-92 -93 -63 -66 -5 -1 0
-97 -93 -15 -12 -6 -5 0
-102 -103 -63 -66 -1 -5 0
-107 -103 -15 -12 -5 -6 0
-82 -83 -1 -5 -73 -76 0
-88 -83 -15 -12 -7 -5 0
-93 -98 -12 -7 -5 -15 0
-102 -103 -76 -73 -5 -1 0
-12 -103 -7 -5 -108 -15 0
-102 -86 -1 -103 -5 -83 0
-109 -15 -8 -103 -12 -5 0
-110 -103 -15 -12 -9 -5 0
-82 -77 -1 -6 -83 -73 0
-88 -83 -16 -12 -7 -6 0
-93 -98 -16 -7 -12 -6 0
-102 -73 -1 -103 -77 -6 0
-108 -103 -16 -12 -7 -6 0
-102 -103 -83 -87 -6 -1 0
-109 -16 -8 -103 -12 -6 0
-102 -93 -1 -103 -6 -97 0
-110 -16 -9 -12 -103 -6 0
-92 -93 -83 -88 -7 -1 0
-99 -93 -12 -17 -7 -8 0
-103 -83 -1 -7 -88 -102 0
-12 -103 -8 -109 -7 -17 0
-93 -103 -7 -98 -102 -1 0
-110 -12 -9 -103 -7 -17 0
-102 -93 -1 -103 -8 -99 0
-13 -64 -66 -14 -4 -5 0
-13 -76 -74 -5 -14 -4 0
-13 -84 -86 -5 -14 -4 0
-104 -14 -106 -5 -13 -4 0
-14 -77 -4 -13 -74 -6 0
-87 -13 -4 -14 -6 -84 0
-104 -14 -4 -13 -107 -6 0
-88 -13 -84 -14 -7 -4 0
-13 -108 -4 -104 -14 -7 0
-104 -109 -4 -8 -13 -14 0
-104 -13 -4 -110 -9 -14 0
-74 -64 -5 -66 -1 -72 0
-77 -74 -15 -13 -6 -5 0
-82 -64 -1 -66 -5 -84 0
-87 -84 -15 -13 -6 -5 0
-92 -94 -64 -66 -1 -5 0
-97 -94 -15 -6 -5 -13 0
-102 -104 -64 -66 -1 -5 0
-104 -107 -15 -13 -5 -6 0
-82 -76 -1 -84 -5 -74 0
-88 -84 -15 -13 -7 -5 0
-98 -94 -15 -13 -7 -5 0
-102 -76 -1 -104 -5 -74 0
-104 -108 -15 -13 -7 -5 0
-92 -86 -1 -84 -94 -5 0
-102 -84 -1 -104 -86 -5 0
-104 -15 -8 -109 -5 -13 0
-102 -94 -1 -104 -5 -96 0
-104 -13 -9 -110 -15 -5 0
-82 -77 -1 -74 -84 -6 0
-88 -84 -16 -13 -6 -7 0
-98 -94 -16 -13 -7 -6 0
-102 -77 -1 -104 -74 -6 0
-104 -108 -16 -13 -7 -6 0
-92 -94 -84 -87 -1 -6 0
-102 -104 -84 -87 -6 -1 0
-104 -16 -8 -109 -13 -6 0
-102 -104 -97 -94 -1 -6 0
-110 -16 -9 -104 -6 -13 0
-94 -84 -1 -92 -7 -88 0
-99 -94 -13 -17 -8 -7 0
-102 -104 -84 -88 -7 -1 0
-104 -109 -13 -17 -7 -8 0
-104 -17 -9 -110 -7 -13 0
-102 -104 -99 -94 -8 -1 0
-75 -65 -72 -66 -1 -5 0
-77 -75 -15 -14 -5 -6 0
-85 -65 -1 -66 -5 -82 0
-97 -95 -15 -14 -5 -6 0
-102 -105 -65 -66 -5 -1 0
-105 -107 -15 -14 -5 -6 0
-85 -76 -5 -1 -75 -82 0
-102 -105 -75 -76 -5 -1 0
-105 -108 -15 -14 -7 -5 0
-99 -15 -8 -95 -14 -5 0
-109 -14 -8 -15 -105 -5 0
-105 -96 -1 -102 -95 -5 0
-105 -15 -9 -110 -5 -14 0
-82 -85 -77 -75 -6 -1 0
-95 -98 -14 -16 -6 -7 0
-105 -75 -1 -102 -77 -6 0
-105 -14 -108 -16 -6 -7 0
-99 -16 -8 -95 -14 -6 0
-105 -16 -8 -109 -14 -6 0
-110 -16 -9 -6 -105 -14 0
-99 -17 -8 -95 -7 -14 0
-105 -14 -8 -109 -7 -17 0
-105 -110 -17 -7 -14 -9 0
-82 -76 -6 -86 -77 -1 0
-96 -98 -15 -16 -7 -6 0
-102 -77 -106 -76 -6 -1 0
-108 -106 -15 -16 -6 -7 0
-99 -15 -8 -16 -96 -6 0
-109 -15 -8 -106 -16 -6 0
-102 -96 -106 -97 -1 -6 0
-110 -16 -9 -6 -106 -15 0
-96 -99 -15 -17 -8 -7 0
-109 -15 -8 -17 -106 -7 0
-110 -15 -9 -17 -7 -106 0
-109 -107 -17 -16 -7 -8 0
-107 -17 -9 -110 -16 -7 0
-64 -66 -4 -5 -24 -23 0
-23 -76 -4 -5 -24 -74 0
-23 -86 -4 -24 -5 -84 0
-23 -106 -4 -24 -5 -104 0
-23 -77 -74 -24 -6 -4 0
-84 -87 -23 -6 -4 -24 0
-104 -107 -23 -24 -4 -6 0
-88 -23 -84 -24 -7 -4 0
-24 -108 -4 -104 -7 -23 0
-23 -24 -4 -9 -104 -110 0
-74 -64 -73 -66 -2 -5 0
-23 -77 -74 -25 -5 -6 0
-84 -64 -2 -66 -83 -5 0
-87 -23 -84 -25 -6 -5 0
-94 -93 -64 -66 -2 -5 0
-97 -94 -25 -23 -5 -6 0
-104 -103 -64 -66 -5 -2 0
-104 -107 -23 -25 -6 -5 0
-84 -76 -2 -83 -74 -5 0
-88 -84 -25 -7 -23 -5 0
-94 -98 -23 -25 -5 -7 0
-104 -103 -76 -74 -2 -5 0
-104 -23 -108 -25 -7 -5 0
-99 -25 -8 -5 -23 -94 0
-103 -84 -2 -104 -5 -86 0
-104 -25 -8 -109 -23 -5 0
-104 -110 -23 -25 -5 -9 0
-84 -83 -2 -6 -74 -77 0
-88 -23 -84 -26 -7 -6 0
-93 -74 -2 -94 -6 -77 0
-98 -94 -26 -23 -7 -6 0
-103 -77 -2 -6 -74 -104 0
-104 -108 -26 -23 -7 -6 0
-93 -84 -2 -94 -6 -87 0
-99 -94 -26 -23 -8 -6 0
-87 -104 -103 -2 -6 -84 0
-109 -23 -8 -104 -6 -26 0
-110 -23 -9 -26 -6 -104 0
-94 -84 -2 -7 -93 -88 0
-94 -99 -27 -23 -7 -8 0
-104 -103 -84 -88 -7 -2 0
-104 -27 -8 -109 -7 -23 0
-104 -94 -2 -7 -98 -103 0
-104 -110 -23 -27 -7 -9 0
-75 -65 -73 -66 -2 -5 0
-77 -75 -25 -24 -5 -6 0
-85 -2 -66 -65 -83 -5 0
-105 -103 -65 -66 -5 -2 0
-105 -107 -25 -24 -5 -6 0
-85 -76 -2 -75 -83 -5 0
-95 -98 -25 -24 -5 -7 0
-105 -76 -2 -103 -5 -75 0
-105 -24 -108 -7 -25 -5 0
-105 -25 -8 -109 -24 -5 0
-105 -24 -9 -110 -5 -25 0
-83 -77 -2 -85 -6 -75 0
-93 -95 -77 -75 -2 -6 0
-95 -98 -24 -26 -6 -7 0
-105 -77 -2 -75 -6 -103 0
-105 -24 -108 -7 -6 -26 0
-99 -95 -24 -26 -8 -6 0
-105 -109 -24 -26 -6 -8 0
-105 -26 -9 -110 -24 -6 0
-99 -95 -24 -27 -8 -7 0
-105 -27 -8 -109 -7 -24 0
-110 -105 -24 -27 -7 -9 0
-83 -76 -2 -86 -6 -77 0
-98 -96 -25 -26 -7 -6 0
-103 -77 -106 -76 -6 -2 0
-108 -106 -25 -26 -7 -6 0
-106 -25 -8 -109 -26 -6 0
-110 -26 -9 -106 -25 -6 0
-96 -25 -8 -99 -27 -7 0
-109 -25 -8 -106 -7 -27 0
-106 -25 -9 -27 -110 -7 0
-99 -97 -27 -26 -8 -7 0
-107 -26 -8 -109 -27 -7 0
-110 -26 -9 -107 -27 -7 0
-65 -66 -3 -5 -74 -75 0
-77 -75 -5 -34 -35 -6 0
-85 -65 -3 -66 -5 -84 0
-97 -95 -5 -34 -35 -6 0
-104 -105 -65 -66 -5 -3 0
-105 -107 -34 -35 -6 -5 0
-85 -75 -3 -5 -84 -76 0
-95 -98 -34 -35 -5 -7 0
-105 -76 -3 -5 -104 -75 0
-105 -108 -35 -7 -5 -34 0
-99 -95 -34 -35 -5 -8 0
-105 -109 -34 -35 -5 -8 0
-105 -110 -5 -34 -35 -9 0
-85 -75 -3 -84 -6 -77 0
-95 -98 -36 -34 -6 -7 0
-104 -77 -3 -105 -75 -6 0
-105 -34 -108 -7 -36 -6 0
-95 -99 -36 -34 -6 -8 0
-105 -34 -8 -109 -6 -36 0
-110 -34 -9 -105 -6 -36 0
-95 -37 -8 -99 -7 -34 0
-105 -34 -8 -109 -7 -37 0
-105 -37 -9 -34 -7 -110 0
-77 -76 -3 -6 -84 -86 0
-94 -96 -77 -76 -3 -6 0
-96 -98 -35 -36 -7 -6 0
-104 -77 -106 -76 -6 -3 0
-108 -106 -35 -36 -7 -6 0
-99 -35 -8 -96 -36 -6 0
-106 -35 -8 -109 -36 -6 0
-106 -35 -9 -110 -36 -6 0
-99 -35 -8 -96 -37 -7 0
-109 -37 -106 -35 -7 -8 0
-106 -35 -9 -110 -7 -37 0
-99 -97 -37 -36 -7 -8 0
-107 -109 -37 -36 -7 -8 0
-107 -110 -37 -36 -7 -9 0
-105 -77 -106 -76 -6 -4 0
-109 -56 -8 -107 -7 -57 0
-24 -15 -66 -64 -23 -14 0
-24 -74 -15 -76 -23 -14 0
-14 -83 -54 -55 -84 -12 0
-23 -14 -84 -15 -24 -86 0
-104 -14 -54 -55 -103 -12 0
-24 -14 -106 -15 -23 -104 0
-14 -65 -73 -64 -12 -74 0
-24 -77 -16 -74 -23 -14 0
-84 -14 -65 -64 -83 -12 0
-87 -23 -84 -24 -16 -14 0
-104 -14 -64 -65 -12 -103 0
-104 -24 -14 -107 -16 -23 0
-12 -75 -74 -14 -84 -83 0
-88 -24 -14 -17 -84 -23 0
-12 -75 -74 -14 -104 -103 0
-24 -14 -108 -104 -23 -17 0
-12 -85 -84 -14 -104 -103 0
-109 -104 -23 -24 -14 -18 0
-104 -24 -19 -14 -23 -110 0
-12 -74 -66 -73 -15 -64 0
-23 -74 -15 -77 -25 -16 0
-84 -64 -15 -66 -83 -12 0
-87 -23 -16 -15 -25 -84 0
-104 -64 -15 -66 -103 -12 0
-104 -23 -16 -107 -15 -25 0
-83 -74 -15 -76 -84 -12 0
-23 -25 -15 -17 -88 -84 0
-104 -103 -76 -74 -15 -12 0
-108 -25 -17 -104 -23 -15 0
-94 -12 -86 -93 -15 -84 0
-103 -86 -15 -12 -104 -84 0
-104 -25 -18 -109 -15 -23 0
-94 -96 -15 -12 -104 -103 0
-104 -23 -15 -110 -25 -19 0
-77 -16 -74 -12 -83 -84 0
-84 -16 -26 -88 -17 -23 0
-104 -12 -74 -77 -103 -16 0
-104 -16 -26 -108 -23 -17 0
-94 -93 -16 -12 -84 -87 0
-87 -103 -16 -12 -104 -84 0
-104 -23 -18 -109 -16 -26 0
-104 -16 -26 -19 -110 -23 0
-93 -94 -84 -88 -17 -12 0
-94 -99 -27 -23 -18 -17 0
-12 -103 -84 -88 -104 -17 0
-109 -27 -18 -104 -17 -23 0
-110 -23 -17 -19 -27 -104 0
-110 -23 -18 -104 -19 -28 0
-65 -15 -66 -12 -73 -75 0
-75 -16 -25 -77 -15 -24 0
-65 -15 -66 -12 -85 -83 0
-95 -15 -66 -65 -93 -12 0
-105 -65 -15 -66 -103 -12 0
-105 -25 -15 -107 -16 -24 0
-83 -75 -15 -12 -76 -85 0
-105 -24 -15 -108 -25 -17 0
-105 -25 -15 -109 -24 -18 0
-105 -96 -15 -95 -103 -12 0
-105 -24 -15 -110 -25 -19 0
-77 -75 -16 -12 -85 -83 0
-105 -103 -16 -12 -75 -77 0
-105 -108 -17 -16 -26 -24 0
-109 -24 -18 -105 -16 -26 0
-110 -105 -19 -16 -26 -24 0
-105 -27 -18 -109 -24 -17 0
-105 -95 -17 -12 -103 -98 0
-110 -105 -19 -17 -27 -24 0
-95 -103 -18 -105 -99 -12 0
-105 -24 -19 -110 -18 -28 0
-16 -86 -76 -77 -12 -83 0
-109 -16 -25 -106 -26 -18 0
-109 -25 -18 -106 -17 -27 0
-12 -103 -106 -17 -98 -96 0
-110 -106 -25 -27 -19 -17 0
-110 -19 -28 -106 -18 -25 0
-107 -26 -18 -109 -27 -17 0
-110 -107 -19 -17 -26 -27 0
-107 -19 -26 -110 -18 -28 0
-110 -27 -18 -28 -108 -19 0
-65 -74 -15 -66 -13 -75 0
-65 -15 -66 -13 -84 -85 0
-104 -65 -15 -66 -105 -13 0
-105 -16 -35 -107 -15 -34 0
-84 -75 -15 -13 -76 -85 0
-94 -95 -75 -76 -15 -13 0
-98 -95 -15 -17 -34 -35 0
-104 -105 -15 -13 -75 -76 0
-105 -34 -17 -108 -35 -15 0
-99 -35 -18 -95 -15 -34 0
-105 -35 -15 -109 -18 -34 0
-104 -95 -15 -105 -13 -96 0
-110 -105 -15 -19 -34 -35 0
-13 -84 -77 -75 -85 -16 0
-98 -95 -17 -16 -34 -36 0
-104 -75 -16 -13 -105 -77 0
-105 -108 -17 -16 -36 -34 0
-99 -95 -16 -18 -34 -36 0
-109 -34 -18 -105 -36 -16 0
-105 -34 -16 -36 -110 -19 0
-99 -37 -17 -95 -34 -18 0
-109 -34 -17 -105 -18 -37 0
-110 -105 -19 -17 -34 -37 0
-104 -99 -18 -105 -95 -13 0
-105 -34 -18 -19 -110 -38 0
-13 -86 -76 -77 -16 -84 0
-104 -77 -106 -76 -16 -13 0
-109 -35 -18 -36 -16 -106 0
-36 -19 -35 -16 -110 -106 0
-37 -106 -17 -109 -35 -18 0
-104 -98 -17 -106 -13 -96 0
-110 -19 -35 -17 -37 -106 0
-110 -106 -35 -38 -18 -19 0
-107 -36 -18 -17 -109 -37 0
-107 -110 -37 -36 -17 -19 0
-110 -36 -19 -38 -107 -18 0
-104 -99 -108 -98 -18 -13 0
-110 -37 -18 -38 -108 -19 0
-16 -106 -76 -105 -14 -77 0
-107 -58 -18 -110 -56 -19 0
-110 -18 -57 -58 -108 -19 0
-25 -74 -66 -65 -23 -75 0
-23 -65 -66 -25 -85 -84 0
-95 -94 -65 -66 -25 -23 0
-104 -65 -25 -66 -105 -23 0
-105 -35 -26 -107 -25 -34 0
-23 -75 -76 -25 -84 -85 0
-104 -23 -76 -105 -75 -25 0
-105 -35 -25 -108 -27 -34 0
-105 -35 -25 -109 -34 -28 0
-105 -110 -29 -25 -34 -35 0
-77 -75 -26 -23 -84 -85 0
-105 -77 -26 -104 -75 -23 0
-105 -34 -27 -108 -36 -26 0
-105 -109 -28 -26 -36 -34 0
-105 -110 -29 -26 -34 -36 0
-109 -37 -27 -105 -34 -28 0
-105 -34 -27 -29 -110 -37 0
-110 -34 -29 -28 -105 -38 0
-84 -77 -86 -76 -23 -26 0
-109 -36 -26 -28 -35 -106 0
-29 -106 -35 -110 -36 -26 0
-106 -35 -27 -109 -28 -37 0
-106 -35 -27 -110 -29 -37 0
-110 -35 -28 -38 -106 -29 0
-107 -36 -27 -109 -37 -28 0
-107 -36 -29 -27 -110 -37 0
-107 -36 -29 -38 -28 -110 0
-110 -108 -37 -38 -29 -28 0
-96 -77 -26 -95 -76 -24 0
-24 -77 -76 -26 -105 -106 0
-107 -56 -27 -109 -57 -28 0
-110 -58 -29 -56 -28 -107 0
-110 -28 -57 -29 -108 -58 0
-105 -107 -97 -98 -37 -34 0
-107 -110 -37 -39 -56 -57 0
-107 -58 -38 -110 -39 -56 0
-58 -108 -38 -110 -57 -39 0
-110 -107 -56 -57 -47 -49 0
-110 -108 -57 -58 -48 -49 0
-22 -83 -11 -21 -82 -12 0
-31 -13 -11 -72 -32 -74 0
-32 -31 -11 -13 -82 -84 0
-52 -16 -1 -56 -15 -5 0
-62 -15 -51 -66 -11 -52 0
-15 -57 -1 -5 -52 -17 0
-58 -18 -1 -15 -5 -52 0
-82 -86 -51 -52 -11 -15 0
-59 -19 -15 -52 -1 -5 0
-52 -60 -1 -15 -20 -5 0
-87 -82 -61 -11 -62 -16 0
-69 -19 -62 -16 -6 -1 0
-102 -107 -62 -61 -16 -11 0
-78 -17 -18 -7 -72 -1 0
-82 -88 -72 -71 -11 -17 0
-79 -19 -72 -17 -7 -1 0
-89 -19 -8 -1 -82 -18 0
-90 -20 -8 -18 -82 -1 0
-109 -81 -11 -82 -18 -102 0
-102 -91 -11 -19 -110 -92 0
-33 -74 -21 -31 -73 -23 0
-33 -23 -21 -83 -84 -31 0
-56 -26 -25 -53 -5 -2 0
-27 -2 -57 -53 -5 -25 0
-83 -86 -51 -53 -25 -21 0
-59 -25 -2 -53 -29 -5 0
-103 -106 -51 -53 -21 -25 0
-27 -2 -67 -63 -26 -6 0
-77 -21 -61 -73 -63 -26 0
-68 -28 -63 -26 -2 -6 0
-28 -73 -2 -7 -27 -78 0
-88 -83 -71 -21 -27 -73 0
-90 -30 -83 -28 -8 -2 0
-109 -103 -81 -83 -28 -21 0
-37 -54 -57 -35 -5 -3 0
-58 -38 -5 -3 -35 -54 0
-86 -84 -54 -51 -35 -31 0
-40 -60 -3 -54 -5 -35 0
-64 -67 -3 -6 -36 -37 0
-36 -74 -61 -64 -31 -77 0
-37 -74 -3 -7 -78 -38 0
-84 -38 -8 -3 -90 -40 0
-104 -109 -84 -81 -38 -31 0
-69 -59 -66 -5 -6 -56 0
-60 -66 -5 -6 -70 -56 0
-80 -70 -77 -67 -7 -6 0
-90 -70 -6 -68 -87 -8 0
-107 -87 -68 -109 -81 -61 0
-88 -78 -108 -109 -71 -81 0
-13 -38 -28 -12 -23 -33 0
-32 -33 -22 -23 -83 -84 0
-104 -33 -23 -32 -103 -22 0
-43 -12 -26 -46 -24 -14 0
-47 -12 -27 -24 -14 -43 0
-12 -56 -25 -53 -15 -26 0
-27 -53 -15 -57 -25 -12 0
-76 -73 -53 -52 -25 -22 0
-22 -86 -53 -52 -83 -25 0
-30 -60 -53 -25 -15 -12 0
-29 -16 -63 -26 -69 -12 0
-108 -103 -73 -27 -72 -22 0
-89 -29 -12 -28 -18 -83 0
-90 -12 -30 -18 -83 -28 0
-109 -82 -22 -103 -28 -83 0
-44 -39 -14 -34 -13 -49 0
-56 -36 -15 -54 -13 -35 0
-64 -54 -66 -35 -32 -52 0
-35 -15 -57 -37 -54 -13 0
-76 -35 -52 -74 -54 -32 0
-84 -35 -52 -54 -86 -32 0
-32 -74 -62 -64 -36 -77 0
-87 -32 -64 -62 -36 -84 0
-88 -37 -72 -32 -74 -84 0
-80 -40 -37 -74 -17 -13 0
-89 -13 -38 -39 -84 -18 0
-84 -82 -38 -32 -109 -104 0
-55 -42 -52 -45 -105 -106 0
-105 -42 -108 -47 -75 -72 0
-107 -106 -66 -62 -52 -56 0
-80 -60 -17 -57 -76 -15 0
-79 -69 -67 -77 -16 -17 0
-109 -82 -108 -88 -78 -72 0
-44 -47 -23 -24 -37 -34 0
-56 -25 -54 -35 -36 -23 0
-35 -25 -57 -54 -37 -23 0
-58 -23 -35 -38 -25 -54 0
-86 -35 -53 -54 -33 -84 0
-36 -74 -64 -63 -33 -77 0
-84 -33 -73 -74 -37 -88 0
-104 -108 -74 -73 -37 -33 0
-84 -39 -28 -38 -89 -23 0
-90 -23 -38 -40 -28 -84 0
-104 -83 -38 -109 -84 -33 0
-55 -43 -53 -45 -105 -106 0
-58 -76 -25 -78 -27 -57 0
-89 -79 -27 -28 -88 -78 0
-88 -78 -108 -109 -73 -83 0
-100 -49 -39 -95 -34 -50 0
-90 -58 -35 -60 -38 -86 0
-58 -106 -86 -109 -84 -54 0
-88 -78 -108 -109 -74 -84 0
-44 -40 -101 -30 -34 -31 -105 -23 -50 0
-101 -60 -41 -55 -45 -106 -40 -34 -50 0
-80 -101 -41 -75 -47 -108 -40 -34 -50 0
-109 -90 -101 -88 -80 -78 -71 -47 -50 0
-102 -55 -45 -60 -106 -42 -40 -34 -50 0
-102 -80 -75 -108 -47 -42 -40 -34 -50 0
-40 -23 -20 -82 -12 -33 -84 -22 -32 0
-87 -62 -15 -70 -52 -20 -56 -66 -82 0
-30 -63 -53 -66 -83 -87 -56 -25 -70 0
-54 -21 -11 -52 -22 -13 0
-13 -64 -21 -62 -11 -22 0
-74 -21 -11 -22 -13 -72 0
-22 -21 -11 -13 -82 -84 0
-22 -21 -11 -13 -102 -104 0
-55 -14 -21 -11 -22 -52 0
-22 -65 -62 -21 -11 -14 0
-14 -75 -21 -72 -22 -11 0
-14 -85 -21 -22 -82 -11 0
-105 -22 -11 -14 -102 -21 0
-22 -62 -66 -21 -15 -11 0
-56 -25 -1 -26 -52 -5 0
-21 -72 -15 -76 -22 -11 0
-25 -52 -57 -27 -1 -5 0
-82 -22 -15 -86 -21 -11 0
-58 -25 -52 -28 -5 -1 0
-59 -29 -52 -25 -1 -5 0
-106 -21 -11 -15 -102 -22 0
-30 -60 -52 -25 -5 -1 0
-77 -16 -21 -11 -22 -72 0
-26 -67 -1 -62 -27 -6 0
-87 -21 -11 -16 -22 -82 0
-28 -68 -1 -62 -26 -6 0
-26 -69 -1 -62 -29 -6 0
-107 -22 -11 -16 -102 -21 0
-70 -30 -62 -26 -6 -1 0
-88 -21 -17 -22 -11 -82 0
-78 -28 -72 -27 -7 -1 0
-79 -29 -1 -7 -72 -27 0
-22 -108 -17 -11 -102 -21 0
-80 -30 -72 -27 -7 -1 0
-89 -28 -1 -29 -8 -82 0
-102 -22 -11 -21 -109 -18 0
-82 -90 -30 -28 -8 -1 0
-110 -19 -21 -11 -22 -102 0
-32 -52 -31 -11 -14 -55 0
-65 -14 -11 -62 -31 -32 0
-14 -75 -31 -72 -32 -11 0
-85 -31 -11 -14 -32 -82 0
-102 -31 -11 -14 -105 -32 0
-31 -62 -66 -32 -15 -11 0
-56 -35 -52 -36 -1 -5 0
-76 -31 -72 -32 -15 -11 0
-37 -52 -57 -35 -5 -1 0
-82 -86 -15 -11 -32 -31 0
-52 -35 -1 -38 -5 -58 0
-59 -39 -1 -52 -5 -35 0
-102 -31 -15 -32 -106 -11 0
-35 -60 -1 -52 -40 -5 0
-77 -16 -31 -11 -32 -72 0
-36 -67 -1 -62 -37 -6 0
-87 -16 -31 -11 -82 -32 0
-36 -68 -62 -38 -6 -1 0
-69 -39 -1 -62 -36 -6 0
-107 -32 -11 -16 -102 -31 0
-40 -36 -1 -62 -70 -6 0
-88 -31 -11 -32 -82 -17 0
-78 -37 -72 -38 -7 -1 0
-79 -37 -72 -39 -7 -1 0
-102 -31 -17 -108 -11 -32 0
-80 -37 -1 -7 -72 -40 0
-39 -38 -1 -8 -82 -89 0
-102 -31 -18 -32 -109 -11 0
-90 -40 -1 -38 -8 -82 0
-102 -110 -31 -32 -11 -19 0
-52 -45 -1 -5 -59 -49 0
-60 -45 -1 -5 -52 -50 0
-69 -46 -6 -62 -1 -49 0
-70 -46 -6 -62 -1 -50 0
-79 -47 -1 -72 -7 -49 0
-47 -72 -1 -80 -7 -50 0
-82 -48 -1 -89 -8 -49 0
-82 -90 -8 -48 -1 -50 0
-100 -49 -9 -92 -1 -50 0
-16 -72 -51 -52 -11 -77 0
-56 -62 -67 -57 -1 -6 0
-82 -87 -51 -11 -16 -52 0
-58 -68 -6 -62 -56 -1 0
-69 -56 -62 -59 -1 -6 0
-102 -16 -51 -52 -107 -11 0
-56 -60 -6 -62 -70 -1 0
-82 -17 -51 -11 -52 -88 0
-79 -72 -57 -59 -1 -7 0
-102 -52 -17 -108 -51 -11 0
-80 -72 -57 -60 -7 -1 0
-92 -99 -51 -52 -18 -11 0
-89 -59 -1 -58 -8 -82 0
-109 -102 -51 -52 -11 -18 0
-82 -60 -1 -58 -8 -90 0
-110 -19 -51 -52 -11 -102 0
-88 -17 -62 -61 -82 -11 0
-72 -67 -1 -7 -68 -78 0
-72 -67 -1 -69 -7 -79 0
-102 -108 -62 -61 -17 -11 0
-80 -67 -1 -7 -70 -72 0
-82 -68 -1 -69 -89 -8 0
-109 -18 -62 -61 -102 -11 0
-70 -68 -1 -8 -90 -82 0
-110 -19 -11 -62 -61 -102 0
-79 -78 -1 -8 -82 -89 0
-102 -72 -11 -18 -109 -71 0
-90 -82 -1 -8 -78 -80 0
-110 -19 -72 -11 -71 -102 0
-110 -19 -81 -11 -82 -102 0
-55 -31 -53 -33 -21 -24 0
-24 -65 -31 -63 -33 -21 0
-24 -75 -31 -33 -73 -21 0
-24 -85 -31 -33 -83 -21 0
-105 -24 -31 -21 -103 -33 0
-25 -31 -63 -66 -33 -21 0
-56 -35 -53 -36 -2 -5 0
-25 -31 -73 -76 -33 -21 0
-37 -53 -57 -35 -5 -2 0
-83 -25 -31 -33 -86 -21 0
-35 -38 -2 -53 -5 -58 0
-93 -33 -25 -96 -31 -21 0
-59 -39 -53 -35 -5 -2 0
-103 -106 -31 -33 -25 -21 0
-40 -60 -2 -53 -5 -35 0
-31 -26 -73 -77 -33 -21 0
-36 -2 -67 -63 -37 -6 0
-33 -31 -21 -26 -83 -87 0
-38 -68 -2 -63 -36 -6 0
-69 -39 -2 -36 -63 -6 0
-103 -31 -21 -26 -33 -107 0
-36 -40 -2 -63 -70 -6 0
-88 -31 -27 -33 -83 -21 0
-78 -37 -73 -38 -7 -2 0
-79 -37 -2 -39 -7 -73 0
-108 -103 -31 -33 -27 -21 0
-80 -37 -2 -73 -7 -40 0
-89 -38 -2 -39 -8 -83 0
-109 -33 -28 -103 -21 -31 0
-40 -83 -2 -38 -8 -90 0
-110 -29 -31 -103 -21 -33 0
-59 -53 -2 -45 -5 -49 0
-60 -53 -2 -45 -5 -50 0
-69 -46 -6 -63 -2 -49 0
-70 -46 -6 -63 -2 -50 0
-47 -79 -2 -73 -7 -49 0
-47 -80 -2 -73 -7 -50 0
-83 -48 -2 -8 -89 -49 0
-90 -48 -8 -83 -2 -50 0
-77 -26 -51 -53 -73 -21 0
-2 -67 -57 -63 -56 -6 0
-87 -26 -53 -51 -83 -21 0
-56 -68 -2 -63 -58 -6 0
-69 -56 -63 -59 -6 -2 0
-107 -26 -51 -53 -103 -21 0
-70 -56 -63 -60 -2 -6 0
-88 -83 -21 -51 -53 -27 0
-108 -27 -51 -53 -103 -21 0
-80 -57 -7 -60 -73 -2 0
-89 -58 -2 -59 -8 -83 0
-103 -28 -51 -53 -109 -21 0
-90 -58 -2 -60 -83 -8 0
-110 -103 -51 -53 -21 -29 0
-83 -27 -63 -61 -21 -88 0
-79 -73 -67 -69 -7 -2 0
-108 -27 -63 -61 -103 -21 0
-80 -2 -67 -70 -7 -73 0
-89 -69 -2 -68 -8 -83 0
-109 -28 -63 -61 -103 -21 0
-90 -70 -8 -68 -83 -2 0
-110 -103 -61 -63 -21 -29 0
-89 -79 -2 -78 -83 -8 0
-109 -103 -73 -71 -28 -21 0
-90 -80 -2 -8 -83 -78 0
-110 -29 -73 -103 -71 -21 0
-110 -29 -81 -21 -103 -83 0
-59 -45 -3 -54 -5 -49 0
-60 -45 -3 -54 -5 -50 0
-69 -64 -6 -46 -3 -49 0
-70 -64 -6 -46 -3 -50 0
-47 -74 -3 -7 -79 -49 0
-80 -47 -3 -74 -7 -50 0
-84 -48 -3 -49 -89 -8 0
-84 -48 -3 -8 -90 -50 0
-36 -77 -54 -51 -74 -31 0
-56 -64 -67 -57 -6 -3 0
-36 -84 -51 -31 -54 -87 0
-56 -68 -64 -58 -6 -3 0
-104 -36 -51 -54 -31 -107 0
-70 -56 -64 -60 -6 -3 0
-88 -84 -31 -51 -54 -37 0
-59 -57 -3 -74 -79 -7 0
-104 -108 -37 -31 -51 -54 0
-80 -60 -3 -57 -7 -74 0
-89 -84 -59 -58 -8 -3 0
-104 -109 -51 -54 -31 -38 0
-90 -58 -3 -60 -8 -84 0
-110 -104 -51 -31 -39 -54 0
-37 -84 -61 -31 -64 -88 0
-79 -74 -67 -69 -7 -3 0
-108 -37 -61 -64 -31 -104 0
-80 -67 -3 -70 -7 -74 0
-89 -68 -3 -69 -8 -84 0
-90 -84 -70 -68 -3 -8 0
-110 -104 -61 -64 -31 -39 0
-89 -79 -3 -84 -8 -78 0
-104 -109 -71 -74 -38 -31 0
-90 -78 -3 -80 -8 -84 0
-110 -104 -31 -74 -71 -39 0
-110 -39 -84 -31 -104 -81 0
-55 -75 -41 -46 -51 -77 0
-65 -57 -4 -67 -6 -56 0
-58 -65 -4 -68 -6 -56 0
-69 -56 -65 -59 -6 -4 0
-105 -55 -41 -107 -51 -46 0
-70 -60 -6 -56 -4 -65 0
-105 -55 -41 -108 -51 -47 0
-80 -57 -7 -60 -4 -75 0
-99 -55 -48 -41 -95 -51 0
-90 -58 -4 -85 -8 -60 0
-110 -55 -41 -51 -105 -49 0
-78 -68 -7 -75 -67 -4 0
-79 -75 -67 -69 -7 -4 0
-105 -108 -61 -65 -47 -41 0
-75 -67 -4 -7 -70 -80 0
-70 -85 -4 -68 -90 -8 0
-105 -110 -61 -41 -65 -49 0
-78 -85 -4 -8 -79 -89 0
-80 -85 -4 -78 -90 -8 0
-105 -41 -71 -110 -75 -49 0
-105 -110 -81 -41 -85 -49 0
-78 -68 -5 -7 -67 -76 0
-76 -69 -5 -67 -7 -79 0
-108 -106 -66 -61 -51 -57 0
-70 -67 -7 -5 -76 -80 0
-89 -68 -86 -69 -5 -8 0
-109 -58 -61 -66 -51 -106 0
-70 -86 -8 -90 -5 -68 0
-110 -106 -66 -61 -51 -59 0
-89 -79 -5 -78 -8 -86 0
-109 -106 -51 -76 -58 -71 0
-80 -86 -8 -90 -78 -5 0
-59 -106 -71 -110 -76 -51 0
-59 -106 -51 -86 -110 -81 0
-87 -79 -8 -6 -89 -78 0
-90 -80 -6 -87 -8 -78 0
-107 -110 -61 -77 -69 -71 0
-107 -87 -61 -69 -81 -110 0
-88 -79 -108 -110 -81 -71 0
-32 -22 -53 -55 -33 -24 0
-12 -35 -45 -14 -34 -43 0
-32 -65 -63 -33 -24 -22 0
-36 -14 -46 -12 -34 -43 0
-32 -22 -75 -33 -73 -24 0
-47 -12 -37 -43 -14 -34 0
-33 -22 -83 -24 -85 -32 0
-34 -12 -48 -43 -14 -38 0
-43 -39 -14 -34 -12 -49 0
-105 -32 -24 -22 -103 -33 0
-40 -34 -12 -14 -43 -50 0
-25 -63 -66 -22 -33 -32 0
-36 -35 -15 -12 -53 -56 0
-76 -25 -73 -22 -32 -33 0
-35 -15 -57 -53 -37 -12 0
-32 -86 -25 -22 -33 -83 0
-58 -35 -53 -38 -12 -15 0
-59 -39 -12 -53 -35 -15 0
-40 -60 -53 -35 -15 -12 0
-32 -77 -73 -33 -22 -26 0
-36 -16 -63 -67 -37 -12 0
-32 -83 -26 -33 -87 -22 0
-12 -38 -63 -68 -36 -16 0
-36 -12 -63 -69 -39 -16 0
-107 -32 -103 -33 -26 -22 0
-70 -40 -16 -63 -12 -36 0
-88 -32 -27 -33 -22 -83 0
-78 -37 -17 -38 -73 -12 0
-37 -73 -17 -39 -12 -79 0
-32 -108 -103 -33 -27 -22 0
-80 -37 -73 -40 -17 -12 0
-39 -12 -38 -18 -83 -89 0
-109 -32 -28 -22 -103 -33 0
-90 -40 -18 -38 -83 -12 0
-110 -32 -29 -33 -22 -103 0
-59 -45 -15 -12 -53 -49 0
-60 -53 -15 -12 -45 -50 0
-12 -46 -63 -16 -69 -49 0
-12 -46 -63 -16 -70 -50 0
-79 -49 -17 -47 -73 -12 0
-80 -47 -17 -73 -12 -50 0
-89 -48 -12 -83 -18 -49 0
-48 -83 -18 -90 -12 -50 0
-93 -49 -19 -100 -12 -50 0
-77 -26 -53 -52 -73 -22 0
-56 -63 -67 -57 -16 -12 0
-87 -22 -52 -53 -83 -26 0
-56 -68 -63 -58 -16 -12 0
-103 -52 -26 -53 -107 -22 0
-70 -56 -63 -60 -12 -16 0
-88 -22 -53 -52 -27 -83 0
-78 -12 -57 -58 -17 -73 0
-79 -73 -57 -59 -17 -12 0
-103 -52 -27 -53 -22 -108 0
-80 -60 -17 -57 -73 -12 0
-89 -58 -12 -59 -83 -18 0
-109 -52 -28 -53 -103 -22 0
-90 -60 -18 -58 -12 -83 0
-110 -103 -53 -52 -22 -29 0
-83 -27 -63 -62 -88 -22 0
-78 -12 -67 -73 -17 -68 0
-79 -73 -67 -69 -17 -12 0
-108 -27 -63 -62 -103 -22 0
-70 -73 -17 -12 -67 -80 0
-89 -68 -83 -69 -18 -12 0
-109 -28 -63 -62 -22 -103 0
-70 -12 -68 -18 -83 -90 0
-29 -103 -63 -62 -110 -22 0
-78 -12 -83 -79 -18 -89 0
-109 -28 -73 -72 -103 -22 0
-78 -12 -83 -80 -90 -18 0
-110 -22 -103 -29 -72 -73 0
-110 -82 -22 -29 -103 -83 0
-59 -54 -45 -49 -13 -15 0
-60 -45 -15 -54 -13 -50 0
-46 -16 -64 -69 -13 -49 0
-70 -46 -16 -64 -13 -50 0
-47 -74 -17 -79 -13 -49 0
-47 -74 -17 -80 -13 -50 0
-89 -48 -18 -49 -13 -84 0
-84 -48 -18 -90 -13 -50 0
-94 -49 -19 -100 -13 -50 0
-36 -74 -54 -77 -32 -52 0
-56 -64 -67 -57 -16 -13 0
-84 -32 -52 -54 -36 -87 0
-56 -68 -64 -58 -16 -13 0
-107 -32 -52 -104 -54 -36 0
-70 -16 -60 -64 -13 -56 0
-84 -37 -54 -52 -32 -88 0
-58 -74 -17 -57 -13 -78 0
-59 -13 -74 -57 -79 -17 0
-32 -108 -54 -104 -37 -52 0
-13 -60 -74 -80 -57 -17 0
-89 -58 -13 -59 -84 -18 0
-109 -32 -54 -104 -52 -38 0
-90 -58 -13 -60 -18 -84 0
-110 -39 -54 -52 -32 -104 0
-37 -64 -62 -32 -84 -88 0
-78 -68 -74 -67 -17 -13 0
-79 -74 -67 -69 -13 -17 0
-80 -70 -74 -67 -17 -13 0
-84 -69 -18 -68 -89 -13 0
-104 -109 -64 -62 -32 -38 0
-90 -68 -18 -70 -13 -84 0
-89 -79 -13 -18 -78 -84 0
-104 -109 -74 -72 -38 -32 0
-84 -78 -18 -80 -90 -13 0
-110 -39 -72 -104 -74 -32 0
-110 -82 -39 -32 -84 -104 0
-42 -77 -75 -46 -52 -55 0
-56 -65 -67 -57 -14 -16 0
-56 -68 -65 -58 -16 -14 0
-59 -65 -16 -69 -14 -56 0
-107 -55 -42 -46 -105 -52 0
-70 -14 -65 -16 -56 -60 0
-78 -75 -57 -58 -14 -17 0
-98 -42 -52 -95 -55 -47 0
-79 -75 -57 -59 -17 -14 0
-105 -55 -42 -47 -52 -108 0
-14 -75 -60 -57 -80 -17 0
-109 -42 -52 -48 -105 -55 0
-90 -58 -14 -60 -18 -85 0
-105 -42 -52 -110 -55 -49 0
-78 -68 -75 -67 -17 -14 0
-79 -75 -67 -69 -17 -14 0
-65 -42 -108 -47 -105 -62 0
-80 -70 -17 -67 -75 -14 0
-89 -68 -85 -69 -18 -14 0
-105 -42 -65 -62 -110 -49 0
-89 -79 -85 -78 -14 -18 0
-90 -80 -14 -78 -18 -85 0
-105 -110 -75 -72 -42 -49 0
-105 -110 -82 -85 -42 -49 0
-68 -76 -17 -78 -67 -15 0
-98 -52 -62 -66 -96 -57 0
-69 -76 -17 -79 -15 -67 0
-108 -106 -66 -62 -52 -57 0
-80 -76 -15 -17 -70 -67 0
-109 -106 -66 -62 -52 -58 0
-68 -86 -18 -70 -15 -90 0
-110 -106 -66 -62 -52 -59 0
-109 -76 -52 -106 -72 -58 0
-78 -86 -15 -80 -90 -18 0
-82 -59 -86 -52 -106 -110 0
-87 -89 -79 -78 -18 -16 0
-90 -80 -16 -78 -87 -18 0
-110 -107 -69 -62 -72 -77 0
-88 -79 -108 -110 -82 -72 0
-59 -25 -45 -54 -23 -49 0
-23 -60 -54 -25 -45 -50 0
-46 -64 -26 -69 -23 -49 0
-70 -46 -26 -64 -23 -50 0
-47 -74 -27 -49 -79 -23 0
-47 -74 -27 -80 -23 -50 0
-89 -48 -28 -84 -23 -49 0
-90 -48 -28 -23 -84 -50 0
-94 -49 -29 -100 -23 -50 0
-36 -74 -53 -54 -33 -77 0
-56 -64 -67 -57 -26 -23 0
-87 -33 -54 -53 -36 -84 0
-56 -68 -64 -58 -26 -23 0
-104 -33 -53 -107 -36 -54 0
-70 -56 -64 -60 -23 -26 0
-37 -54 -53 -33 -84 -88 0
-58 -23 -74 -78 -27 -57 0
-94 -37 -53 -54 -98 -33 0
-79 -74 -57 -59 -27 -23 0
-108 -37 -53 -104 -33 -54 0
-80 -23 -57 -27 -74 -60 0
-89 -84 -59 -58 -28 -23 0
-104 -38 -54 -53 -33 -109 0
-90 -58 -28 -60 -84 -23 0
-110 -39 -54 -53 -33 -104 0
-88 -37 -63 -64 -84 -33 0
-78 -68 -74 -67 -27 -23 0
-104 -108 -64 -63 -37 -33 0
-80 -70 -27 -23 -67 -74 0
-69 -68 -28 -23 -89 -84 0
-70 -68 -28 -23 -90 -84 0
-104 -39 -63 -64 -110 -33 0
-84 -78 -28 -89 -79 -23 0
-109 -38 -73 -74 -104 -33 0
-90 -84 -80 -78 -28 -23 0
-110 -39 -73 -74 -104 -33 0
-110 -39 -83 -33 -84 -104 0
-77 -46 -53 -55 -43 -75 0
-56 -65 -67 -57 -24 -26 0
-56 -68 -65 -58 -26 -24 0
-97 -95 -43 -46 -55 -53 0
-105 -46 -53 -107 -55 -43 0
-65 -60 -26 -70 -24 -56 0
-78 -24 -75 -27 -58 -57 0
-79 -75 -57 -59 -27 -24 0
-105 -55 -47 -108 -53 -43 0
-24 -60 -57 -27 -80 -75 0
-99 -55 -48 -53 -95 -43 0
-89 -59 -24 -58 -28 -85 0
-90 -85 -60 -58 -28 -24 0
-110 -43 -53 -105 -55 -49 0
-78 -68 -75 -67 -27 -24 0
-79 -24 -67 -75 -27 -69 0
-105 -47 -65 -63 -108 -43 0
-80 -27 -67 -70 -75 -24 0
-90 -28 -68 -70 -85 -24 0
-110 -105 -65 -63 -43 -49 0
-78 -24 -85 -79 -28 -89 0
-105 -48 -75 -109 -73 -43 0
-78 -85 -28 -24 -80 -90 0
-105 -43 -73 -75 -110 -49 0
-110 -105 -83 -85 -43 -49 0
-78 -68 -76 -67 -27 -25 0
-79 -76 -67 -69 -25 -27 0
-108 -106 -63 -66 -57 -53 0
-80 -27 -67 -70 -25 -76 0
-109 -106 -63 -66 -58 -53 0
-110 -106 -63 -66 -53 -59 0
-89 -79 -86 -78 -25 -28 0
-90 -80 -25 -28 -78 -86 0
-59 -83 -106 -110 -53 -86 0
-89 -79 -26 -28 -87 -78 0
-90 -78 -26 -28 -80 -87 0
-110 -107 -69 -63 -73 -77 0
-110 -88 -79 -83 -108 -73 0
-44 -77 -75 -46 -55 -54 0
-56 -36 -65 -67 -34 -57 0
-56 -68 -65 -58 -34 -36 0
-55 -44 -54 -46 -97 -95 0
-107 -55 -44 -46 -105 -54 0
-34 -65 -60 -70 -56 -36 0
-78 -75 -57 -58 -37 -34 0
-79 -59 -34 -57 -37 -75 0
-55 -47 -108 -105 -54 -44 0
-34 -75 -60 -57 -37 -80 0
-99 -44 -54 -95 -48 -55 0
-89 -58 -34 -59 -38 -85 0
-105 -55 -48 -109 -44 -54 0
-58 -34 -60 -38 -90 -85 0
-105 -44 -54 -55 -110 -49 0
-78 -68 -75 -67 -34 -37 0
-34 -75 -67 -69 -79 -37 0
-105 -47 -65 -108 -44 -64 0
-70 -34 -75 -67 -80 -37 0
-89 -68 -85 -69 -38 -34 0
-70 -85 -38 -68 -34 -90 0
-105 -110 -64 -65 -44 -49 0
-89 -78 -38 -79 -85 -34 0
-105 -48 -75 -109 -74 -44 0
-90 -80 -38 -78 -85 -34 0
-110 -105 -75 -74 -44 -49 0
-110 -105 -85 -84 -44 -49 0
-68 -76 -35 -78 -67 -37 0
-79 -76 -67 -69 -37 -35 0
-108 -106 -64 -66 -54 -57 0
-70 -37 -76 -67 -80 -35 0
-109 -64 -54 -66 -106 -58 0
-90 -70 -38 -68 -35 -86 0
-110 -54 -66 -64 -106 -59 0
-89 -78 -35 -38 -86 -79 0
-109 -74 -54 -106 -76 -58 0
-90 -80 -35 -38 -86 -78 0
-110 -59 -106 -54 -86 -84 0
-89 -78 -36 -38 -79 -87 0
-78 -80 -36 -38 -87 -90 0
-110 -88 -74 -108 -79 -84 0
-108 -65 -106 -66 -57 -55 0
-109 -65 -106 -66 -55 -58 0
-109 -55 -76 -106 -75 -58 0
-33 -22 -14 -85 -32 -82 -84 -23 -12 0
-32 -86 -15 -23 -22 -33 -84 -12 -82 0
-77 -52 -25 -53 -16 -22 -76 -72 -12 0
-42 -35 -53 -52 -45 -33 0
-36 -46 -63 -62 -33 -42 0
-42 -37 -73 -47 -33 -72 0
-42 -48 -33 -38 -82 -83 0
-42 -40 -103 -102 -33 -50 0
-36 -52 -63 -62 -33 -56 0
-37 -73 -57 -52 -33 -72 0
-58 -33 -52 -38 -82 -83 0
-23 -15 -3 -11 -21 -5 0
-33 -73 -62 -67 -72 -37 0
-82 -68 -38 -62 -83 -33 0
-23 -16 -3 -21 -6 -11 0
-102 -70 -40 -103 -62 -33 0
-82 -33 -72 -38 -78 -83 0
-23 -21 -3 -7 -11 -17 0
-102 -80 -40 -103 -33 -72 0
-23 -21 -8 -18 -11 -3 0
-90 -40 -103 -102 -33 -82 0
-43 -52 -63 -62 -46 -56 0
-43 -52 -57 -47 -72 -73 0
-82 -43 -83 -48 -58 -52 0
-92 -93 -59 -52 -43 -49 0
-24 -21 -4 -11 -5 -15 0
-102 -103 -60 -52 -43 -50 0
-47 -72 -67 -62 -43 -73 0
-82 -68 -48 -62 -83 -43 0
-92 -93 -69 -62 -43 -49 0
-16 -21 -4 -11 -6 -24 0
-102 -70 -103 -62 -43 -50 0
-48 -83 -72 -82 -78 -43 0
-24 -21 -4 -11 -7 -17 0
-102 -80 -103 -72 -43 -50 0
-92 -89 -43 -82 -93 -49 0
-24 -21 -8 -4 -18 -11 0
-102 -90 -103 -82 -43 -50 0
-73 -62 -57 -67 -53 -72 0
-58 -68 -62 -53 -82 -83 0
-16 -21 -11 -5 -25 -6 0
-102 -103 -60 -53 -70 -62 0
-78 -83 -53 -82 -58 -72 0
-21 -11 -5 -7 -25 -17 0
-102 -80 -53 -103 -72 -60 0
-25 -11 -8 -18 -5 -21 0
-102 -82 -60 -103 -53 -90 0
-19 -25 -9 -11 -5 -21 0
-78 -83 -63 -82 -68 -72 0
-26 -21 -17 -11 -6 -7 0
-21 -26 -11 -18 -8 -6 0
-102 -70 -103 -63 -90 -82 0
-19 -21 -9 -26 -11 -6 0
-21 -27 -11 -18 -7 -8 0
-102 -82 -80 -103 -73 -90 0
-27 -11 -9 -21 -7 -19 0
-56 -64 -62 -52 -46 -44 0
-47 -52 -74 -57 -72 -44 0
-84 -58 -44 -52 -82 -48 0
-34 -31 -15 -11 -4 -5 0
-104 -102 -60 -52 -44 -50 0
-47 -72 -67 -62 -74 -44 0
-84 -44 -68 -48 -62 -82 0
-92 -94 -69 -62 -44 -49 0
-16 -31 -4 -11 -6 -34 0
-102 -104 -70 -62 -44 -50 0
-82 -48 -72 -84 -78 -44 0
-92 -94 -79 -72 -44 -49 0
-34 -31 -4 -17 -7 -11 0
-102 -104 -80 -72 -44 -50 0
-92 -94 -82 -89 -44 -49 0
-34 -31 -11 -18 -8 -4 0
-102 -104 -90 -82 -44 -50 0
-74 -62 -57 -67 -72 -54 0
-58 -68 -62 -54 -82 -84 0
-16 -31 -11 -35 -5 -6 0
-102 -104 -70 -62 -54 -60 0
-58 -84 -72 -78 -82 -54 0
-35 -31 -11 -17 -5 -7 0
-102 -104 -54 -60 -80 -72 0
-31 -35 -11 -18 -8 -5 0
-102 -90 -60 -104 -54 -82 0
-19 -31 -11 -35 -9 -5 0
-78 -68 -72 -64 -84 -82 0
-36 -31 -17 -11 -7 -6 0
-36 -31 -11 -18 -6 -8 0
-90 -104 -70 -64 -102 -82 0
-31 -11 -9 -19 -36 -6 0
-37 -31 -11 -18 -7 -8 0
-102 -90 -80 -104 -82 -74 0
-37 -11 -9 -31 -7 -19 0
-55 -72 -62 -67 -57 -75 0
-58 -68 -62 -55 -85 -82 0
-16 -45 -6 -41 -5 -11 0
-102 -105 -70 -62 -60 -55 0
-78 -55 -85 -58 -82 -72 0
-17 -11 -41 -45 -7 -5 0
-102 -60 -72 -105 -55 -80 0
-45 -11 -8 -18 -5 -41 0
-102 -90 -55 -105 -60 -82 0
-78 -85 -65 -68 -72 -82 0
-46 -11 -41 -7 -17 -6 0
-95 -92 -69 -65 -89 -82 0
-11 -41 -8 -18 -46 -6 0
-102 -90 -70 -105 -65 -82 0
-11 -41 -8 -18 -7 -47 0
-86 -72 -66 -68 -82 -78 0
-56 -17 -51 -11 -7 -6 0
-56 -18 -51 -11 -8 -6 0
-19 -51 -9 -56 -11 -6 0
-18 -11 -51 -57 -7 -8 0
-90 -106 -76 -80 -102 -82 0
-19 -57 -9 -51 -7 -11 0
-92 -89 -79 -97 -82 -77 0
-18 -67 -8 -7 -61 -11 0
-19 -11 -67 -61 -7 -9 0
-34 -31 -4 -21 -25 -5 0
-104 -103 -60 -53 -44 -50 0
-31 -26 -4 -34 -6 -21 0
-34 -27 -4 -7 -21 -31 0
-104 -80 -103 -73 -44 -50 0
-34 -31 -4 -21 -8 -28 0
-31 -35 -21 -26 -6 -5 0
-31 -21 -7 -5 -35 -27 0
-31 -35 -21 -28 -5 -8 0
-31 -21 -9 -5 -35 -29 0
-36 -31 -21 -27 -7 -6 0
-36 -31 -21 -28 -6 -8 0
-29 -31 -9 -21 -36 -6 0
-37 -31 -21 -28 -7 -8 0
-31 -21 -9 -7 -37 -29 0
-26 -45 -6 -5 -41 -21 0
-27 -41 -7 -5 -45 -21 0
-21 -41 -8 -45 -28 -5 0
-27 -41 -7 -6 -46 -21 0
-46 -21 -41 -28 -8 -6 0
-47 -41 -8 -21 -28 -7 0
-56 -21 -51 -27 -6 -7 0
-56 -51 -8 -28 -6 -21 0
-21 -51 -9 -56 -29 -6 0
-21 -28 -51 -57 -8 -7 0
-29 -21 -51 -57 -9 -7 0
-67 -8 -7 -61 -28 -21 0
-29 -21 -67 -61 -7 -9 0
-36 -31 -41 -45 -5 -6 0
-31 -45 -7 -5 -37 -41 0
-38 -41 -8 -45 -5 -31 0
-31 -41 -7 -6 -46 -37 0
-46 -31 -41 -38 -6 -8 0
-47 -38 -41 -31 -7 -8 0
-56 -31 -7 -51 -6 -37 0
-56 -38 -51 -31 -8 -6 0
-56 -51 -9 -31 -39 -6 0
-38 -31 -57 -51 -7 -8 0
-39 -31 -51 -57 -7 -9 0
-38 -31 -67 -61 -8 -7 0
-39 -67 -9 -61 -31 -7 0
-41 -51 -6 -7 -56 -47 0
-56 -48 -51 -41 -8 -6 0
-56 -51 -9 -41 -6 -49 0
-57 -51 -8 -41 -48 -7 0
-41 -57 -9 -51 -7 -49 0
-48 -41 -67 -61 -7 -8 0
-41 -67 -9 -61 -7 -49 0
-58 -67 -8 -61 -51 -7 0
-59 -67 -9 -51 -7 -61 0
-64 -63 -53 -56 -44 -46 0
-47 -74 -53 -57 -73 -44 0
-58 -44 -83 -48 -53 -84 0
-32 -25 -15 -34 -14 -22 0
-47 -74 -63 -67 -73 -44 0
-84 -48 -63 -68 -44 -83 0
-32 -16 -26 -34 -14 -22 0
-104 -70 -103 -63 -44 -50 0
-84 -44 -73 -48 -83 -78 0
-93 -94 -79 -73 -44 -49 0
-32 -34 -22 -27 -14 -17 0
-93 -44 -83 -89 -94 -49 0
-32 -14 -28 -18 -34 -22 0
-104 -90 -103 -83 -44 -50 0
-32 -29 -14 -34 -22 -19 0
-74 -54 -67 -57 -63 -73 0
-68 -83 -54 -63 -58 -84 0
-16 -35 -26 -32 -15 -22 0
-58 -83 -73 -54 -78 -84 0
-22 -35 -15 -27 -32 -17 0
-35 -28 -18 -32 -22 -15 0
-104 -90 -54 -103 -83 -60 0
-29 -19 -35 -15 -32 -22 0
-78 -68 -73 -64 -83 -84 0
-32 -16 -27 -17 -36 -22 0
-104 -70 -103 -64 -73 -80 0
-32 -36 -22 -28 -18 -16 0
-104 -70 -103 -64 -83 -90 0
-32 -22 -19 -29 -16 -36 0
-32 -28 -18 -37 -22 -17 0
-104 -80 -103 -74 -90 -83 0
-22 -29 -19 -17 -37 -32 0
-32 -29 -19 -38 -18 -22 0
-100 -90 -103 -93 -104 -84 0
-63 -67 -57 -55 -73 -75 0
-55 -68 -83 -63 -58 -85 0
-42 -22 -16 -15 -45 -26 0
-105 -70 -103 -63 -55 -60 0
-55 -85 -73 -58 -83 -78 0
-42 -22 -45 -27 -15 -17 0
-105 -80 -60 -103 -55 -73 0
-42 -28 -15 -45 -22 -18 0
-105 -55 -83 -90 -60 -103 0
-78 -85 -65 -68 -73 -83 0
-42 -22 -16 -17 -46 -27 0
-93 -95 -69 -65 -89 -83 0
-42 -22 -18 -46 -16 -28 0
-42 -28 -17 -22 -18 -47 0
-105 -83 -75 -103 -90 -80 0
-86 -73 -66 -68 -83 -78 0
-22 -52 -17 -16 -56 -27 0
-80 -103 -66 -106 -70 -73 0
-52 -28 -18 -56 -22 -16 0
-90 -103 -66 -106 -70 -83 0
-29 -16 -52 -19 -56 -22 0
-52 -28 -17 -22 -57 -18 0
-29 -52 -17 -57 -19 -22 0
-58 -22 -19 -29 -18 -52 0
-28 -18 -67 -62 -17 -22 0
-107 -90 -77 -80 -83 -103 0
-22 -19 -62 -29 -67 -17 0
-29 -18 -62 -68 -22 -19 0
-78 -22 -72 -29 -18 -19 0
-32 -36 -15 -16 -45 -42 0
-42 -37 -15 -45 -17 -32 0
-42 -38 -18 -45 -15 -32 0
-37 -46 -16 -42 -17 -32 0
-42 -32 -18 -46 -16 -38 0
-32 -38 -17 -18 -47 -42 0
-37 -16 -52 -32 -56 -17 0
-56 -52 -38 -32 -18 -16 0
-39 -16 -52 -32 -19 -56 0
-32 -52 -17 -57 -18 -38 0
-32 -52 -17 -19 -39 -57 0
-39 -19 -52 -32 -58 -18 0
-38 -18 -67 -62 -17 -32 0
-39 -19 -62 -17 -67 -32 0
-39 -68 -18 -32 -19 -62 0
-39 -19 -72 -32 -18 -78 0
-56 -52 -17 -16 -42 -47 0
-56 -48 -18 -16 -42 -52 0
-42 -19 -52 -56 -16 -49 0
-42 -52 -57 -48 -17 -18 0
-42 -19 -52 -57 -17 -49 0
-58 -42 -19 -52 -18 -49 0
-42 -62 -67 -48 -17 -18 0
-42 -19 -67 -62 -17 -49 0
-42 -19 -68 -62 -18 -49 0
-78 -42 -19 -72 -18 -49 0
-52 -18 -62 -17 -67 -58 0
-59 -19 -67 -52 -62 -17 0
-19 -68 -52 -62 -59 -18 0
-78 -59 -18 -52 -19 -72 0
-78 -69 -18 -62 -72 -19 0
-64 -67 -57 -55 -74 -75 0
-58 -68 -64 -55 -84 -85 0
-43 -33 -26 -25 -45 -36 0
-105 -60 -64 -104 -70 -55 0
-55 -85 -74 -58 -78 -84 0
-37 -25 -45 -43 -27 -33 0
-104 -105 -80 -74 -60 -55 0
-43 -25 -38 -45 -28 -33 0
-105 -84 -60 -55 -104 -90 0
-78 -85 -65 -68 -74 -84 0
-37 -46 -27 -43 -26 -33 0
-104 -65 -74 -70 -80 -105 0
-43 -38 -26 -28 -33 -46 0
-105 -90 -65 -104 -70 -84 0
-43 -38 -27 -47 -28 -33 0
-86 -74 -66 -68 -84 -78 0
-56 -27 -53 -26 -33 -37 0
-104 -80 -106 -74 -66 -70 0
-38 -26 -53 -56 -28 -33 0
-56 -39 -29 -53 -26 -33 0
-38 -27 -53 -28 -57 -33 0
-39 -29 -53 -57 -33 -27 0
-58 -33 -29 -53 -28 -39 0
-28 -63 -67 -27 -38 -33 0
-29 -63 -67 -27 -39 -33 0
-39 -28 -63 -68 -29 -33 0
-39 -29 -73 -28 -78 -33 0
-43 -27 -53 -56 -26 -47 0
-43 -26 -53 -48 -56 -28 0
-56 -43 -29 -53 -26 -49 0
-43 -28 -57 -48 -53 -27 0
-43 -29 -53 -57 -27 -49 0
-58 -43 -29 -28 -53 -49 0
-48 -27 -63 -67 -28 -43 0
-43 -29 -67 -63 -27 -49 0
-43 -29 -68 -63 -28 -49 0
-78 -29 -73 -28 -43 -49 0
-28 -53 -67 -27 -63 -58 0
-59 -27 -67 -53 -63 -29 0
-59 -28 -63 -53 -68 -29 0
-59 -28 -73 -29 -53 -78 0
-28 -73 -63 -69 -29 -78 0
-47 -36 -54 -44 -37 -56 0
-105 -80 -66 -106 -75 -70 0
-44 -38 -54 -36 -48 -56 0
-56 -44 -39 -54 -36 -49 0
-48 -38 -54 -57 -44 -37 0
-44 -37 -57 -54 -39 -49 0
-58 -44 -39 -54 -38 -49 0
-48 -38 -64 -67 -44 -37 0
-44 -39 -64 -67 -37 -49 0
-44 -39 -64 -68 -38 -49 0
-78 -38 -74 -39 -44 -49 0
-58 -38 -64 -67 -37 -54 0
-59 -64 -67 -54 -37 -39 0
-59 -39 -68 -38 -64 -54 0
-78 -59 -39 -54 -38 -74 0
-78 -69 -38 -64 -39 -74 0
-97 -89 -79 -86 -96 -77 0
-59 -65 -67 -55 -47 -49 0
-55 -68 -48 -59 -65 -49 0
-78 -59 -75 -55 -48 -49 0
-78 -69 -75 -65 -48 -49 0
-78 -59 -66 -69 -76 -58 0
-109 -102 -90 -84 -83 -42 -38 -33 -10 -3 -50 0
-32 -16 -27 -13 -11 -36 -1 -101 -21 -7 -104 0
-102 -83 -38 -84 -3 -109 -72 -90 -33 -10 -80 0
-105 -42 -14 -15 -101 -45 -1 -27 -11 -7 -21 0
-105 -16 -1 -42 -11 -14 -101 -27 -21 -7 -46 0
-88 -68 -57 -63 -78 -18 -74 -76 -54 -83 -15 0
-102 -42 -73 -108 -78 -28 -27 -22 -19 -12 -49 0
-107 -23 -11 -109 -6 -28 -15 -22 -13 -101 -1 -5 0
-109 -28 -11 -108 -7 -22 -15 -13 -1 -101 -23 -5 0
-107 -109 -11 -14 -101 -28 -15 -6 -22 -24 -1 -5 0
-109 -14 -101 -11 -34 -15 -6 -38 -32 -107 -1 -5 0
-14 -108 -38 -109 -11 -34 -15 -1 -32 -7 -101 -5 0
-42 -16 -101 -110 -108 -45 -15 -11 -7 -6 -1 -49 0
-109 -34 -24 -38 -25 -21 -2 -107 -101 -6 -33 -5 0
-24 -108 -17 -26 -16 -34 -22 -12 -38 -33 -109 -102 0
-16 -77 -2 -15 -5 -71 -73 0
-76 -62 -1 -5 -7 -73 -63 0
-16 -15 -2 -81 -83 -5 -87 0
-63 -62 -8 -83 -1 -5 -86 0
-103 -15 -2 -16 -107 -101 -5 0
-81 -15 -2 -17 -5 -88 -83 0
-73 -72 -8 -83 -5 -86 -1 0
-101 -15 -2 -17 -108 -5 -103 0
-72 -103 -1 -106 -5 -73 -10 0
-103 -101 -5 -15 -109 -2 -18 0
-82 -106 -1 -5 -10 -83 -103 0
-103 -19 -5 -15 -2 -101 -110 0
-88 -16 -2 -6 -17 -81 -83 0
-73 -72 -8 -83 -6 -87 -1 0
-103 -108 -2 -17 -6 -16 -101 0
-107 -72 -10 -103 -6 -73 -1 0
-93 -83 -9 -82 -6 -1 -97 0
-16 -103 -6 -2 -101 -109 -18 0
-107 -103 -1 -10 -6 -82 -83 0
-110 -16 -2 -103 -19 -6 -101 0
-98 -82 -9 -7 -93 -1 -83 0
-109 -17 -101 -18 -7 -2 -103 0
-83 -103 -7 -10 -108 -1 -82 0
-103 -19 -2 -17 -110 -101 -7 0
-110 -18 -8 -2 -103 -19 -101 0
-77 -74 -15 -16 -3 -71 -5 0
-74 -64 -1 -62 -76 -7 -5 0
-87 -81 -15 -16 -3 -84 -5 0
-86 -62 -8 -64 -1 -84 -5 0
-104 -16 -3 -107 -15 -101 -5 0
-64 -62 -5 -106 -104 -10 -1 0
-88 -15 -3 -17 -5 -81 -84 0
-86 -74 -1 -72 -5 -8 -84 0
-108 -104 -3 -17 -15 -5 -101 0
-106 -72 -5 -104 -74 -10 -1 0
-104 -15 -3 -109 -101 -18 -5 0
-104 -106 -1 -10 -84 -82 -5 0
-110 -19 -3 -15 -101 -5 -104 0
-88 -16 -3 -6 -17 -84 -81 0
-87 -74 -6 -72 -84 -1 -8 0
-97 -94 -74 -72 -9 -1 -6 0
-16 -108 -3 -101 -17 -104 -6 0
-94 -84 -9 -1 -6 -82 -97 0
-104 -16 -3 -109 -101 -18 -6 0
-104 -84 -10 -6 -1 -82 -107 0
-104 -16 -3 -19 -101 -6 -110 0
-109 -17 -101 -18 -7 -104 -3 0
-108 -84 -1 -104 -82 -10 -7 0
-104 -19 -3 -17 -101 -7 -110 0
-110 -18 -3 -104 -19 -8 -101 0
-77 -75 -15 -16 -4 -71 -5 0
-65 -62 -7 -1 -5 -75 -76 0
-105 -101 -15 -16 -5 -4 -107 0
-108 -105 -4 -17 -101 -15 -5 0
-106 -72 -10 -75 -5 -105 -1 0
-96 -95 -82 -85 -5 -1 -9 0
-101 -18 -4 -5 -105 -15 -109 0
-105 -85 -10 -82 -1 -106 -5 0
-101 -15 -4 -110 -19 -5 -105 0
-105 -92 -106 -95 -10 -1 -5 0
-97 -95 -75 -72 -9 -1 -6 0
-105 -16 -4 -17 -108 -6 -101 0
-107 -75 -10 -105 -72 -6 -1 0
-97 -85 -9 -95 -1 -6 -82 0
-105 -16 -101 -18 -6 -4 -109 0
-105 -82 -1 -107 -85 -6 -10 0
-105 -19 -101 -16 -4 -110 -6 0
-95 -82 -9 -98 -7 -85 -1 0
-101 -18 -4 -17 -105 -109 -7 0
-108 -85 -7 -105 -82 -1 -10 0
-110 -105 -19 -17 -4 -7 -101 0
-110 -18 -4 -105 -8 -19 -101 0
-97 -72 -9 -1 -96 -76 -6 0
-108 -106 -17 -16 -6 -101 -5 0
-106 -76 -10 -107 -6 -72 -1 0
-109 -16 -101 -18 -5 -6 -106 0
-106 -86 -1 -107 -82 -10 -6 0
-110 -19 -106 -16 -5 -6 -101 0
-109 -17 -101 -5 -7 -106 -18 0
-106 -86 -1 -108 -7 -10 -82 0
-110 -19 -106 -17 -101 -5 -7 0
-19 -106 -8 -110 -5 -101 -18 0
-109 -17 -101 -18 -107 -7 -6 0
-107 -87 -108 -82 -7 -1 -10 0
-107 -19 -101 -17 -110 -6 -7 0
-107 -110 -8 -18 -6 -19 -101 0
-101 -108 -7 -8 -110 -18 -19 0
-77 -25 -71 -5 -26 -74 -3 0
-64 -63 -5 -7 -74 -76 -2 0
-84 -25 -3 -26 -5 -87 -81 0
-86 -64 -8 -63 -84 -2 -5 0
-104 -107 -3 -26 -25 -5 -101 0
-88 -27 -3 -25 -5 -84 -81 0
-84 -86 -5 -8 -74 -73 -2 0
-104 -27 -3 -101 -5 -25 -108 0
-104 -28 -3 -25 -109 -5 -101 0
-104 -106 -2 -10 -84 -83 -5 0
-110 -29 -3 -104 -5 -25 -101 0
-88 -81 -3 -26 -6 -84 -27 0
-84 -73 -6 -87 -74 -8 -2 0
-101 -27 -3 -26 -104 -108 -6 0
-109 -104 -3 -26 -28 -101 -6 0
-104 -107 -2 -10 -6 -83 -84 0
-110 -104 -29 -26 -101 -3 -6 0
-104 -27 -3 -7 -101 -28 -109 0
-104 -84 -2 -7 -83 -10 -108 0
-104 -27 -3 -7 -101 -29 -110 0
-29 -101 -3 -104 -8 -110 -28 0
-75 -71 -4 -5 -26 -25 -77 0
-65 -63 -2 -7 -75 -76 -5 0
-105 -107 -25 -26 -4 -101 -5 0
-106 -65 -10 -105 -63 -5 -2 0
-108 -27 -4 -101 -5 -25 -105 0
-106 -73 -10 -75 -5 -105 -2 0
-96 -95 -83 -85 -2 -9 -5 0
-101 -28 -4 -105 -109 -5 -25 0
-105 -85 -2 -106 -10 -5 -83 0
-110 -29 -4 -25 -5 -105 -101 0
-105 -108 -26 -4 -101 -27 -6 0
-105 -75 -2 -107 -73 -6 -10 0
-109 -26 -101 -4 -6 -28 -105 0
-105 -107 -2 -10 -85 -6 -83 0
-110 -29 -101 -26 -6 -4 -105 0
-105 -28 -4 -27 -7 -101 -109 0
-108 -85 -7 -105 -10 -2 -83 0
-105 -27 -101 -7 -110 -29 -4 0
-105 -110 -29 -28 -8 -101 -4 0
-27 -26 -101 -108 -106 -5 -6 0
-96 -83 -9 -2 -97 -86 -6 0
-109 -106 -28 -26 -5 -6 -101 0
-106 -86 -2 -107 -6 -83 -10 0
-29 -26 -101 -106 -110 -5 -6 0
-109 -106 -28 -27 -5 -7 -101 0
-108 -83 -106 -86 -7 -2 -10 0
-29 -106 -7 -27 -5 -101 -110 0
-29 -101 -8 -28 -106 -5 -110 0
-91 -99 -28 -27 -97 -7 -6 0
-98 -83 -9 -97 -87 -7 -2 0
-107 -27 -101 -6 -109 -7 -28 0
-107 -83 -10 -7 -2 -108 -87 0
-107 -27 -101 -6 -110 -7 -29 0
-107 -29 -101 -28 -110 -8 -6 0
-110 -28 -7 -8 -108 -29 -101 0
-77 -35 -71 -36 -4 -75 -5 0
-75 -64 -3 -7 -5 -76 -65 0
-96 -95 -64 -65 -3 -9 -5 0
-105 -107 -35 -36 -5 -101 -4 0
-35 -108 -4 -105 -37 -101 -5 0
-105 -106 -3 -74 -75 -10 -5 0
-105 -35 -101 -38 -4 -109 -5 0
-85 -106 -3 -84 -10 -5 -105 0
-110 -105 -39 -35 -4 -5 -101 0
-37 -108 -4 -105 -36 -6 -101 0
-109 -36 -4 -105 -6 -38 -101 0
-105 -85 -10 -6 -107 -84 -3 0
-110 -39 -4 -105 -6 -36 -101 0
-105 -109 -37 -38 -4 -101 -7 0
-105 -108 -84 -3 -7 -10 -85 0
-105 -39 -101 -7 -110 -37 -4 0
-110 -38 -4 -8 -105 -39 -101 0
-91 -96 -37 -36 -98 -6 -5 0
-96 -97 -3 -9 -74 -76 -6 0
-36 -37 -101 -108 -106 -5 -6 0
-106 -76 -10 -107 -6 -74 -3 0
-109 -36 -101 -38 -5 -6 -106 0
-107 -106 -84 -3 -6 -10 -86 0
-110 -39 -101 -36 -6 -106 -5 0
-109 -37 -101 -38 -106 -7 -5 0
-108 -86 -3 -106 -10 -84 -7 0
-37 -106 -101 -39 -7 -5 -110 0
-110 -39 -8 -38 -101 -5 -106 0
-97 -84 -9 -7 -87 -98 -3 0
-107 -37 -101 -38 -6 -7 -109 0
-84 -108 -3 -107 -7 -10 -87 0
-107 -110 -37 -39 -7 -6 -101 0
-107 -101 -38 -39 -110 -8 -6 0
-110 -38 -7 -8 -108 -101 -39 0
-75 -106 -4 -6 -76 -10 -107 0
-46 -106 -101 -5 -110 -6 -49 0
-47 -110 -101 -5 -106 -7 -49 0
-101 -106 -8 -48 -110 -5 -49 0
-47 -101 -6 -107 -110 -7 -49 0
-101 -107 -8 -48 -110 -6 -49 0
-110 -48 -7 -8 -108 -101 -49 0
-110 -57 -7 -59 -107 -6 -101 0
-110 -107 -59 -58 -6 -8 -101 0
-59 -58 -101 -108 -110 -8 -7 0
-110 -68 -7 -69 -108 -101 -8 0
-24 -14 -66 -62 -13 -64 -25 0
-65 -16 -54 -64 -14 -53 -12 0
-76 -25 -72 -24 -14 -13 -74 0
-74 -53 -17 -14 -75 -12 -54 0
-24 -13 -86 -82 -84 -14 -25 0
-14 -54 -53 -18 -12 -84 -85 0
-104 -13 -25 -24 -102 -14 -106 0
-105 -20 -53 -12 -14 -104 -54 0
-24 -13 -26 -14 -72 -77 -74 0
-12 -74 -64 -63 -17 -14 -75 0
-82 -14 -26 -84 -87 -24 -13 0
-84 -63 -18 -64 -85 -12 -14 0
-92 -94 -24 -26 -97 -14 -13 0
-102 -104 -13 -14 -107 -26 -24 0
-105 -12 -63 -64 -14 -104 -20 0
-82 -14 -27 -24 -13 -88 -84 0
-12 -74 -73 -14 -84 -85 -18 0
-104 -14 -27 -102 -108 -13 -24 0
-104 -105 -74 -73 -14 -20 -12 0
-104 -24 -14 -13 -102 -28 -109 0
-104 -14 -83 -105 -84 -20 -12 0
-104 -29 -14 -13 -102 -110 -24 0
-25 -74 -72 -26 -15 -77 -13 0
-74 -63 -17 -64 -12 -15 -76 0
-87 -13 -25 -84 -82 -26 -15 0
-84 -63 -18 -64 -86 -15 -12 0
-104 -26 -15 -107 -25 -102 -13 0
-104 -63 -15 -64 -106 -20 -12 0
-82 -27 -15 -84 -88 -25 -13 0
-86 -73 -18 -15 -74 -12 -84 0
-104 -108 -25 -27 -13 -15 -102 0
-104 -74 -15 -106 -20 -73 -12 0
-94 -96 -15 -12 -83 -84 -19 0
-102 -25 -15 -104 -13 -109 -28 0
-20 -84 -106 -15 -104 -83 -12 0
-104 -29 -13 -25 -15 -102 -110 0
-16 -26 -27 -13 -84 -82 -88 0
-87 -74 -18 -73 -12 -84 -16 0
-104 -108 -16 -13 -26 -102 -27 0
-104 -20 -74 -107 -16 -12 -73 0
-97 -84 -16 -19 -94 -83 -12 0
-104 -16 -26 -13 -28 -109 -102 0
-104 -107 -16 -12 -83 -84 -20 0
-104 -29 -16 -26 -102 -110 -13 0
-104 -13 -27 -28 -17 -102 -109 0
-104 -108 -20 -12 -83 -84 -17 0
-110 -13 -27 -29 -102 -17 -104 0
-102 -104 -29 -28 -18 -110 -13 0
-77 -25 -15 -26 -72 -14 -75 0
-75 -63 -17 -65 -15 -12 -76 0
-96 -95 -65 -63 -15 -19 -12 0
-65 -106 -15 -63 -12 -105 -20 0
-105 -108 -25 -27 -15 -14 -102 0
-105 -73 -15 -106 -75 -20 -12 0
-105 -25 -15 -109 -14 -28 -102 0
-105 -85 -15 -106 -20 -83 -12 0
-105 -14 -25 -102 -110 -15 -29 0
-97 -95 -73 -75 -19 -16 -12 0
-102 -16 -27 -105 -108 -14 -26 0
-105 -75 -16 -107 -73 -12 -20 0
-109 -14 -26 -16 -102 -28 -105 0
-107 -12 -85 -105 -83 -20 -16 0
-105 -110 -29 -26 -14 -102 -16 0
-109 -14 -27 -102 -105 -17 -28 0
-108 -20 -85 -105 -17 -12 -83 0
-110 -27 -17 -14 -29 -102 -105 0
-105 -29 -14 -28 -102 -110 -18 0
-96 -83 -16 -19 -86 -97 -12 0
-102 -26 -15 -28 -16 -106 -109 0
-107 -20 -106 -12 -86 -16 -83 0
-106 -26 -15 -16 -102 -29 -110 0
-109 -28 -17 -15 -106 -102 -27 0
-108 -20 -106 -12 -83 -17 -86 0
-106 -27 -15 -17 -29 -110 -102 0
-110 -106 -15 -18 -29 -102 -28 0
-102 -16 -27 -17 -107 -28 -109 0
-107 -87 -17 -108 -83 -20 -12 0
-102 -16 -27 -17 -107 -110 -29 0
-110 -102 -29 -28 -16 -107 -18 0
-29 -108 -17 -102 -28 -18 -110 0
-36 -14 -75 -77 -35 -15 -72 0
-75 -76 -64 -65 -15 -17 -13 0
-105 -107 -35 -36 -15 -14 -102 0
-105 -64 -15 -65 -106 -13 -20 0
-102 -14 -35 -105 -108 -15 -37 0
-105 -74 -15 -106 -75 -20 -13 0
-105 -38 -15 -102 -14 -35 -109 0
-105 -85 -15 -106 -13 -20 -84 0
-105 -39 -15 -102 -14 -35 -110 0
-92 -98 -37 -36 -95 -16 -14 0
-36 -108 -16 -102 -105 -14 -37 0
-107 -20 -74 -105 -75 -16 -13 0
-102 -109 -14 -16 -105 -38 -36 0
-107 -13 -85 -84 -20 -105 -16 0
-102 -39 -16 -14 -105 -36 -110 0
-98 -19 -84 -85 -95 -17 -13 0
-102 -105 -37 -38 -14 -17 -109 0
-108 -20 -85 -13 -84 -105 -17 0
-102 -110 -37 -39 -17 -105 -14 0
-110 -102 -38 -39 -105 -18 -14 0
-109 -38 -15 -106 -16 -36 -102 0
-84 -16 -106 -107 -20 -86 -13 0
-39 -36 -15 -16 -110 -102 -106 0
-98 -13 -86 -19 -17 -96 -84 0
-109 -37 -15 -17 -106 -102 -38 0
-20 -106 -86 -108 -17 -13 -84 0
-110 -37 -15 -39 -106 -17 -102 0
-106 -38 -18 -110 -15 -39 -102 0
-109 -107 -17 -16 -38 -37 -102 0
-87 -108 -20 -107 -13 -17 -84 0
-102 -37 -16 -110 -17 -39 -107 0
-39 -16 -38 -18 -110 -102 -107 0
-110 -108 -38 -39 -17 -18 -102 0
-75 -16 -106 -107 -20 -76 -14 0
-102 -46 -16 -106 -110 -15 -49 0
-102 -47 -17 -106 -110 -15 -49 0
-110 -48 -18 -106 -102 -15 -49 0
-110 -47 -16 -17 -107 -102 -49 0
-102 -48 -18 -110 -107 -16 -49 0
-110 -108 -17 -18 -48 -102 -49 0
-75 -35 -73 -36 -24 -25 -77 0
-23 -75 -65 -27 -25 -64 -76 0
-105 -35 -25 -107 -24 -103 -36 0
-65 -106 -25 -105 -64 -23 -30 0
-105 -37 -25 -108 -35 -24 -103 0
-105 -23 -106 -25 -74 -75 -30 0
-105 -24 -38 -109 -35 -25 -103 0
-105 -23 -106 -25 -85 -30 -84 0
-110 -24 -35 -39 -105 -103 -25 0
-105 -36 -26 -108 -24 -103 -37 0
-105 -74 -26 -107 -75 -30 -23 0
-36 -103 -26 -38 -24 -105 -109 0
-107 -30 -85 -26 -105 -84 -23 0
-105 -110 -24 -26 -36 -39 -103 0
-99 -93 -37 -38 -95 -27 -24 0
-105 -103 -37 -38 -109 -24 -27 0
-105 -108 -30 -23 -27 -84 -85 0
-105 -37 -27 -110 -103 -39 -24 0
-110 -24 -38 -39 -28 -103 -105 0
-106 -74 -26 -107 -76 -30 -23 0
-106 -38 -26 -36 -25 -103 -109 0
-106 -86 -26 -107 -84 -30 -23 0
-106 -25 -38 -109 -37 -27 -103 0
-108 -30 -106 -27 -23 -84 -86 0
-37 -106 -27 -110 -25 -103 -39 0
-94 -30 -106 -108 -96 -27 -23 0
-110 -38 -28 -39 -25 -106 -103 0
-87 -29 -84 -27 -97 -98 -23 0
-107 -37 -26 -38 -103 -27 -109 0
-87 -108 -27 -107 -23 -84 -30 0
-110 -103 -37 -39 -26 -107 -27 0
-107 -38 -28 -39 -110 -26 -103 0
-110 -39 -27 -28 -103 -38 -108 0
-106 -76 -26 -107 -75 -24 -30 0
-46 -106 -26 -103 -110 -25 -49 0
-103 -106 -25 -27 -110 -47 -49 0
-110 -48 -28 -103 -106 -25 -49 0
-110 -47 -27 -103 -107 -26 -49 0
-107 -48 -28 -103 -110 -26 -49 0
-108 -48 -28 -103 -110 -27 -49 0
-107 -59 -103 -58 -28 -26 -110 0
-110 -58 -27 -59 -28 -108 -103 0
-107 -40 -106 -36 -75 -76 -34 0
-36 -46 -106 -104 -110 -35 -49 0
-104 -47 -37 -106 -110 -35 -49 0
-104 -48 -38 -106 -110 -35 -49 0
-104 -47 -37 -110 -107 -36 -49 0
-104 -48 -38 -110 -107 -36 -49 0
-12 -13 -11 0
-14 -12 -11 0
-14 -13 -11 0
-14 -12 -13 0
-23 -22 -21 0
-24 -22 -21 0
-24 -23 -21 0
-23 -24 -22 0
-33 -32 -31 0
-34 -32 -31 0
-34 -33 -31 0
-34 -33 -32 0
-2 -1 0
-3 -1 0
-4 -1 0
-3 -2 0
-4 -2 0
-3 -4 0
-42 -41 0
-43 -41 0
-44 -41 0
-42 -43 0
-42 -44 0
-44 -43 0
-56 -55 -57 0
-56 -58 -55 0
-58 -55 -57 0
-56 -58 -57 0
-65 -67 -66 0
-68 -65 -66 0
-68 -65 -67 0
-68 -67 -66 0
-77 -75 -76 0
-78 -75 -76 0
-78 -77 -75 0
-78 -77 -76 0
-46 -45 0
-47 -45 0
-48 -45 0
-47 -46 0
-48 -46 0
-47 -48 0
-85 -86 0
-87 -85 0
-88 -85 0
-87 -86 0
-88 -86 0
-87 -88 0
-91 -99 -100 0
-110 -109 -101 0
-89 -81 0
-90 -81 0
-89 -90 0
-9 -8 0
-10 -8 0
-10 -9 0
-108 -106 -66 -67 -83 -103 -90 -62 -82 0
-105 -90 -52 -108 -57 -55 -103 -83 -82 0
-105 -107 -90 -83 -82 -56 -55 -52 -103 0
-78 -72 -51 -56 -87 -54 -84 -71 -82 0
-70 -44 -66 -49 -67 -39 -37 -35 -50 0
-70 -43 -66 -49 -67 -29 -27 -25 -50 0
-70 -42 -66 -49 -67 -19 -17 -15 -50 0
-70 -41 -66 -49 -67 -9 -7 -5 -50 0
-24 -60 -38 -28 -33 -40 -55 -56 -26 0
-56 -38 -18 -60 -14 -16 -32 -40 -55 0
-56 -38 -4 -60 -55 -31 -40 -8 -6 0
-56 -30 -18 -60 -16 -22 -55 -14 -28 0
-56 -60 -4 -8 -20 -6 -11 -55 -18 0
-22 -54 -18 -60 -30 -13 -16 -56 -28 0
-56 -20 -2 -18 -11 -8 -60 -6 -53 0
-59 -38 -4 -56 -55 -6 -31 -8 -39 0
-56 -28 -18 -59 -55 -14 -16 -22 -29 0
-59 -29 -21 -4 -28 -8 -6 -56 -55 0
-55 -4 -8 -18 -56 -11 -19 -6 -59 0
-59 -19 -53 -18 -6 -56 -2 -8 -11 0
-44 -46 -30 -28 -22 -18 -16 -13 -50 0
-44 -46 -30 -28 -21 -8 -6 -3 -50 0
-44 -46 -20 -18 -11 -8 -6 -3 -50 0
-43 -46 -18 -6 -11 -8 -20 -2 -50 0
-44 -28 -15 -45 -22 -18 -30 -13 -50 0
-44 -45 -21 -28 -30 -8 -5 -3 -50 0
-44 -30 -17 -27 -22 -45 -15 -13 -50 0
-44 -45 -21 -30 -27 -7 -5 -3 -50 0
-44 -20 -45 -18 -11 -8 -5 -3 -50 0
-44 -20 -45 -17 -11 -7 -5 -3 -50 0
-43 -45 -11 -18 -20 -8 -5 -2 -50 0
-43 -45 -17 -11 -20 -7 -5 -2 -50 0
-44 -46 -29 -28 -22 -18 -16 -13 -49 0
-44 -46 -21 -29 -28 -8 -6 -3 -49 0
-44 -46 -11 -18 -19 -8 -6 -3 -49 0
-43 -18 -2 -11 -19 -8 -6 -46 -49 0
-44 -29 -45 -28 -22 -18 -15 -13 -49 0
-49 -29 -45 -28 -21 -8 -5 -3 -44 0
-44 -29 -45 -27 -22 -17 -15 -13 -49 0
-44 -45 -21 -27 -29 -7 -5 -3 -49 0
-44 -45 -11 -18 -19 -8 -5 -3 -49 0
-44 -19 -45 -17 -11 -7 -5 -3 -49 0
-43 -45 -11 -18 -19 -8 -5 -2 -49 0
-43 -19 -45 -17 -11 -7 -5 -2 -49 0
-33 -36 -8 -18 -2 -20 -40 -11 -6 0
-35 -20 -2 -40 -33 -11 -5 -8 -18 0
-33 -40 -2 -5 -7 -35 -17 -11 -20 0
-33 -36 -11 -18 -19 -8 -6 -39 -2 0
-33 -19 -35 -18 -8 -2 -39 -5 -11 0
-39 -19 -2 -35 -7 -11 -17 -5 -33 0
-35 -11 -2 -38 -5 -7 -18 -33 -17 0
-110 -22 -20 -102 -12 -17 -30 -39 -37 -33 0
-110 -12 -30 -36 -16 -20 -102 -33 -22 -39 0
-110 -39 -101 -33 -2 -10 -30 -36 -21 -6 0
-102 -107 -78 -77 -90 -109 -74 -20 -13 -82 0
-104 -108 -57 -54 -80 -101 -71 -52 -10 -1 0
-107 -36 -30 -22 -35 -15 -12 -20 -102 -33 0
-78 -18 -67 -63 -12 -72 -84 -88 -64 -82 0
-88 -78 -54 -53 -18 -84 -57 -72 -12 -82 0
-84 -78 -64 -67 -63 -71 -88 -81 -8 -2 0
-78 -81 -62 -67 -1 -88 -64 -71 -8 -84 0
-2 -53 -71 -57 -8 -78 -54 -81 -84 -88 0
-52 -71 -8 -57 -54 -81 -84 -78 -1 -88 0
-78 -63 -1 -67 -88 -62 -83 -81 -71 -8 0
-78 -52 -8 -53 -88 -83 -81 -57 -1 -71 0
-54 -26 -57 -23 -38 -33 -88 -28 -56 -83 0
-56 -13 -38 -57 -88 -18 -16 -32 -54 -82 0
-28 -53 -18 -57 -56 -88 -22 -16 -12 -82 0
-82 -88 -16 -18 -12 -22 -36 -37 -33 -28 0
-12 -35 -28 -18 -22 -88 -37 -15 -82 -33 0
-22 -88 -12 -18 -14 -28 -34 -82 -37 -33 0
-33 -37 -8 -28 -6 -21 -36 -88 -2 -81 0
-36 -11 -8 -18 -32 -37 -81 -6 -88 -1 0
-35 -21 -8 -5 -2 -37 -81 -88 -33 -28 0
-88 -37 -11 -18 -8 -1 -35 -32 -81 -5 0
-88 -26 -11 -18 -27 -6 -81 -8 -22 -1 0
-22 -25 -11 -18 -5 -81 -8 -88 -27 -1 0
-84 -68 -2 -61 -53 -54 -8 -81 -56 -87 0
-52 -54 -8 -61 -68 -1 -87 -56 -84 -81 0
-87 -53 -61 -52 -83 -81 -8 -56 -68 -1 0
-36 -12 -28 -18 -15 -35 -82 -87 -22 -33 0
-87 -34 -28 -18 -36 -14 -22 -33 -12 -82 0
-87 -28 -8 -2 -21 -36 -35 -81 -33 -5 0
-18 -87 -1 -8 -81 -35 -11 -36 -32 -5 0
-22 -25 -81 -18 -26 -5 -11 -87 -1 -8 0
-58 -32 -51 -35 -8 -33 -83 -1 -81 -86 0
-56 -72 -62 -67 -12 -77 -17 -75 -53 -55 0
-75 -53 -67 -56 -7 -55 -71 -61 -2 -77 0
-52 -67 -1 -61 -71 -77 -75 -7 -56 -55 0
-56 -74 -62 -72 -12 -54 -17 -67 -53 -77 0
-54 -2 -67 -53 -71 -56 -77 -61 -74 -7 0
-74 -54 -61 -67 -52 -71 -1 -77 -7 -56 0
-77 -53 -1 -7 -61 -67 -73 -71 -56 -52 0
-36 -77 -17 -72 -15 -27 -12 -22 -35 -33 0
-12 -77 -72 -14 -17 -27 -33 -22 -34 -36 0
-36 -77 -21 -27 -35 -33 -7 -2 -71 -5 0
-36 -77 -71 -17 -11 -1 -32 -7 -5 -35 0
-22 -71 -7 -5 -17 -25 -1 -77 -26 -11 0
-14 -76 -35 -72 -34 -12 -17 -22 -33 -27 0
-56 -33 -51 -35 -6 -66 -61 -32 -63 -1 0
-104 -107 -77 -76 -84 -86 0
-104 -84 -75 -107 -77 -85 0
-107 -103 -77 -76 -86 -83 0
-107 -103 -77 -75 -83 -85 0
-107 -103 -84 -83 -74 -77 0
-102 -77 -86 -107 -76 -82 0
-102 -107 -77 -75 -82 -85 0
-102 -107 -77 -74 -84 -82 0
-102 -82 -77 -107 -73 -83 0
-94 -87 -101 -107 -91 -84 0
-107 -77 -101 -74 -84 -81 0
-101 -81 -73 -107 -77 -83 0
-82 -77 -101 -107 -81 -72 0
-104 -84 -76 -106 -75 -85 0
-104 -65 -106 -66 -85 -84 0
-104 -65 -106 -66 -75 -74 0
-103 -75 -106 -76 -85 -83 0
-103 -106 -76 -74 -83 -84 0
-103 -106 -64 -66 -84 -83 0
-106 -74 -64 -103 -73 -66 0
-102 -85 -76 -106 -82 -75 0
-102 -65 -106 -66 -85 -82 0
-84 -106 -76 -82 -74 -102 0
-102 -84 -64 -106 -82 -66 0
-102 -106 -76 -73 -82 -83 0
-102 -106 -63 -66 -83 -82 0
-102 -106 -64 -66 -72 -74 0
-102 -106 -63 -66 -72 -73 0
-101 -76 -81 -106 -75 -85 0
-101 -74 -81 -106 -76 -84 0
-84 -106 -64 -66 -101 -81 0
-76 -73 -101 -106 -81 -83 0
-106 -81 -66 -101 -83 -63 0
-82 -106 -72 -76 -101 -81 0
-106 -101 -66 -62 -82 -81 0
-65 -106 -101 -66 -75 -71 0
-64 -101 -66 -106 -74 -71 0
-106 -63 -101 -66 -71 -73 0
-106 -101 -66 -62 -72 -71 0
-105 -84 -74 -103 -75 -83 0
-105 -83 -65 -103 -64 -84 0
-105 -103 -84 -83 -55 -54 0
-74 -54 -73 -55 -105 -103 0
-105 -103 -64 -63 -54 -55 0
-102 -92 -55 -105 -94 -54 0
-105 -82 -75 -84 -74 -102 0
-102 -84 -65 -105 -64 -82 0
-105 -82 -55 -84 -54 -102 0
-105 -102 -73 -75 -82 -83 0
-105 -82 -63 -102 -65 -83 0
-102 -82 -55 -105 -53 -83 0
-102 -65 -72 -105 -64 -74 0
-102 -55 -72 -54 -74 -105 0
-102 -63 -72 -105 -65 -73 0
-102 -55 -72 -53 -105 -73 0
-105 -54 -62 -64 -102 -55 0
-102 -105 -63 -62 -53 -55 0
-105 -74 -81 -101 -84 -75 0
-105 -84 -65 -101 -64 -81 0
-105 -84 -54 -101 -55 -81 0
-101 -81 -73 -75 -105 -83 0
-105 -83 -63 -81 -65 -101 0
-105 -55 -81 -101 -53 -83 0
-82 -75 -101 -72 -81 -105 0
-82 -65 -101 -105 -62 -81 0
-82 -55 -101 -52 -105 -81 0
-105 -65 -74 -101 -64 -71 0
-74 -54 -101 -105 -55 -71 0
-63 -101 -71 -105 -65 -73 0
-53 -101 -71 -105 -55 -73 0
-65 -72 -101 -62 -71 -105 0
-52 -72 -101 -55 -105 -71 0
-105 -55 -61 -64 -101 -54 0
-105 -101 -61 -63 -53 -55 0
-105 -101 -62 -61 -52 -55 0
-102 -104 -74 -73 -83 -82 0
-102 -104 -64 -63 -82 -83 0
-102 -104 -54 -53 -83 -82 0
-92 -91 -84 -82 -101 -104 0
-101 -74 -81 -104 -73 -83 0
-104 -81 -63 -64 -101 -83 0
-104 -54 -81 -53 -101 -83 0
-104 -82 -101 -81 -72 -74 0
-104 -64 -81 -62 -82 -101 0
-82 -54 -101 -52 -104 -81 0
-104 -73 -53 -101 -71 -54 0
-104 -64 -101 -62 -72 -71 0
-54 -72 -101 -104 -71 -52 0
-63 -53 -101 -104 -61 -54 0
-104 -101 -62 -61 -54 -52 0
-92 -101 -83 -82 -91 -103 0
-82 -103 -72 -73 -101 -81 0
-63 -101 -62 -103 -82 -81 0
-82 -81 -53 -52 -101 -103 0
-32 -33 -101 -103 -82 -81 0
-63 -72 -101 -62 -71 -103 0
-52 -101 -71 -53 -72 -103 0
-101 -53 -61 -52 -103 -62 0
-33 -103 -51 -52 -101 -32 0
-97 -93 -84 -83 -74 -77 0
-97 -92 -77 -74 -84 -82 0
-97 -92 -73 -77 -83 -82 0
-93 -96 -76 -74 -83 -84 0
-96 -84 -76 -74 -92 -82 0
-96 -92 -63 -66 -83 -82 0
-92 -63 -72 -73 -96 -66 0
-91 -81 -66 -83 -96 -63 0
-91 -96 -76 -72 -82 -81 0
-93 -83 -74 -75 -95 -84 0
-93 -95 -54 -55 -84 -83 0
-92 -82 -74 -84 -95 -75 0
-92 -82 -64 -95 -84 -65 0
-95 -82 -54 -84 -92 -55 0
-95 -92 -55 -53 -83 -82 0
-92 -65 -74 -72 -95 -64 0
-95 -55 -72 -74 -92 -54 0
-92 -55 -62 -95 -63 -53 0
-91 -54 -81 -55 -84 -95 0
-91 -95 -81 -83 -55 -53 0
-91 -55 -74 -95 -71 -54 0
-91 -95 -55 -53 -71 -73 0
-95 -55 -72 -71 -91 -52 0
-92 -94 -54 -53 -83 -82 0
-91 -94 -62 -61 -54 -52 0
-91 -33 -81 -93 -32 -82 0
-93 -91 -72 -71 -63 -62 0
-75 -86 -66 -65 -74 -84 0
-75 -86 -66 -65 -83 -73 0
-83 -74 -64 -66 -73 -86 0
-65 -86 -72 -66 -82 -75 0
-82 -74 -64 -66 -72 -86 0
-86 -73 -63 -66 -82 -72 0
-75 -81 -66 -71 -65 -86 0
-74 -81 -66 -71 -86 -64 0
-86 -71 -66 -81 -63 -73 0
-86 -72 -66 -62 -81 -71 0
-85 -65 -73 -64 -74 -83 0
-85 -83 -54 -55 -74 -73 0
-55 -85 -64 -54 -83 -63 0
-85 -65 -72 -64 -74 -82 0
-82 -85 -54 -55 -72 -74 0
-85 -65 -73 -63 -82 -72 0
-85 -73 -53 -72 -82 -55 0
-55 -85 -62 -64 -54 -82 0
-55 -63 -62 -53 -85 -82 0
-65 -74 -81 -64 -85 -71 0
-74 -54 -81 -85 -71 -55 0
-65 -81 -63 -85 -71 -73 0
-55 -81 -71 -85 -73 -53 0
-85 -65 -72 -62 -71 -81 0
-55 -85 -71 -52 -81 -72 0
-55 -85 -64 -54 -61 -81 0
-55 -85 -63 -61 -81 -53 0
-85 -81 -61 -62 -55 -52 0
-84 -64 -72 -63 -73 -82 0
-54 -73 -72 -53 -82 -84 0
-54 -63 -62 -53 -82 -84 0
-64 -81 -71 -63 -73 -84 0
-54 -81 -71 -53 -73 -84 0
-84 -64 -72 -62 -71 -81 0
-52 -54 -71 -72 -81 -84 0
-54 -53 -61 -63 -84 -81 0
-52 -54 -61 -62 -84 -81 0
-63 -62 -71 -72 -81 -83 0
-81 -53 -71 -52 -72 -83 0
-32 -33 -71 -72 -81 -83 0
-52 -53 -61 -62 -83 -81 0
-32 -81 -62 -61 -33 -83 0
-32 -52 -81 -51 -33 -83 0
-78 -49 -40 -79 -38 -50 0
-78 -49 -30 -79 -28 -50 0
-78 -49 -20 -79 -18 -50 0
-55 -75 -64 -63 -73 -54 0
-54 -72 -62 -64 -55 -75 0
-53 -72 -62 -63 -75 -55 0
-55 -75 -61 -64 -71 -54 0
-75 -53 -61 -55 -71 -63 0
-55 -75 -62 -61 -52 -71 0
-54 -63 -61 -71 -74 -53 0
-74 -54 -62 -52 -61 -71 0
-73 -53 -61 -52 -71 -62 0
-32 -33 -61 -62 -73 -71 0
-33 -52 -71 -51 -73 -32 0
-49 -40 -68 -38 -69 -50 0
-49 -30 -68 -28 -69 -50 0
-69 -49 -20 -68 -18 -50 0
-69 -49 -40 -67 -37 -50 0
-49 -30 -67 -69 -27 -50 0
-49 -20 -67 -69 -17 -50 0
-49 -10 -67 -69 -7 -50 0
-68 -60 -67 -58 -47 -50 0
-58 -68 -17 -67 -60 -20 0
-58 -60 -7 -67 -68 -10 0
-59 -68 -67 -58 -47 -49 0
-59 -68 -27 -29 -58 -67 0
-59 -68 -9 -7 -58 -67 0
-40 -48 -67 -68 -37 -50 0
-30 -68 -48 -67 -27 -50 0
-68 -48 -17 -20 -67 -50 0
-68 -48 -10 -7 -67 -50 0
-39 -48 -67 -68 -37 -49 0
-29 -48 -67 -68 -27 -49 0
-19 -48 -67 -68 -17 -49 0
-48 -67 -9 -7 -68 -49 0
-38 -27 -67 -30 -40 -68 0
-40 -17 -67 -38 -68 -20 0
-68 -38 -67 -40 -7 -10 0
-29 -38 -67 -68 -27 -39 0
-38 -17 -67 -68 -39 -19 0
-38 -67 -9 -68 -39 -7 0
-30 -68 -67 -28 -17 -20 0
-30 -68 -67 -28 -7 -10 0
-28 -17 -67 -29 -68 -19 0
-29 -68 -67 -28 -7 -9 0
-20 -68 -67 -18 -10 -7 0
-18 -67 -9 -68 -19 -7 0
-32 -52 -63 -61 -51 -33 0
-58 -49 -38 -59 -40 -50 0
-58 -49 -28 -59 -30 -50 0
-58 -49 -18 -59 -20 -50 0
-59 -49 -40 -57 -37 -50 0
-59 -49 -27 -57 -30 -50 0
-49 -17 -57 -59 -20 -50 0
-59 -49 -10 -57 -7 -50 0
-56 -49 -40 -59 -36 -50 0
-59 -49 -30 -56 -26 -50 0
-59 -49 -20 -56 -16 -50 0
-59 -49 -10 -56 -6 -50 0
-58 -40 -48 -57 -37 -50 0
-58 -30 -48 -57 -27 -50 0
-58 -20 -48 -57 -17 -50 0
-58 -48 -10 -57 -7 -50 0
-39 -48 -57 -58 -37 -49 0
-58 -29 -48 -49 -57 -27 0
-58 -19 -48 -17 -57 -49 0
-58 -48 -9 -49 -7 -57 0
-58 -40 -57 -38 -27 -30 0
-58 -20 -38 -40 -57 -17 0
-58 -40 -10 -57 -7 -38 0
-58 -29 -38 -57 -39 -27 0
-58 -19 -38 -57 -39 -17 0
-38 -57 -9 -39 -7 -58 0
-58 -20 -28 -57 -17 -30 0
-58 -28 -10 -57 -30 -7 0
-58 -19 -28 -57 -29 -17 0
-58 -28 -9 -57 -29 -7 0
-58 -10 -57 -20 -18 -7 0
-58 -19 -57 -18 -7 -9 0
-58 -40 -48 -56 -36 -50 0
-58 -48 -26 -56 -30 -50 0
-58 -20 -48 -56 -16 -50 0
-56 -48 -10 -58 -6 -50 0
-58 -39 -48 -56 -36 -49 0
-58 -29 -48 -56 -26 -49 0
-56 -48 -16 -19 -58 -49 0
-56 -48 -9 -6 -58 -49 0
-58 -40 -26 -56 -30 -38 0
-58 -16 -38 -56 -40 -20 0
-56 -40 -10 -38 -6 -58 0
-58 -29 -38 -56 -39 -26 0
-58 -16 -38 -56 -39 -19 0
-56 -38 -9 -58 -39 -6 0
-58 -16 -28 -56 -20 -30 0
-58 -56 -10 -30 -28 -6 0
-56 -58 -19 -16 -29 -28 0
-58 -29 -9 -56 -28 -6 0
-58 -18 -10 -56 -6 -20 0
-58 -18 -9 -56 -6 -19 0
-56 -47 -40 -57 -36 -50 0
-56 -47 -30 -57 -26 -50 0
-56 -47 -20 -57 -16 -50 0
-56 -47 -10 -57 -6 -50 0
-47 -56 -39 -36 -57 -49 0
-49 -29 -57 -47 -56 -26 0
-56 -47 -16 -19 -57 -49 0
-56 -47 -9 -49 -57 -6 0
-56 -37 -57 -40 -26 -30 0
-56 -37 -16 -57 -20 -40 0
-56 -40 -57 -6 -37 -10 0
-56 -39 -29 -57 -37 -26 0
-56 -37 -16 -39 -57 -19 0
-56 -37 -9 -57 -6 -39 0
-56 -38 -28 -57 -26 -37 0
-56 -38 -18 -57 -37 -16 0
-56 -57 -8 -38 -37 -6 0
-56 -20 -27 -30 -16 -57 0
-56 -30 -57 -6 -27 -10 0
-56 -29 -16 -57 -19 -27 0
-56 -29 -9 -57 -27 -6 0
-56 -28 -57 -27 -18 -16 0
-56 -57 -8 -28 -6 -27 0
-56 -17 -57 -6 -20 -10 0
-56 -17 -9 -57 -19 -6 0
-56 -57 -8 -18 -6 -17 0
-20 -37 -28 -38 -30 -17 0
-37 -38 -10 -30 -7 -28 0
-29 -38 -17 -19 -37 -28 0
-29 -38 -9 -7 -28 -37 0
-20 -37 -38 -18 -7 -10 0
-19 -37 -38 -18 -7 -9 0
-36 -30 -20 -16 -38 -28 0
-36 -38 -10 -30 -6 -28 0
-29 -19 -38 -28 -16 -36 0
-29 -38 -9 -28 -6 -36 0
-36 -20 -6 -10 -18 -38 0
-36 -19 -9 -18 -38 -6 0
-20 -35 -28 -15 -38 -30 0
-35 -38 -10 -5 -30 -28 0
-29 -19 -35 -15 -38 -28 0
-29 -35 -38 -5 -9 -28 0
-35 -38 -18 -5 -20 -10 0
-19 -35 -9 -18 -38 -5 0
-20 -38 -28 -34 -30 -14 0
-34 -28 -4 -10 -38 -30 0
-34 -14 -28 -38 -29 -19 0
-34 -29 -4 -38 -9 -28 0
-34 -18 -10 -20 -4 -38 0
-34 -18 -4 -19 -9 -38 0
-20 -37 -27 -16 -36 -30 0
-37 -27 -10 -36 -30 -6 0
-37 -16 -27 -19 -36 -29 0
-29 -37 -9 -27 -6 -36 0
-36 -16 -27 -28 -18 -37 0
-37 -27 -8 -28 -6 -36 0
-37 -17 -10 -6 -20 -36 0
-19 -37 -9 -17 -6 -36 0
-36 -37 -8 -18 -17 -6 0
-20 -35 -27 -15 -37 -30 0
-37 -35 -10 -30 -27 -5 0
-29 -19 -35 -15 -37 -27 0
-29 -37 -9 -27 -5 -35 0
-37 -28 -18 -35 -15 -27 0
-37 -27 -8 -28 -35 -5 0
-37 -17 -10 -5 -20 -35 0
-19 -35 -9 -5 -17 -37 0
-37 -17 -8 -18 -5 -35 0
-30 -20 -37 -14 -27 -34 0
-37 -27 -10 -4 -30 -34 0
-19 -37 -27 -34 -29 -14 0
-29 -27 -4 -9 -37 -34 0
-14 -37 -28 -27 -34 -18 0
-28 -27 -4 -8 -34 -37 0
-34 -4 -9 -17 -19 -37 0
-18 -4 -8 -17 -37 -34 0
-35 -26 -15 -30 -36 -20 0
-36 -26 -10 -5 -35 -30 0
-36 -19 -26 -15 -35 -29 0
-36 -26 -9 -5 -35 -29 0
-35 -28 -18 -36 -15 -26 0
-36 -35 -28 -26 -5 -8 0
-35 -27 -17 -36 -15 -26 0
-36 -35 -27 -26 -7 -5 0
-16 -35 -10 -20 -5 -36 0
-36 -16 -9 -19 -5 -35 0
-16 -35 -8 -18 -36 -5 0
-36 -35 -17 -16 -5 -7 0
-30 -20 -26 -14 -36 -34 0
-36 -34 -26 -4 -30 -10 0
-36 -29 -14 -19 -26 -34 0
-36 -26 -9 -4 -34 -29 0
-34 -26 -18 -36 -28 -14 0
-28 -26 -8 -4 -34 -36 0
-34 -14 -26 -27 -17 -36 0
-36 -26 -7 -4 -34 -27 0
-16 -20 -4 -10 -36 -34 0
-36 -16 -4 -34 -9 -19 0
-34 -18 -4 -8 -16 -36 0
-36 -34 -4 -7 -17 -16 0
-20 -35 -25 -34 -14 -30 0
-30 -25 -4 -10 -35 -34 0
-29 -14 -35 -25 -19 -34 0
-29 -35 -4 -9 -25 -34 0
-34 -14 -25 -35 -28 -18 0
-35 -25 -4 -28 -8 -34 0
-35 -27 -17 -25 -14 -34 0
-35 -25 -4 -27 -7 -34 0
-16 -35 -25 -14 -26 -34 0
-34 -35 -26 -4 -6 -25 0
-20 -15 -4 -10 -35 -34 0
-19 -15 -4 -9 -35 -34 0
-35 -18 -4 -8 -15 -34 0
-34 -15 -4 -17 -7 -35 0
-34 -15 -4 -35 -6 -16 0
-20 -28 -27 -18 -7 -10 0
-19 -27 -9 -28 -18 -7 0
-26 -28 -10 -20 -6 -18 0
-19 -26 -9 -18 -6 -28 0
-20 -25 -5 -10 -18 -28 0
-25 -18 -9 -19 -5 -28 0
-24 -20 -4 -10 -28 -18 0
-24 -19 -28 -18 -4 -9 0
-28 -10 -3 -20 -18 -23 0
-19 -28 -9 -3 -18 -23 0
-27 -17 -10 -26 -6 -20 0
-19 -27 -9 -26 -17 -6 0
-26 -27 -17 -18 -6 -8 0
-27 -17 -10 -25 -20 -5 0
-19 -27 -9 -25 -17 -5 0
-25 -27 -8 -18 -17 -5 0
-24 -17 -10 -4 -20 -27 0
-24 -4 -8 -17 -18 -27 0
-23 -18 -3 -17 -8 -27 0
-20 -25 -26 -16 -10 -5 0
-19 -25 -26 -16 -9 -5 0
-16 -25 -8 -18 -26 -5 0
-25 -26 -17 -16 -5 -7 0
-24 -16 -26 -18 -4 -8 0
-16 -26 -17 -4 -24 -7 0
-16 -26 -8 -3 -18 -23 0
-23 -16 -3 -17 -7 -26 0
-24 -20 -4 -10 -15 -25 0
-25 -15 -9 -4 -19 -24 0
-24 -18 -4 -8 -15 -25 0
-24 -15 -4 -25 -17 -7 0
-24 -15 -4 -25 -6 -16 0
-25 -15 -3 -10 -20 -23 0
-23 -19 -3 -9 -15 -25 0
-23 -15 -3 -18 -8 -25 0
-23 -15 -3 -17 -7 -25 0
-23 -15 -3 -16 -25 -6 0
-23 -14 -8 -24 -18 -3 0
-24 -23 -3 -17 -7 -14 0
-23 -24 -14 -16 -3 -6 0
-24 -15 -3 -14 -5 -23 0
-105 -96 -106 -97 -77 -75 0
-102 -96 -88 -106 -98 -82 0
-104 -95 -84 -105 -98 -88 0
-105 -104 -64 -66 -75 -76 0
-105 -98 -103 -95 -88 -83 0
-105 -103 -63 -66 -75 -76 0
-105 -98 -88 -82 -95 -102 0
-104 -98 -88 -83 -103 -94 0
-104 -95 -83 -85 -94 -103 0
-104 -103 -73 -77 -87 -84 0
-104 -103 -76 -73 -84 -86 0
-104 -103 -63 -66 -84 -86 0
-104 -103 -73 -75 -84 -85 0
-104 -103 -65 -63 -85 -84 0
-55 -103 -85 -104 -84 -53 0
-104 -103 -63 -66 -74 -76 0
-104 -74 -63 -65 -103 -75 0
-104 -75 -53 -55 -103 -74 0
-104 -65 -53 -64 -55 -103 0
-104 -98 -88 -82 -102 -94 0
-104 -95 -82 -85 -94 -102 0
-104 -87 -77 -102 -72 -84 0
-104 -86 -76 -72 -84 -102 0
-102 -104 -66 -62 -86 -84 0
-104 -85 -72 -102 -75 -84 0
-102 -104 -65 -62 -84 -85 0
-102 -85 -52 -104 -55 -84 0
-102 -104 -65 -62 -75 -74 0
-102 -104 -55 -52 -75 -74 0
-104 -65 -52 -64 -55 -102 0
-104 -101 -71 -77 -84 -87 0
-104 -86 -76 -71 -84 -101 0
-104 -101 -66 -61 -84 -86 0
-84 -75 -101 -104 -71 -85 0
-104 -101 -61 -65 -84 -85 0
-104 -85 -51 -55 -101 -84 0
-104 -101 -66 -61 -74 -76 0
-104 -101 -61 -65 -74 -75 0
-104 -55 -101 -51 -75 -74 0
-104 -64 -51 -65 -55 -101 0
-102 -93 -82 -86 -103 -96 0
-93 -103 -85 -95 -102 -82 0
-93 -82 -103 -94 -84 -102 0
-102 -83 -77 -72 -103 -87 0
-102 -86 -76 -72 -103 -83 0
-102 -86 -66 -103 -62 -83 0
-102 -85 -75 -103 -83 -72 0
-102 -103 -65 -62 -83 -85 0
-102 -85 -52 -103 -55 -83 0
-102 -84 -72 -74 -103 -83 0
-102 -84 -64 -103 -62 -83 0
-103 -83 -54 -52 -102 -84 0
-102 -103 -76 -73 -66 -62 0
-103 -52 -73 -102 -75 -55 0
-102 -65 -52 -63 -103 -55 0
-103 -77 -71 -101 -87 -83 0
-101 -83 -76 -86 -71 -103 0
-103 -101 -61 -66 -86 -83 0
-103 -75 -71 -101 -85 -83 0
-101 -103 -61 -65 -83 -85 0
-103 -85 -51 -55 -83 -101 0
-84 -103 -71 -101 -83 -74 0
-101 -103 -61 -64 -83 -84 0
-101 -103 -51 -54 -84 -83 0
-76 -73 -101 -103 -61 -66 0
-101 -103 -61 -65 -73 -75 0
-55 -101 -51 -103 -73 -75 0
-103 -74 -61 -101 -73 -64 0
-103 -74 -51 -54 -73 -101 0
-103 -65 -51 -63 -55 -101 0
-103 -63 -51 -64 -54 -101 0
-102 -92 -101 -96 -76 -71 0
-87 -82 -71 -101 -102 -77 0
-102 -82 -71 -101 -86 -76 0
-102 -101 -66 -61 -82 -86 0
-102 -82 -71 -75 -101 -85 0
-102 -101 -61 -65 -82 -85 0
-101 -85 -51 -55 -82 -102 0
-102 -101 -71 -74 -82 -84 0
-102 -101 -61 -64 -82 -84 0
-84 -101 -51 -82 -54 -102 0
-102 -73 -101 -71 -82 -83 0
-102 -101 -61 -63 -82 -83 0
-102 -101 -51 -53 -83 -82 0
-102 -83 -31 -33 -82 -101 0
-102 -101 -66 -61 -72 -76 0
-102 -101 -61 -65 -72 -75 0
-102 -55 -101 -51 -72 -75 0
-102 -101 -61 -64 -72 -74 0
-102 -101 -51 -54 -72 -74 0
-101 -72 -61 -63 -102 -73 0
-102 -101 -51 -53 -73 -72 0
-102 -62 -51 -65 -55 -101 0
-102 -64 -101 -62 -51 -54 0
-102 -63 -101 -62 -51 -53 0
-52 -31 -101 -53 -33 -102 0
-93 -94 -85 -84 -73 -75 0
-93 -55 -64 -94 -65 -53 0
-94 -86 -76 -91 -84 -71 0
-94 -85 -65 -84 -91 -61 0
-91 -84 -55 -85 -94 -51 0
-93 -92 -54 -52 -83 -84 0
-91 -87 -77 -92 -71 -82 0
-91 -92 -71 -74 -82 -84 0
-91 -92 -51 -54 -84 -82 0
-91 -92 -73 -71 -83 -82 0
-92 -91 -51 -53 -83 -82 0
-84 -75 -64 -66 -76 -85 0
-83 -75 -63 -66 -76 -85 0
-85 -75 -66 -62 -82 -76 0
-85 -75 -66 -61 -81 -76 0
-83 -74 -63 -66 -84 -76 0
-83 -65 -74 -63 -84 -75 0
-55 -75 -74 -53 -83 -84 0
-84 -65 -53 -64 -83 -55 0
-82 -74 -66 -62 -84 -76 0
-84 -75 -65 -62 -82 -74 0
-82 -55 -75 -74 -52 -84 0
-84 -55 -64 -65 -82 -52 0
-74 -81 -66 -61 -84 -76 0
-74 -81 -61 -65 -84 -75 0
-55 -74 -81 -51 -84 -75 0
-65 -64 -51 -81 -55 -84 0
-82 -73 -66 -62 -83 -76 0
-75 -65 -73 -62 -82 -83 0
-55 -75 -73 -52 -83 -82 0
-74 -64 -73 -62 -83 -82 0
-83 -74 -54 -52 -73 -82 0
-55 -83 -65 -63 -82 -52 0
-64 -54 -63 -52 -82 -83 0
-81 -73 -61 -83 -76 -66 0
-75 -81 -61 -73 -83 -65 0
-83 -75 -51 -81 -55 -73 0
-74 -81 -61 -64 -73 -83 0
-74 -73 -51 -54 -83 -81 0
-83 -65 -51 -63 -81 -55 0
-64 -63 -51 -81 -54 -83 0
-82 -81 -66 -61 -72 -76 0
-81 -72 -61 -75 -65 -82 0
-82 -55 -81 -51 -75 -72 0
-64 -81 -72 -61 -82 -74 0
-82 -74 -51 -54 -72 -81 0
-73 -72 -61 -63 -81 -82 0
-73 -72 -51 -53 -81 -82 0
-31 -73 -72 -33 -82 -81 0
-82 -65 -51 -62 -55 -81 0
-64 -62 -51 -81 -82 -54 0
-81 -63 -53 -62 -51 -82 0
-31 -81 -63 -62 -82 -33 0
-33 -52 -81 -53 -31 -82 0
-80 -78 -68 -69 -49 -50 0
-80 -78 -59 -58 -49 -50 0
-65 -73 -53 -74 -55 -64 0
-52 -74 -64 -65 -72 -55 0
-65 -74 -51 -64 -55 -71 0
-65 -73 -72 -63 -52 -55 0
-55 -65 -63 -51 -73 -71 0
-73 -63 -51 -64 -54 -71 0
-72 -62 -51 -65 -71 -55 0
-72 -62 -51 -64 -71 -54 0
-72 -62 -51 -63 -71 -53 0
-33 -72 -62 -63 -31 -71 0
-31 -53 -72 -33 -71 -52 0
-70 -59 -68 -58 -49 -50 0
-70 -67 -57 -59 -49 -50 0
-70 -67 -57 -58 -48 -50 0
-58 -38 -67 -70 -57 -40 0
-70 -20 -67 -18 -58 -57 0
-70 -37 -67 -38 -28 -30 0
-70 -20 -67 -18 -37 -38 0
-27 -18 -67 -70 -20 -28 0
-69 -67 -57 -58 -48 -49 0
-69 -38 -57 -67 -39 -58 0
-69 -29 -67 -28 -58 -57 0
-69 -58 -19 -67 -18 -57 0
-52 -53 -61 -62 -31 -33 0
-30 -60 -57 -28 -37 -38 0
-20 -37 -57 -38 -60 -18 0
-20 -60 -57 -18 -28 -27 0
-56 -30 -38 -60 -28 -36 0
-56 -38 -18 -20 -36 -60 0
-56 -36 -27 -60 -37 -30 0
-56 -36 -17 -60 -20 -37 0
-36 -60 -10 -56 -7 -37 0
-56 -20 -28 -26 -18 -60 0
-56 -20 -26 -60 -27 -17 0
-56 -60 -27 -7 -10 -26 0
-56 -60 -17 -16 -7 -10 0
-59 -38 -28 -57 -37 -29 0
-59 -19 -38 -57 -37 -18 0
-59 -19 -57 -18 -28 -27 0
-56 -38 -28 -59 -36 -29 0
-59 -19 -38 -56 -36 -18 0
-59 -29 -37 -56 -27 -36 0
-59 -19 -37 -56 -36 -17 0
-59 -56 -37 -7 -36 -9 0
-59 -28 -18 -56 -19 -26 0
-59 -19 -27 -56 -17 -26 0
-59 -27 -9 -56 -7 -26 0
-56 -59 -7 -9 -17 -16 0
-58 -56 -28 -27 -36 -37 0
-58 -37 -18 -56 -36 -17 0
-58 -56 -37 -7 -36 -8 0
-58 -27 -17 -56 -18 -26 0
-58 -56 -27 -26 -8 -7 0
-56 -58 -17 -16 -7 -8 0
-47 -30 -37 -38 -28 -50 0
-47 -20 -37 -38 -18 -50 0
-47 -20 -28 -27 -18 -50 0
-36 -30 -46 -38 -28 -50 0
-36 -20 -46 -38 -18 -50 0
-30 -37 -46 -36 -27 -50 0
-20 -37 -46 -36 -17 -50 0
-36 -46 -10 -37 -7 -50 0
-20 -46 -26 -28 -18 -50 0
-20 -46 -27 -26 -17 -50 0
-46 -27 -10 -26 -7 -50 0
-46 -16 -10 -17 -7 -50 0
-30 -35 -45 -38 -28 -50 0
-20 -35 -45 -38 -18 -50 0
-30 -37 -45 -35 -27 -50 0
-20 -37 -45 -35 -17 -50 0
-37 -45 -10 -35 -7 -50 0
-30 -35 -45 -36 -26 -50 0
-20 -35 -45 -36 -16 -50 0
-36 -45 -10 -35 -6 -50 0
-20 -25 -45 -28 -18 -50 0
-20 -25 -45 -27 -17 -50 0
-27 -45 -10 -25 -7 -50 0
-20 -25 -26 -16 -45 -50 0
-50 -26 -10 -6 -25 -45 0
-45 -15 -10 -17 -7 -50 0
-16 -45 -10 -15 -6 -50 0
-47 -29 -37 -38 -28 -49 0
-47 -19 -37 -38 -18 -49 0
-47 -19 -28 -27 -18 -49 0
-49 -36 -29 -46 -28 -38 0
-36 -46 -18 -19 -38 -49 0
-49 -36 -29 -46 -37 -27 0
-19 -37 -46 -49 -36 -17 0
-37 -46 -9 -49 -7 -36 0
-19 -26 -28 -18 -46 -49 0
-19 -46 -26 -49 -27 -17 0
-46 -27 -9 -49 -7 -26 0
-46 -17 -9 -16 -7 -49 0
-49 -29 -35 -45 -28 -38 0
-19 -35 -45 -49 -18 -38 0
-29 -37 -45 -35 -27 -49 0
-19 -35 -45 -49 -37 -17 0
-49 -37 -9 -35 -7 -45 0
-29 -35 -45 -26 -36 -49 0
-36 -19 -35 -16 -45 -49 0
-49 -35 -9 -36 -6 -45 0
-19 -25 -45 -28 -18 -49 0
-49 -25 -17 -19 -45 -27 0
-25 -45 -9 -27 -7 -49 0
-19 -25 -26 -16 -45 -49 0
-26 -45 -9 -25 -6 -49 0
-45 -15 -9 -17 -7 -49 0
-49 -15 -9 -6 -16 -45 0
-40 -27 -18 -37 -28 -20 0
-40 -20 -26 -36 -28 -18 0
-40 -36 -27 -26 -20 -17 0
-36 -27 -10 -26 -7 -40 0
-40 -17 -10 -36 -16 -7 0
-20 -35 -25 -40 -18 -28 0
-35 -27 -17 -25 -40 -20 0
-35 -27 -10 -40 -7 -25 0
-16 -35 -25 -26 -20 -40 0
-35 -25 -10 -40 -26 -6 0
-40 -35 -15 -17 -7 -10 0
-16 -35 -10 -40 -6 -15 0
-40 -24 -20 -34 -28 -18 0
-40 -24 -17 -20 -27 -34 0
-40 -24 -10 -34 -7 -27 0
-24 -20 -26 -16 -34 -40 0
-40 -24 -10 -34 -6 -26 0
-40 -20 -25 -15 -24 -34 0
-40 -25 -10 -34 -5 -24 0
-34 -14 -10 -17 -40 -7 0
-40 -16 -10 -34 -14 -6 0
-34 -14 -10 -15 -40 -5 0
-37 -27 -18 -19 -28 -39 0
-39 -19 -26 -36 -18 -28 0
-39 -26 -17 -36 -19 -27 0
-39 -36 -27 -26 -7 -9 0
-39 -17 -9 -36 -16 -7 0
-39 -19 -35 -18 -28 -25 0
-39 -35 -25 -27 -17 -19 0
-39 -35 -25 -27 -7 -9 0
-39 -35 -25 -26 -19 -16 0
-39 -35 -25 -26 -6 -9 0
-35 -15 -9 -17 -7 -39 0
-39 -35 -15 -16 -9 -6 0
-34 -24 -19 -18 -28 -39 0
-34 -19 -27 -24 -17 -39 0
-39 -24 -9 -34 -7 -27 0
-34 -24 -16 -19 -26 -39 0
-39 -24 -9 -34 -6 -26 0
-39 -24 -15 -34 -25 -19 0
-39 -24 -9 -34 -5 -25 0
-39 -34 -14 -17 -9 -7 0
-39 -14 -9 -16 -6 -34 0
-39 -34 -15 -14 -9 -5 0
-36 -38 -27 -26 -17 -18 0
-36 -26 -8 -27 -38 -7 0
-16 -17 -8 -38 -36 -7 0
-38 -27 -17 -25 -35 -18 0
-35 -25 -38 -27 -7 -8 0
-25 -38 -18 -16 -26 -35 0
-35 -25 -8 -26 -38 -6 0
-35 -38 -15 -17 -7 -8 0
-16 -35 -8 -38 -15 -6 0
-24 -27 -17 -18 -38 -34 0
-34 -24 -8 -38 -7 -27 0
-34 -26 -18 -38 -24 -16 0
-34 -26 -8 -24 -38 -6 0
-24 -25 -15 -18 -38 -34 0
-24 -25 -8 -38 -34 -5 0
-34 -14 -38 -17 -8 -7 0
-34 -14 -38 -16 -6 -8 0
-14 -15 -8 -38 -5 -34 0
-37 -35 -25 -26 -7 -6 0
-37 -35 -15 -16 -7 -6 0
-24 -37 -17 -26 -16 -34 0
-34 -24 -37 -26 -6 -7 0
-34 -24 -15 -17 -25 -37 0
-34 -37 -25 -24 -5 -7 0
-34 -14 -37 -16 -6 -7 0
-34 -37 -15 -14 -7 -5 0
-36 -24 -15 -16 -25 -34 0
-36 -34 -25 -24 -6 -5 0
-34 -36 -15 -14 -5 -6 0
-30 -26 -17 -16 -7 -10 0
-25 -15 -10 -17 -7 -30 0
-30 -25 -15 -16 -10 -6 0
-24 -17 -10 -7 -14 -30 0
-24 -16 -10 -14 -30 -6 0
-24 -14 -10 -15 -30 -5 0
-23 -17 -10 -30 -13 -7 0
-23 -16 -10 -30 -13 -6 0
-23 -15 -10 -30 -13 -5 0
-29 -26 -17 -16 -7 -9 0
-29 -17 -9 -7 -25 -15 0
-29 -16 -9 -15 -6 -25 0
-29 -24 -14 -17 -7 -9 0
-29 -24 -14 -16 -6 -9 0
-29 -24 -15 -14 -9 -5 0
-23 -17 -9 -29 -7 -13 0
-23 -13 -9 -29 -16 -6 0
-23 -13 -9 -29 -15 -5 0
-26 -28 -17 -16 -7 -8 0
-25 -28 -15 -17 -7 -8 0
-25 -28 -15 -6 -16 -8 0
-24 -14 -28 -17 -7 -8 0
-24 -14 -28 -16 -6 -8 0
-14 -24 -8 -28 -5 -15 0
-23 -28 -17 -13 -7 -8 0
-23 -16 -8 -28 -13 -6 0
-23 -13 -8 -28 -5 -15 0
-23 -13 -4 -8 -14 -28 0
-25 -27 -15 -16 -7 -6 0
-24 -14 -27 -16 -7 -6 0
-24 -27 -15 -14 -7 -5 0
-23 -16 -27 -13 -7 -6 0
-23 -27 -15 -13 -5 -7 0
-23 -13 -27 -14 -4 -7 0
-24 -26 -15 -14 -6 -5 0
-23 -26 -15 -13 -5 -6 0
-23 -13 -26 -14 -6 -4 0
-23 -13 -25 -14 -4 -5 0
