p cnf 964 21693
44 0
45 0
46 0
-47 9 14 0
-9 47 0
-14 47 0
-48 4 10 0
-4 48 0
-10 48 0
-49 7 12 0
-7 49 0
-12 49 0
-50 5 11 0
-5 50 0
-11 50 0
-51 8 13 0
-8 51 0
-13 51 0
-52 0
-53 3 0
-3 53 0
-54 6 0
-6 54 0
-55 1 15 0
-1 55 0
-15 55 0
-56 2 16 0
-2 56 0
-16 56 0
44 57 58 59 0
44 -57 -58 0
44 -57 -59 0
44 -58 -59 0
-44 -57 0
-44 -58 0
-44 -59 0
45 60 61 62 0
45 -60 -61 0
45 -60 -62 0
45 -61 -62 0
-45 -60 0
-45 -61 0
-45 -62 0
46 63 64 65 0
46 -63 -64 0
46 -63 -65 0
46 -64 -65 0
-46 -63 0
-46 -64 0
-46 -65 0
47 66 67 68 0
47 -66 -67 0
47 -66 -68 0
47 -67 -68 0
-47 -66 0
-47 -67 0
-47 -68 0
48 69 70 71 0
48 -69 -70 0
48 -69 -71 0
48 -70 -71 0
-48 -69 0
-48 -70 0
-48 -71 0
49 72 73 74 0
49 -72 -73 0
49 -72 -74 0
49 -73 -74 0
-49 -72 0
-49 -73 0
-49 -74 0
50 75 76 77 0
50 -75 -76 0
50 -75 -77 0
50 -76 -77 0
-50 -75 0
-50 -76 0
-50 -77 0
51 78 79 80 0
51 -78 -79 0
51 -78 -80 0
51 -79 -80 0
-51 -78 0
-51 -79 0
-51 -80 0
52 81 82 83 0
52 -81 -82 0
52 -81 -83 0
52 -82 -83 0
-52 -81 0
-52 -82 0
-52 -83 0
53 84 85 86 0
53 -84 -85 0
53 -84 -86 0
53 -85 -86 0
-53 -84 0
-53 -85 0
-53 -86 0
54 87 88 89 0
54 -87 -88 0
54 -87 -89 0
54 -88 -89 0
-54 -87 0
-54 -88 0
-54 -89 0
55 90 91 92 0
55 -90 -91 0
55 -90 -92 0
55 -91 -92 0
-55 -90 0
-55 -91 0
-55 -92 0
56 93 94 95 0
56 -93 -94 0
56 -93 -95 0
56 -94 -95 0
-56 -93 0
-56 -94 0
-56 -95 0
83 0
85 0
88 0
105 0
106 0
107 0
108 0
-97 0
-96 3 6 1 2 0
-97 0
-98 15 16 0
-99 37 42 22 28 0
-100 33 38 18 24 0
-101 35 40 20 26 0
-102 34 39 19 25 0
-103 36 41 21 27 0
-104 17 23 0
112 0
113 0
114 0
115 0
116 0
-111 0
117 0
-109 9 4 7 5 8 0
-110 14 10 12 11 13 0
-111 0
-117 32 29 30 31 0
-118 37 33 35 34 36 0
-119 42 38 40 39 41 0
-120 22 18 20 19 21 0
-121 28 24 26 25 27 0
130 0
132 0
-134 0
-128 0
135 0
137 0
-131 0
-129 0
-128 148 0
-130 152 0
-148 152 0
-130 -148 153 0
-149 153 0
-130 -149 154 0
-150 154 0
-130 -150 155 0
-151 155 0
-130 -151 0
-132 156 0
-152 156 0
-132 -152 157 0
-153 157 0
-132 -153 158 0
-154 158 0
-132 -154 159 0
-155 159 0
-132 -155 0
-134 160 0
-156 160 0
-134 -156 161 0
-157 161 0
-134 -157 162 0
-158 162 0
-134 -158 163 0
-159 163 0
-134 -159 0
-136 164 0
-160 164 0
-136 -160 165 0
-161 165 0
-136 -161 166 0
-162 166 0
-136 -162 167 0
-163 167 0
-136 -163 0
-129 168 0
-131 172 0
-168 172 0
-131 -168 173 0
-169 173 0
-131 -169 174 0
-170 174 0
-131 -170 175 0
-171 175 0
-131 -171 0
-133 176 0
-172 176 0
-133 -172 177 0
-173 177 0
-133 -173 178 0
-174 178 0
-133 -174 179 0
-175 179 0
-133 -175 0
-135 180 0
-176 180 0
-135 -176 181 0
-177 181 0
-135 -177 182 0
-178 182 0
-135 -178 183 0
-179 183 0
-135 -179 0
-137 184 0
-180 184 0
-137 -180 185 0
-181 185 0
-137 -181 186 0
-182 186 0
-137 -182 187 0
-183 187 0
-137 -183 0
-102 -123 96 0
-102 123 -96 0
-102 -125 97 0
-102 125 -97 0
-102 -127 98 0
-102 127 -98 0
-102 -129 99 0
-102 129 -99 0
-102 -131 100 0
-102 131 -100 0
-102 -133 101 0
-102 133 -101 0
-102 -135 102 0
-102 135 -102 0
-102 -137 103 0
-102 137 -103 0
-102 -139 104 0
-102 139 -104 0
-102 -141 105 0
-102 141 -105 0
-102 -143 106 0
-102 143 -106 0
-102 -145 107 0
-102 145 -107 0
-102 -147 108 0
-102 147 -108 0
188 189 190 191 192 0
193 194 195 196 197 198 199 200 201 202 203 204 205 206 0
-193 305 0
-194 306 0
-305 306 0
-194 -305 0
-195 307 0
-306 307 0
-195 -306 0
-196 308 0
-307 308 0
-196 -307 0
-197 309 0
-308 309 0
-197 -308 0
-198 310 0
-309 310 0
-198 -309 0
-199 311 0
-310 311 0
-199 -310 0
-200 312 0
-311 312 0
-200 -311 0
-201 313 0
-312 313 0
-201 -312 0
-202 314 0
-313 314 0
-202 -313 0
-203 315 0
-314 315 0
-203 -314 0
-204 316 0
-315 316 0
-204 -315 0
-205 317 0
-316 317 0
-205 -316 0
-206 318 0
-317 318 0
-206 -317 0
207 208 209 210 211 212 213 214 215 216 217 218 219 220 0
-207 319 0
-208 320 0
-319 320 0
-208 -319 0
-209 321 0
-320 321 0
-209 -320 0
-210 322 0
-321 322 0
-210 -321 0
-211 323 0
-322 323 0
-211 -322 0
-212 324 0
-323 324 0
-212 -323 0
-213 325 0
-324 325 0
-213 -324 0
-214 326 0
-325 326 0
-214 -325 0
-215 327 0
-326 327 0
-215 -326 0
-216 328 0
-327 328 0
-216 -327 0
-217 329 0
-328 329 0
-217 -328 0
-218 330 0
-329 330 0
-218 -329 0
-219 331 0
-330 331 0
-219 -330 0
-220 332 0
-331 332 0
-220 -331 0
221 222 223 224 225 226 227 228 229 230 231 232 233 234 0
-221 333 0
-222 334 0
-333 334 0
-222 -333 0
-223 335 0
-334 335 0
-223 -334 0
-224 336 0
-335 336 0
-224 -335 0
-225 337 0
-336 337 0
-225 -336 0
-226 338 0
-337 338 0
-226 -337 0
-227 339 0
-338 339 0
-227 -338 0
-228 340 0
-339 340 0
-228 -339 0
-229 341 0
-340 341 0
-229 -340 0
-230 342 0
-341 342 0
-230 -341 0
-231 343 0
-342 343 0
-231 -342 0
-232 344 0
-343 344 0
-232 -343 0
-233 345 0
-344 345 0
-233 -344 0
-234 346 0
-345 346 0
-234 -345 0
235 236 237 238 239 240 241 242 243 244 245 246 247 248 0
-235 347 0
-236 348 0
-347 348 0
-236 -347 0
-237 349 0
-348 349 0
-237 -348 0
-238 350 0
-349 350 0
-238 -349 0
-239 351 0
-350 351 0
-239 -350 0
-240 352 0
-351 352 0
-240 -351 0
-241 353 0
-352 353 0
-241 -352 0
-242 354 0
-353 354 0
-242 -353 0
-243 355 0
-354 355 0
-243 -354 0
-244 356 0
-355 356 0
-244 -355 0
-245 357 0
-356 357 0
-245 -356 0
-246 358 0
-357 358 0
-246 -357 0
-247 359 0
-358 359 0
-247 -358 0
-248 360 0
-359 360 0
-248 -359 0
249 250 251 252 253 254 255 256 257 258 259 260 261 262 0
-249 361 0
-250 362 0
-361 362 0
-250 -361 0
-251 363 0
-362 363 0
-251 -362 0
-252 364 0
-363 364 0
-252 -363 0
-253 365 0
-364 365 0
-253 -364 0
-254 366 0
-365 366 0
-254 -365 0
-255 367 0
-366 367 0
-255 -366 0
-256 368 0
-367 368 0
-256 -367 0
-257 369 0
-368 369 0
-257 -368 0
-258 370 0
-369 370 0
-258 -369 0
-259 371 0
-370 371 0
-259 -370 0
-260 372 0
-371 372 0
-260 -371 0
-261 373 0
-372 373 0
-261 -372 0
-262 374 0
-373 374 0
-262 -373 0
263 264 265 266 267 268 269 270 271 272 273 274 275 276 0
-263 375 0
-264 376 0
-375 376 0
-264 -375 0
-265 377 0
-376 377 0
-265 -376 0
-266 378 0
-377 378 0
-266 -377 0
-267 379 0
-378 379 0
-267 -378 0
-268 380 0
-379 380 0
-268 -379 0
-269 381 0
-380 381 0
-269 -380 0
-270 382 0
-381 382 0
-270 -381 0
-271 383 0
-382 383 0
-271 -382 0
-272 384 0
-383 384 0
-272 -383 0
-273 385 0
-384 385 0
-273 -384 0
-274 386 0
-385 386 0
-274 -385 0
-275 387 0
-386 387 0
-275 -386 0
-276 388 0
-387 388 0
-276 -387 0
277 278 279 280 281 282 283 284 285 286 287 288 289 290 0
-277 389 0
-278 390 0
-389 390 0
-278 -389 0
-279 391 0
-390 391 0
-279 -390 0
-280 392 0
-391 392 0
-280 -391 0
-281 393 0
-392 393 0
-281 -392 0
-282 394 0
-393 394 0
-282 -393 0
-283 395 0
-394 395 0
-283 -394 0
-284 396 0
-395 396 0
-284 -395 0
-285 397 0
-396 397 0
-285 -396 0
-286 398 0
-397 398 0
-286 -397 0
-287 399 0
-398 399 0
-287 -398 0
-288 400 0
-399 400 0
-288 -399 0
-289 401 0
-400 401 0
-289 -400 0
-290 402 0
-401 402 0
-290 -401 0
291 292 293 294 295 296 297 298 299 300 301 302 303 304 0
-291 403 0
-292 404 0
-403 404 0
-292 -403 0
-293 405 0
-404 405 0
-293 -404 0
-294 406 0
-405 406 0
-294 -405 0
-295 407 0
-406 407 0
-295 -406 0
-296 408 0
-407 408 0
-296 -407 0
-297 409 0
-408 409 0
-297 -408 0
-298 410 0
-409 410 0
-298 -409 0
-299 411 0
-410 411 0
-299 -410 0
-300 412 0
-411 412 0
-300 -411 0
-301 413 0
-412 413 0
-301 -412 0
-302 414 0
-413 414 0
-302 -413 0
-303 415 0
-414 415 0
-303 -414 0
-304 416 0
-415 416 0
-304 -415 0
-197 0
-213 0
-224 0
-240 0
-256 0
-271 0
-286 0
-301 0
-4 -193 0
-38 -203 0
-38 -295 0
-24 -205 0
-11 -208 0
-20 -246 0
-40 -245 0
-40 -296 0
-35 -244 0
-35 -282 0
-41 -259 0
-41 -298 0
-8 -249 0
-27 -261 0
-25 -219 0
-23 -275 0
-12 -236 0
-28 -233 0
-7 -235 0
-33 -281 0
-33 -202 0
-18 -204 0
-32 -229 0
-32 -266 0
-13 -250 0
-30 -215 0
-30 -269 0
-3 -277 0
-42 -231 0
-42 -294 0
-6 -291 0
-31 -257 0
-31 -270 0
-5 -207 0
-39 -217 0
-39 -297 0
-19 -218 0
-34 -216 0
-34 -283 0
-10 -194 0
-26 -247 0
-9 -221 0
-37 -230 0
-37 -280 0
-22 -232 0
-36 -258 0
-36 -284 0
-21 -260 0
-29 -201 0
-29 -267 0
-17 -274 0
-14 -222 0
-195 0
-209 0
-223 0
-237 0
-251 0
-265 0
-279 0
-293 0
-194 100 0
-100 194 0
-208 102 0
-102 208 0
-222 99 0
-99 222 0
-236 101 0
-101 236 0
-250 103 0
-103 250 0
-264 104 0
-104 264 0
-278 105 0
-105 278 0
-292 106 0
-106 292 0
-193 -122 0
-207 -123 0
-194 -124 0
-208 -125 0
-195 -126 0
-209 -127 0
-196 -128 0
-210 -129 0
-197 -130 0
-211 -131 0
-198 -132 0
-212 -133 0
-199 -134 0
-213 -135 0
-200 -136 0
-214 -137 0
-201 -138 0
-215 -139 0
-202 -140 0
-216 -141 0
-203 -142 0
-217 -143 0
-204 -144 0
-218 -145 0
-205 -146 0
-219 -147 0
-193 -207 0
-194 -208 0
-195 -209 0
-196 -210 0
-197 -211 0
-198 -212 0
-199 -213 0
-200 -214 0
-201 -215 0
-202 -216 0
-203 -217 0
-204 -218 0
-205 -219 0
-221 -193 0
-221 -207 0
-222 -194 0
-222 -208 0
-223 -195 0
-223 -209 0
-224 -196 0
-224 -210 0
-225 -197 0
-225 -211 0
-226 -198 0
-226 -212 0
-227 -199 0
-227 -213 0
-228 -200 0
-228 -214 0
-229 -201 0
-229 -215 0
-230 -202 0
-230 -216 0
-231 -203 0
-231 -217 0
-232 -204 0
-232 -218 0
-233 -205 0
-233 -219 0
-43 71 0
43 74 0
-43 -100 0
43 -101 0
-43 -29 0
-43 -193 -263 0
43 -235 -263 0
-43 -194 -264 0
43 -236 -264 0
-43 -195 -265 0
43 -237 -265 0
-43 -196 -266 0
43 -238 -266 0
-43 -197 -267 0
43 -239 -267 0
-43 -198 -268 0
43 -240 -268 0
-43 -199 -269 0
43 -241 -269 0
-43 -200 -270 0
43 -242 -270 0
-43 -201 -271 0
43 -243 -271 0
-43 -202 -272 0
43 -244 -272 0
-43 -203 -273 0
43 -245 -273 0
-43 -204 -274 0
43 -246 -274 0
-43 -205 -275 0
43 -247 -275 0
-43 -417 122 0
-43 417 -122 0
-43 -418 124 0
-43 418 -124 0
-43 -419 126 0
-43 419 -126 0
-43 -420 128 0
-43 420 -128 0
-43 -421 130 0
-43 421 -130 0
-43 -422 132 0
-43 422 -132 0
-43 -423 134 0
-43 423 -134 0
-43 -424 136 0
-43 424 -136 0
-43 -425 138 0
-43 425 -138 0
-43 -426 140 0
-43 426 -140 0
-43 -427 142 0
-43 427 -142 0
-43 -428 144 0
-43 428 -144 0
-43 -429 146 0
-43 429 -146 0
-43 421 0
43 422 0
-425 0
-423 0
43 -421 0
-420 430 0
-421 434 0
-430 434 0
-421 -430 435 0
-431 435 0
-421 -431 436 0
-432 436 0
-421 -432 437 0
-433 437 0
-421 -433 0
-422 438 0
-434 438 0
-422 -434 439 0
-435 439 0
-422 -435 440 0
-436 440 0
-422 -436 441 0
-437 441 0
-422 -437 0
-423 442 0
-438 442 0
-423 -438 443 0
-439 443 0
-423 -439 444 0
-440 444 0
-423 -440 445 0
-441 445 0
-423 -441 0
-424 446 0
-442 446 0
-424 -442 447 0
-443 447 0
-424 -443 448 0
-444 448 0
-424 -444 449 0
-445 449 0
-424 -445 0
-450 420 0
-450 68 0
-420 -68 450 0
-451 421 0
-451 71 0
-421 -71 451 0
-452 422 0
-452 74 0
-422 -74 452 0
-453 423 0
-453 77 0
-423 -77 453 0
-454 424 0
-454 80 0
-424 -80 454 0
-450 455 0
-451 457 0
-455 457 0
-451 -455 458 0
-456 458 0
-451 -456 0
-452 459 0
-457 459 0
-452 -457 460 0
-458 460 0
-452 -458 0
-453 461 0
-459 461 0
-453 -459 462 0
-460 462 0
-453 -460 0
-454 463 0
-461 463 0
-454 -461 464 0
-462 464 0
-454 -462 0
465 0
466 0
467 0
468 0
469 0
470 0
471 0
472 0
473 0
474 0
475 0
476 0
477 0
-478 0
-487 0
-496 0
-505 0
-478 514 0
-479 518 0
-514 518 0
-479 -514 519 0
-515 519 0
-479 -515 520 0
-516 520 0
-479 -516 521 0
-517 521 0
-479 -517 0
-480 522 0
-518 522 0
-480 -518 523 0
-519 523 0
-480 -519 524 0
-520 524 0
-480 -520 525 0
-521 525 0
-480 -521 0
-481 526 0
-522 526 0
-481 -522 527 0
-523 527 0
-481 -523 528 0
-524 528 0
-481 -524 529 0
-525 529 0
-481 -525 0
-482 530 0
-526 530 0
-482 -526 531 0
-527 531 0
-482 -527 532 0
-528 532 0
-482 -528 533 0
-529 533 0
-482 -529 0
-487 534 0
-488 538 0
-534 538 0
-488 -534 539 0
-535 539 0
-488 -535 540 0
-536 540 0
-488 -536 541 0
-537 541 0
-488 -537 0
-489 542 0
-538 542 0
-489 -538 543 0
-539 543 0
-489 -539 544 0
-540 544 0
-489 -540 545 0
-541 545 0
-489 -541 0
-490 546 0
-542 546 0
-490 -542 547 0
-543 547 0
-490 -543 548 0
-544 548 0
-490 -544 549 0
-545 549 0
-490 -545 0
-491 550 0
-546 550 0
-491 -546 551 0
-547 551 0
-491 -547 552 0
-548 552 0
-491 -548 553 0
-549 553 0
-491 -549 0
-496 554 0
-497 558 0
-554 558 0
-497 -554 559 0
-555 559 0
-497 -555 560 0
-556 560 0
-497 -556 561 0
-557 561 0
-497 -557 0
-498 562 0
-558 562 0
-498 -558 563 0
-559 563 0
-498 -559 564 0
-560 564 0
-498 -560 565 0
-561 565 0
-498 -561 0
-499 566 0
-562 566 0
-499 -562 567 0
-563 567 0
-499 -563 568 0
-564 568 0
-499 -564 569 0
-565 569 0
-499 -565 0
-500 570 0
-566 570 0
-500 -566 571 0
-567 571 0
-500 -567 572 0
-568 572 0
-500 -568 573 0
-569 573 0
-500 -569 0
-505 574 0
-506 578 0
-574 578 0
-506 -574 579 0
-575 579 0
-506 -575 580 0
-576 580 0
-506 -576 581 0
-577 581 0
-506 -577 0
-507 582 0
-578 582 0
-507 -578 583 0
-579 583 0
-507 -579 584 0
-580 584 0
-507 -580 585 0
-581 585 0
-507 -581 0
-508 586 0
-582 586 0
-508 -582 587 0
-583 587 0
-508 -583 588 0
-584 588 0
-508 -584 589 0
-585 589 0
-508 -585 0
-509 590 0
-586 590 0
-509 -586 591 0
-587 591 0
-509 -587 592 0
-588 592 0
-509 -588 593 0
-589 593 0
-509 -589 0
-594 478 0
-594 487 0
-478 -487 594 0
-595 479 0
-595 488 0
-479 -488 595 0
-596 480 0
-596 489 0
-480 -489 596 0
-597 481 0
-597 490 0
-481 -490 597 0
-598 482 0
-598 491 0
-482 -491 598 0
-594 599 0
-595 601 0
-599 601 0
-595 -599 602 0
-600 602 0
-595 -600 0
-596 603 0
-601 603 0
-596 -601 604 0
-602 604 0
-596 -602 0
-597 605 0
-603 605 0
-597 -603 606 0
-604 606 0
-597 -604 0
-598 607 0
-605 607 0
-598 -605 608 0
-606 608 0
-598 -606 0
-609 496 0
-609 505 0
-496 -505 609 0
-610 497 0
-610 506 0
-497 -506 610 0
-611 498 0
-611 507 0
-498 -507 611 0
-612 499 0
-612 508 0
-499 -508 612 0
-613 500 0
-613 509 0
-500 -509 613 0
-609 614 0
-610 616 0
-614 616 0
-610 -614 617 0
-615 617 0
-610 -615 0
-611 618 0
-616 618 0
-611 -616 619 0
-617 619 0
-611 -617 0
-612 620 0
-618 620 0
-612 -618 621 0
-619 621 0
-612 -619 0
-613 622 0
-620 622 0
-613 -620 623 0
-621 623 0
-613 -621 0
624 625 0
-625 0
626 627 628 629 630 631 632 633 634 635 636 637 638 639 640 641 642 643 644 645 646 647 648 649 650 651 0
-626 652 0
-627 653 0
-652 653 0
-627 -652 0
-628 654 0
-653 654 0
-628 -653 0
-629 655 0
-654 655 0
-629 -654 0
-630 656 0
-655 656 0
-630 -655 0
-631 657 0
-656 657 0
-631 -656 0
-632 658 0
-657 658 0
-632 -657 0
-633 659 0
-658 659 0
-633 -658 0
-634 660 0
-659 660 0
-634 -659 0
-635 661 0
-660 661 0
-635 -660 0
-636 662 0
-661 662 0
-636 -661 0
-637 663 0
-662 663 0
-637 -662 0
-638 664 0
-663 664 0
-638 -663 0
-639 665 0
-664 665 0
-639 -664 0
-640 666 0
-665 666 0
-640 -665 0
-641 667 0
-666 667 0
-641 -666 0
-642 668 0
-667 668 0
-642 -667 0
-643 669 0
-668 669 0
-643 -668 0
-644 670 0
-669 670 0
-644 -669 0
-645 671 0
-670 671 0
-645 -670 0
-646 672 0
-671 672 0
-646 -671 0
-647 673 0
-672 673 0
-647 -672 0
-648 674 0
-673 674 0
-648 -673 0
-649 675 0
-674 675 0
-649 -674 0
-650 676 0
-675 676 0
-650 -675 0
-651 677 0
-676 677 0
-651 -676 0
678 679 680 681 682 683 684 685 686 687 688 689 690 691 692 693 694 695 696 697 698 699 700 701 702 703 0
-678 704 0
-679 705 0
-704 705 0
-679 -704 0
-680 706 0
-705 706 0
-680 -705 0
-681 707 0
-706 707 0
-681 -706 0
-682 708 0
-707 708 0
-682 -707 0
-683 709 0
-708 709 0
-683 -708 0
-684 710 0
-709 710 0
-684 -709 0
-685 711 0
-710 711 0
-685 -710 0
-686 712 0
-711 712 0
-686 -711 0
-687 713 0
-712 713 0
-687 -712 0
-688 714 0
-713 714 0
-688 -713 0
-689 715 0
-714 715 0
-689 -714 0
-690 716 0
-715 716 0
-690 -715 0
-691 717 0
-716 717 0
-691 -716 0
-692 718 0
-717 718 0
-692 -717 0
-693 719 0
-718 719 0
-693 -718 0
-694 720 0
-719 720 0
-694 -719 0
-695 721 0
-720 721 0
-695 -720 0
-696 722 0
-721 722 0
-696 -721 0
-697 723 0
-722 723 0
-697 -722 0
-698 724 0
-723 724 0
-698 -723 0
-699 725 0
-724 725 0
-699 -724 0
-700 726 0
-725 726 0
-700 -725 0
-701 727 0
-726 727 0
-701 -726 0
-702 728 0
-727 728 0
-702 -727 0
-703 729 0
-728 729 0
-703 -728 0
730 731 732 733 734 735 736 737 738 739 740 741 742 743 744 745 746 747 748 749 750 751 752 753 754 755 0
-730 756 0
-731 757 0
-756 757 0
-731 -756 0
-732 758 0
-757 758 0
-732 -757 0
-733 759 0
-758 759 0
-733 -758 0
-734 760 0
-759 760 0
-734 -759 0
-735 761 0
-760 761 0
-735 -760 0
-736 762 0
-761 762 0
-736 -761 0
-737 763 0
-762 763 0
-737 -762 0
-738 764 0
-763 764 0
-738 -763 0
-739 765 0
-764 765 0
-739 -764 0
-740 766 0
-765 766 0
-740 -765 0
-741 767 0
-766 767 0
-741 -766 0
-742 768 0
-767 768 0
-742 -767 0
-743 769 0
-768 769 0
-743 -768 0
-744 770 0
-769 770 0
-744 -769 0
-745 771 0
-770 771 0
-745 -770 0
-746 772 0
-771 772 0
-746 -771 0
-747 773 0
-772 773 0
-747 -772 0
-748 774 0
-773 774 0
-748 -773 0
-749 775 0
-774 775 0
-749 -774 0
-750 776 0
-775 776 0
-750 -775 0
-751 777 0
-776 777 0
-751 -776 0
-752 778 0
-777 778 0
-752 -777 0
-753 779 0
-778 779 0
-753 -778 0
-754 780 0
-779 780 0
-754 -779 0
-755 781 0
-780 781 0
-755 -780 0
782 783 784 785 786 787 788 789 790 791 792 793 794 795 796 797 798 799 800 801 802 803 804 805 806 807 0
-782 808 0
-783 809 0
-808 809 0
-783 -808 0
-784 810 0
-809 810 0
-784 -809 0
-785 811 0
-810 811 0
-785 -810 0
-786 812 0
-811 812 0
-786 -811 0
-787 813 0
-812 813 0
-787 -812 0
-788 814 0
-813 814 0
-788 -813 0
-789 815 0
-814 815 0
-789 -814 0
-790 816 0
-815 816 0
-790 -815 0
-791 817 0
-816 817 0
-791 -816 0
-792 818 0
-817 818 0
-792 -817 0
-793 819 0
-818 819 0
-793 -818 0
-794 820 0
-819 820 0
-794 -819 0
-795 821 0
-820 821 0
-795 -820 0
-796 822 0
-821 822 0
-796 -821 0
-797 823 0
-822 823 0
-797 -822 0
-798 824 0
-823 824 0
-798 -823 0
-799 825 0
-824 825 0
-799 -824 0
-800 826 0
-825 826 0
-800 -825 0
-801 827 0
-826 827 0
-801 -826 0
-802 828 0
-827 828 0
-802 -827 0
-803 829 0
-828 829 0
-803 -828 0
-804 830 0
-829 830 0
-804 -829 0
-805 831 0
-830 831 0
-805 -830 0
-806 832 0
-831 832 0
-806 -831 0
-807 833 0
-832 833 0
-807 -832 0
-626 -678 -730 785 0
-626 -678 -731 786 0
-626 -678 -732 787 0
-626 -678 -733 788 0
-626 -678 -734 789 0
-626 -678 -735 790 0
-626 -678 -736 791 0
-626 -678 -737 792 0
-626 -678 -738 793 0
-626 -678 -739 794 0
-626 -678 -740 795 0
-626 -678 -741 796 0
-626 -678 -742 797 0
-626 -678 -743 798 0
-626 -678 -744 799 0
-626 -678 -745 800 0
-626 -678 -746 801 0
-626 -678 -747 802 0
-626 -678 -748 803 0
-626 -678 -749 804 0
-626 -678 -750 805 0
-626 -678 -751 806 0
-626 -678 -752 807 0
-626 -678 -753 807 0
-626 -678 -754 807 0
-626 -678 -755 807 0
-626 -679 -730 786 0
-626 -679 -731 787 0
-626 -679 -732 788 0
-626 -679 -733 789 0
-626 -679 -734 790 0
-626 -679 -735 791 0
-626 -679 -736 792 0
-626 -679 -737 793 0
-626 -679 -738 794 0
-626 -679 -739 795 0
-626 -679 -740 796 0
-626 -679 -741 797 0
-626 -679 -742 798 0
-626 -679 -743 799 0
-626 -679 -744 800 0
-626 -679 -745 801 0
-626 -679 -746 802 0
-626 -679 -747 803 0
-626 -679 -748 804 0
-626 -679 -749 805 0
-626 -679 -750 806 0
-626 -679 -751 807 0
-626 -679 -752 807 0
-626 -679 -753 807 0
-626 -679 -754 807 0
-626 -679 -755 807 0
-626 -680 -730 787 0
-626 -680 -731 788 0
-626 -680 -732 789 0
-626 -680 -733 790 0
-626 -680 -734 791 0
-626 -680 -735 792 0
-626 -680 -736 793 0
-626 -680 -737 794 0
-626 -680 -738 795 0
-626 -680 -739 796 0
-626 -680 -740 797 0
-626 -680 -741 798 0
-626 -680 -742 799 0
-626 -680 -743 800 0
-626 -680 -744 801 0
-626 -680 -745 802 0
-626 -680 -746 803 0
-626 -680 -747 804 0
-626 -680 -748 805 0
-626 -680 -749 806 0
-626 -680 -750 807 0
-626 -680 -751 807 0
-626 -680 -752 807 0
-626 -680 -753 807 0
-626 -680 -754 807 0
-626 -680 -755 807 0
-626 -681 -730 788 0
-626 -681 -731 789 0
-626 -681 -732 790 0
-626 -681 -733 791 0
-626 -681 -734 792 0
-626 -681 -735 793 0
-626 -681 -736 794 0
-626 -681 -737 795 0
-626 -681 -738 796 0
-626 -681 -739 797 0
-626 -681 -740 798 0
-626 -681 -741 799 0
-626 -681 -742 800 0
-626 -681 -743 801 0
-626 -681 -744 802 0
-626 -681 -745 803 0
-626 -681 -746 804 0
-626 -681 -747 805 0
-626 -681 -748 806 0
-626 -681 -749 807 0
-626 -681 -750 807 0
-626 -681 -751 807 0
-626 -681 -752 807 0
-626 -681 -753 807 0
-626 -681 -754 807 0
-626 -681 -755 807 0
-626 -682 -730 789 0
-626 -682 -731 790 0
-626 -682 -732 791 0
-626 -682 -733 792 0
-626 -682 -734 793 0
-626 -682 -735 794 0
-626 -682 -736 795 0
-626 -682 -737 796 0
-626 -682 -738 797 0
-626 -682 -739 798 0
-626 -682 -740 799 0
-626 -682 -741 800 0
-626 -682 -742 801 0
-626 -682 -743 802 0
-626 -682 -744 803 0
-626 -682 -745 804 0
-626 -682 -746 805 0
-626 -682 -747 806 0
-626 -682 -748 807 0
-626 -682 -749 807 0
-626 -682 -750 807 0
-626 -682 -751 807 0
-626 -682 -752 807 0
-626 -682 -753 807 0
-626 -682 -754 807 0
-626 -682 -755 807 0
-626 -683 -730 790 0
-626 -683 -731 791 0
-626 -683 -732 792 0
-626 -683 -733 793 0
-626 -683 -734 794 0
-626 -683 -735 795 0
-626 -683 -736 796 0
-626 -683 -737 797 0
-626 -683 -738 798 0
-626 -683 -739 799 0
-626 -683 -740 800 0
-626 -683 -741 801 0
-626 -683 -742 802 0
-626 -683 -743 803 0
-626 -683 -744 804 0
-626 -683 -745 805 0
-626 -683 -746 806 0
-626 -683 -747 807 0
-626 -683 -748 807 0
-626 -683 -749 807 0
-626 -683 -750 807 0
-626 -683 -751 807 0
-626 -683 -752 807 0
-626 -683 -753 807 0
-626 -683 -754 807 0
-626 -683 -755 807 0
-626 -684 -730 791 0
-626 -684 -731 792 0
-626 -684 -732 793 0
-626 -684 -733 794 0
-626 -684 -734 795 0
-626 -684 -735 796 0
-626 -684 -736 797 0
-626 -684 -737 798 0
-626 -684 -738 799 0
-626 -684 -739 800 0
-626 -684 -740 801 0
-626 -684 -741 802 0
-626 -684 -742 803 0
-626 -684 -743 804 0
-626 -684 -744 805 0
-626 -684 -745 806 0
-626 -684 -746 807 0
-626 -684 -747 807 0
-626 -684 -748 807 0
-626 -684 -749 807 0
-626 -684 -750 807 0
-626 -684 -751 807 0
-626 -684 -752 807 0
-626 -684 -753 807 0
-626 -684 -754 807 0
-626 -684 -755 807 0
-626 -685 -730 792 0
-626 -685 -731 793 0
-626 -685 -732 794 0
-626 -685 -733 795 0
-626 -685 -734 796 0
-626 -685 -735 797 0
-626 -685 -736 798 0
-626 -685 -737 799 0
-626 -685 -738 800 0
-626 -685 -739 801 0
-626 -685 -740 802 0
-626 -685 -741 803 0
-626 -685 -742 804 0
-626 -685 -743 805 0
-626 -685 -744 806 0
-626 -685 -745 807 0
-626 -685 -746 807 0
-626 -685 -747 807 0
-626 -685 -748 807 0
-626 -685 -749 807 0
-626 -685 -750 807 0
-626 -685 -751 807 0
-626 -685 -752 807 0
-626 -685 -753 807 0
-626 -685 -754 807 0
-626 -685 -755 807 0
-626 -686 -730 793 0
-626 -686 -731 794 0
-626 -686 -732 795 0
-626 -686 -733 796 0
-626 -686 -734 797 0
-626 -686 -735 798 0
-626 -686 -736 799 0
-626 -686 -737 800 0
-626 -686 -738 801 0
-626 -686 -739 802 0
-626 -686 -740 803 0
-626 -686 -741 804 0
-626 -686 -742 805 0
-626 -686 -743 806 0
-626 -686 -744 807 0
-626 -686 -745 807 0
-626 -686 -746 807 0
-626 -686 -747 807 0
-626 -686 -748 807 0
-626 -686 -749 807 0
-626 -686 -750 807 0
-626 -686 -751 807 0
-626 -686 -752 807 0
-626 -686 -753 807 0
-626 -686 -754 807 0
-626 -686 -755 807 0
-626 -687 -730 794 0
-626 -687 -731 795 0
-626 -687 -732 796 0
-626 -687 -733 797 0
-626 -687 -734 798 0
-626 -687 -735 799 0
-626 -687 -736 800 0
-626 -687 -737 801 0
-626 -687 -738 802 0
-626 -687 -739 803 0
-626 -687 -740 804 0
-626 -687 -741 805 0
-626 -687 -742 806 0
-626 -687 -743 807 0
-626 -687 -744 807 0
-626 -687 -745 807 0
-626 -687 -746 807 0
-626 -687 -747 807 0
-626 -687 -748 807 0
-626 -687 -749 807 0
-626 -687 -750 807 0
-626 -687 -751 807 0
-626 -687 -752 807 0
-626 -687 -753 807 0
-626 -687 -754 807 0
-626 -687 -755 807 0
-626 -688 -730 795 0
-626 -688 -731 796 0
-626 -688 -732 797 0
-626 -688 -733 798 0
-626 -688 -734 799 0
-626 -688 -735 800 0
-626 -688 -736 801 0
-626 -688 -737 802 0
-626 -688 -738 803 0
-626 -688 -739 804 0
-626 -688 -740 805 0
-626 -688 -741 806 0
-626 -688 -742 807 0
-626 -688 -743 807 0
-626 -688 -744 807 0
-626 -688 -745 807 0
-626 -688 -746 807 0
-626 -688 -747 807 0
-626 -688 -748 807 0
-626 -688 -749 807 0
-626 -688 -750 807 0
-626 -688 -751 807 0
-626 -688 -752 807 0
-626 -688 -753 807 0
-626 -688 -754 807 0
-626 -688 -755 807 0
-626 -689 -730 796 0
-626 -689 -731 797 0
-626 -689 -732 798 0
-626 -689 -733 799 0
-626 -689 -734 800 0
-626 -689 -735 801 0
-626 -689 -736 802 0
-626 -689 -737 803 0
-626 -689 -738 804 0
-626 -689 -739 805 0
-626 -689 -740 806 0
-626 -689 -741 807 0
-626 -689 -742 807 0
-626 -689 -743 807 0
-626 -689 -744 807 0
-626 -689 -745 807 0
-626 -689 -746 807 0
-626 -689 -747 807 0
-626 -689 -748 807 0
-626 -689 -749 807 0
-626 -689 -750 807 0
-626 -689 -751 807 0
-626 -689 -752 807 0
-626 -689 -753 807 0
-626 -689 -754 807 0
-626 -689 -755 807 0
-626 -690 -730 797 0
-626 -690 -731 798 0
-626 -690 -732 799 0
-626 -690 -733 800 0
-626 -690 -734 801 0
-626 -690 -735 802 0
-626 -690 -736 803 0
-626 -690 -737 804 0
-626 -690 -738 805 0
-626 -690 -739 806 0
-626 -690 -740 807 0
-626 -690 -741 807 0
-626 -690 -742 807 0
-626 -690 -743 807 0
-626 -690 -744 807 0
-626 -690 -745 807 0
-626 -690 -746 807 0
-626 -690 -747 807 0
-626 -690 -748 807 0
-626 -690 -749 807 0
-626 -690 -750 807 0
-626 -690 -751 807 0
-626 -690 -752 807 0
-626 -690 -753 807 0
-626 -690 -754 807 0
-626 -690 -755 807 0
-626 -691 -730 798 0
-626 -691 -731 799 0
-626 -691 -732 800 0
-626 -691 -733 801 0
-626 -691 -734 802 0
-626 -691 -735 803 0
-626 -691 -736 804 0
-626 -691 -737 805 0
-626 -691 -738 806 0
-626 -691 -739 807 0
-626 -691 -740 807 0
-626 -691 -741 807 0
-626 -691 -742 807 0
-626 -691 -743 807 0
-626 -691 -744 807 0
-626 -691 -745 807 0
-626 -691 -746 807 0
-626 -691 -747 807 0
-626 -691 -748 807 0
-626 -691 -749 807 0
-626 -691 -750 807 0
-626 -691 -751 807 0
-626 -691 -752 807 0
-626 -691 -753 807 0
-626 -691 -754 807 0
-626 -691 -755 807 0
-626 -692 -730 799 0
-626 -692 -731 800 0
-626 -692 -732 801 0
-626 -692 -733 802 0
-626 -692 -734 803 0
-626 -692 -735 804 0
-626 -692 -736 805 0
-626 -692 -737 806 0
-626 -692 -738 807 0
-626 -692 -739 807 0
-626 -692 -740 807 0
-626 -692 -741 807 0
-626 -692 -742 807 0
-626 -692 -743 807 0
-626 -692 -744 807 0
-626 -692 -745 807 0
-626 -692 -746 807 0
-626 -692 -747 807 0
-626 -692 -748 807 0
-626 -692 -749 807 0
-626 -692 -750 807 0
-626 -692 -751 807 0
-626 -692 -752 807 0
-626 -692 -753 807 0
-626 -692 -754 807 0
-626 -692 -755 807 0
-626 -693 -730 800 0
-626 -693 -731 801 0
-626 -693 -732 802 0
-626 -693 -733 803 0
-626 -693 -734 804 0
-626 -693 -735 805 0
-626 -693 -736 806 0
-626 -693 -737 807 0
-626 -693 -738 807 0
-626 -693 -739 807 0
-626 -693 -740 807 0
-626 -693 -741 807 0
-626 -693 -742 807 0
-626 -693 -743 807 0
-626 -693 -744 807 0
-626 -693 -745 807 0
-626 -693 -746 807 0
-626 -693 -747 807 0
-626 -693 -748 807 0
-626 -693 -749 807 0
-626 -693 -750 807 0
-626 -693 -751 807 0
-626 -693 -752 807 0
-626 -693 -753 807 0
-626 -693 -754 807 0
-626 -693 -755 807 0
-626 -694 -730 801 0
-626 -694 -731 802 0
-626 -694 -732 803 0
-626 -694 -733 804 0
-626 -694 -734 805 0
-626 -694 -735 806 0
-626 -694 -736 807 0
-626 -694 -737 807 0
-626 -694 -738 807 0
-626 -694 -739 807 0
-626 -694 -740 807 0
-626 -694 -741 807 0
-626 -694 -742 807 0
-626 -694 -743 807 0
-626 -694 -744 807 0
-626 -694 -745 807 0
-626 -694 -746 807 0
-626 -694 -747 807 0
-626 -694 -748 807 0
-626 -694 -749 807 0
-626 -694 -750 807 0
-626 -694 -751 807 0
-626 -694 -752 807 0
-626 -694 -753 807 0
-626 -694 -754 807 0
-626 -694 -755 807 0
-626 -695 -730 802 0
-626 -695 -731 803 0
-626 -695 -732 804 0
-626 -695 -733 805 0
-626 -695 -734 806 0
-626 -695 -735 807 0
-626 -695 -736 807 0
-626 -695 -737 807 0
-626 -695 -738 807 0
-626 -695 -739 807 0
-626 -695 -740 807 0
-626 -695 -741 807 0
-626 -695 -742 807 0
-626 -695 -743 807 0
-626 -695 -744 807 0
-626 -695 -745 807 0
-626 -695 -746 807 0
-626 -695 -747 807 0
-626 -695 -748 807 0
-626 -695 -749 807 0
-626 -695 -750 807 0
-626 -695 -751 807 0
-626 -695 -752 807 0
-626 -695 -753 807 0
-626 -695 -754 807 0
-626 -695 -755 807 0
-626 -696 -730 803 0
-626 -696 -731 804 0
-626 -696 -732 805 0
-626 -696 -733 806 0
-626 -696 -734 807 0
-626 -696 -735 807 0
-626 -696 -736 807 0
-626 -696 -737 807 0
-626 -696 -738 807 0
-626 -696 -739 807 0
-626 -696 -740 807 0
-626 -696 -741 807 0
-626 -696 -742 807 0
-626 -696 -743 807 0
-626 -696 -744 807 0
-626 -696 -745 807 0
-626 -696 -746 807 0
-626 -696 -747 807 0
-626 -696 -748 807 0
-626 -696 -749 807 0
-626 -696 -750 807 0
-626 -696 -751 807 0
-626 -696 -752 807 0
-626 -696 -753 807 0
-626 -696 -754 807 0
-626 -696 -755 807 0
-626 -697 -730 804 0
-626 -697 -731 805 0
-626 -697 -732 806 0
-626 -697 -733 807 0
-626 -697 -734 807 0
-626 -697 -735 807 0
-626 -697 -736 807 0
-626 -697 -737 807 0
-626 -697 -738 807 0
-626 -697 -739 807 0
-626 -697 -740 807 0
-626 -697 -741 807 0
-626 -697 -742 807 0
-626 -697 -743 807 0
-626 -697 -744 807 0
-626 -697 -745 807 0
-626 -697 -746 807 0
-626 -697 -747 807 0
-626 -697 -748 807 0
-626 -697 -749 807 0
-626 -697 -750 807 0
-626 -697 -751 807 0
-626 -697 -752 807 0
-626 -697 -753 807 0
-626 -697 -754 807 0
-626 -697 -755 807 0
-626 -698 -730 805 0
-626 -698 -731 806 0
-626 -698 -732 807 0
-626 -698 -733 807 0
-626 -698 -734 807 0
-626 -698 -735 807 0
-626 -698 -736 807 0
-626 -698 -737 807 0
-626 -698 -738 807 0
-626 -698 -739 807 0
-626 -698 -740 807 0
-626 -698 -741 807 0
-626 -698 -742 807 0
-626 -698 -743 807 0
-626 -698 -744 807 0
-626 -698 -745 807 0
-626 -698 -746 807 0
-626 -698 -747 807 0
-626 -698 -748 807 0
-626 -698 -749 807 0
-626 -698 -750 807 0
-626 -698 -751 807 0
-626 -698 -752 807 0
-626 -698 -753 807 0
-626 -698 -754 807 0
-626 -698 -755 807 0
-626 -699 -730 806 0
-626 -699 -731 807 0
-626 -699 -732 807 0
-626 -699 -733 807 0
-626 -699 -734 807 0
-626 -699 -735 807 0
-626 -699 -736 807 0
-626 -699 -737 807 0
-626 -699 -738 807 0
-626 -699 -739 807 0
-626 -699 -740 807 0
-626 -699 -741 807 0
-626 -699 -742 807 0
-626 -699 -743 807 0
-626 -699 -744 807 0
-626 -699 -745 807 0
-626 -699 -746 807 0
-626 -699 -747 807 0
-626 -699 -748 807 0
-626 -699 -749 807 0
-626 -699 -750 807 0
-626 -699 -751 807 0
-626 -699 -752 807 0
-626 -699 -753 807 0
-626 -699 -754 807 0
-626 -699 -755 807 0
-626 -700 -730 807 0
-626 -700 -731 807 0
-626 -700 -732 807 0
-626 -700 -733 807 0
-626 -700 -734 807 0
-626 -700 -735 807 0
-626 -700 -736 807 0
-626 -700 -737 807 0
-626 -700 -738 807 0
-626 -700 -739 807 0
-626 -700 -740 807 0
-626 -700 -741 807 0
-626 -700 -742 807 0
-626 -700 -743 807 0
-626 -700 -744 807 0
-626 -700 -745 807 0
-626 -700 -746 807 0
-626 -700 -747 807 0
-626 -700 -748 807 0
-626 -700 -749 807 0
-626 -700 -750 807 0
-626 -700 -751 807 0
-626 -700 -752 807 0
-626 -700 -753 807 0
-626 -700 -754 807 0
-626 -700 -755 807 0
-626 -701 -730 807 0
-626 -701 -731 807 0
-626 -701 -732 807 0
-626 -701 -733 807 0
-626 -701 -734 807 0
-626 -701 -735 807 0
-626 -701 -736 807 0
-626 -701 -737 807 0
-626 -701 -738 807 0
-626 -701 -739 807 0
-626 -701 -740 807 0
-626 -701 -741 807 0
-626 -701 -742 807 0
-626 -701 -743 807 0
-626 -701 -744 807 0
-626 -701 -745 807 0
-626 -701 -746 807 0
-626 -701 -747 807 0
-626 -701 -748 807 0
-626 -701 -749 807 0
-626 -701 -750 807 0
-626 -701 -751 807 0
-626 -701 -752 807 0
-626 -701 -753 807 0
-626 -701 -754 807 0
-626 -701 -755 807 0
-626 -702 -730 807 0
-626 -702 -731 807 0
-626 -702 -732 807 0
-626 -702 -733 807 0
-626 -702 -734 807 0
-626 -702 -735 807 0
-626 -702 -736 807 0
-626 -702 -737 807 0
-626 -702 -738 807 0
-626 -702 -739 807 0
-626 -702 -740 807 0
-626 -702 -741 807 0
-626 -702 -742 807 0
-626 -702 -743 807 0
-626 -702 -744 807 0
-626 -702 -745 807 0
-626 -702 -746 807 0
-626 -702 -747 807 0
-626 -702 -748 807 0
-626 -702 -749 807 0
-626 -702 -750 807 0
-626 -702 -751 807 0
-626 -702 -752 807 0
-626 -702 -753 807 0
-626 -702 -754 807 0
-626 -702 -755 807 0
-626 -703 -730 807 0
-626 -703 -731 807 0
-626 -703 -732 807 0
-626 -703 -733 807 0
-626 -703 -734 807 0
-626 -703 -735 807 0
-626 -703 -736 807 0
-626 -703 -737 807 0
-626 -703 -738 807 0
-626 -703 -739 807 0
-626 -703 -740 807 0
-626 -703 -741 807 0
-626 -703 -742 807 0
-626 -703 -743 807 0
-626 -703 -744 807 0
-626 -703 -745 807 0
-626 -703 -746 807 0
-626 -703 -747 807 0
-626 -703 -748 807 0
-626 -703 -749 807 0
-626 -703 -750 807 0
-626 -703 -751 807 0
-626 -703 -752 807 0
-626 -703 -753 807 0
-626 -703 -754 807 0
-626 -703 -755 807 0
-627 -678 -730 786 0
-627 -678 -731 787 0
-627 -678 -732 788 0
-627 -678 -733 789 0
-627 -678 -734 790 0
-627 -678 -735 791 0
-627 -678 -736 792 0
-627 -678 -737 793 0
-627 -678 -738 794 0
-627 -678 -739 795 0
-627 -678 -740 796 0
-627 -678 -741 797 0
-627 -678 -742 798 0
-627 -678 -743 799 0
-627 -678 -744 800 0
-627 -678 -745 801 0
-627 -678 -746 802 0
-627 -678 -747 803 0
-627 -678 -748 804 0
-627 -678 -749 805 0
-627 -678 -750 806 0
-627 -678 -751 807 0
-627 -678 -752 807 0
-627 -678 -753 807 0
-627 -678 -754 807 0
-627 -678 -755 807 0
-627 -679 -730 787 0
-627 -679 -731 788 0
-627 -679 -732 789 0
-627 -679 -733 790 0
-627 -679 -734 791 0
-627 -679 -735 792 0
-627 -679 -736 793 0
-627 -679 -737 794 0
-627 -679 -738 795 0
-627 -679 -739 796 0
-627 -679 -740 797 0
-627 -679 -741 798 0
-627 -679 -742 799 0
-627 -679 -743 800 0
-627 -679 -744 801 0
-627 -679 -745 802 0
-627 -679 -746 803 0
-627 -679 -747 804 0
-627 -679 -748 805 0
-627 -679 -749 806 0
-627 -679 -750 807 0
-627 -679 -751 807 0
-627 -679 -752 807 0
-627 -679 -753 807 0
-627 -679 -754 807 0
-627 -679 -755 807 0
-627 -680 -730 788 0
-627 -680 -731 789 0
-627 -680 -732 790 0
-627 -680 -733 791 0
-627 -680 -734 792 0
-627 -680 -735 793 0
-627 -680 -736 794 0
-627 -680 -737 795 0
-627 -680 -738 796 0
-627 -680 -739 797 0
-627 -680 -740 798 0
-627 -680 -741 799 0
-627 -680 -742 800 0
-627 -680 -743 801 0
-627 -680 -744 802 0
-627 -680 -745 803 0
-627 -680 -746 804 0
-627 -680 -747 805 0
-627 -680 -748 806 0
-627 -680 -749 807 0
-627 -680 -750 807 0
-627 -680 -751 807 0
-627 -680 -752 807 0
-627 -680 -753 807 0
-627 -680 -754 807 0
-627 -680 -755 807 0
-627 -681 -730 789 0
-627 -681 -731 790 0
-627 -681 -732 791 0
-627 -681 -733 792 0
-627 -681 -734 793 0
-627 -681 -735 794 0
-627 -681 -736 795 0
-627 -681 -737 796 0
-627 -681 -738 797 0
-627 -681 -739 798 0
-627 -681 -740 799 0
-627 -681 -741 800 0
-627 -681 -742 801 0
-627 -681 -743 802 0
-627 -681 -744 803 0
-627 -681 -745 804 0
-627 -681 -746 805 0
-627 -681 -747 806 0
-627 -681 -748 807 0
-627 -681 -749 807 0
-627 -681 -750 807 0
-627 -681 -751 807 0
-627 -681 -752 807 0
-627 -681 -753 807 0
-627 -681 -754 807 0
-627 -681 -755 807 0
-627 -682 -730 790 0
-627 -682 -731 791 0
-627 -682 -732 792 0
-627 -682 -733 793 0
-627 -682 -734 794 0
-627 -682 -735 795 0
-627 -682 -736 796 0
-627 -682 -737 797 0
-627 -682 -738 798 0
-627 -682 -739 799 0
-627 -682 -740 800 0
-627 -682 -741 801 0
-627 -682 -742 802 0
-627 -682 -743 803 0
-627 -682 -744 804 0
-627 -682 -745 805 0
-627 -682 -746 806 0
-627 -682 -747 807 0
-627 -682 -748 807 0
-627 -682 -749 807 0
-627 -682 -750 807 0
-627 -682 -751 807 0
-627 -682 -752 807 0
-627 -682 -753 807 0
-627 -682 -754 807 0
-627 -682 -755 807 0
-627 -683 -730 791 0
-627 -683 -731 792 0
-627 -683 -732 793 0
-627 -683 -733 794 0
-627 -683 -734 795 0
-627 -683 -735 796 0
-627 -683 -736 797 0
-627 -683 -737 798 0
-627 -683 -738 799 0
-627 -683 -739 800 0
-627 -683 -740 801 0
-627 -683 -741 802 0
-627 -683 -742 803 0
-627 -683 -743 804 0
-627 -683 -744 805 0
-627 -683 -745 806 0
-627 -683 -746 807 0
-627 -683 -747 807 0
-627 -683 -748 807 0
-627 -683 -749 807 0
-627 -683 -750 807 0
-627 -683 -751 807 0
-627 -683 -752 807 0
-627 -683 -753 807 0
-627 -683 -754 807 0
-627 -683 -755 807 0
-627 -684 -730 792 0
-627 -684 -731 793 0
-627 -684 -732 794 0
-627 -684 -733 795 0
-627 -684 -734 796 0
-627 -684 -735 797 0
-627 -684 -736 798 0
-627 -684 -737 799 0
-627 -684 -738 800 0
-627 -684 -739 801 0
-627 -684 -740 802 0
-627 -684 -741 803 0
-627 -684 -742 804 0
-627 -684 -743 805 0
-627 -684 -744 806 0
-627 -684 -745 807 0
-627 -684 -746 807 0
-627 -684 -747 807 0
-627 -684 -748 807 0
-627 -684 -749 807 0
-627 -684 -750 807 0
-627 -684 -751 807 0
-627 -684 -752 807 0
-627 -684 -753 807 0
-627 -684 -754 807 0
-627 -684 -755 807 0
-627 -685 -730 793 0
-627 -685 -731 794 0
-627 -685 -732 795 0
-627 -685 -733 796 0
-627 -685 -734 797 0
-627 -685 -735 798 0
-627 -685 -736 799 0
-627 -685 -737 800 0
-627 -685 -738 801 0
-627 -685 -739 802 0
-627 -685 -740 803 0
-627 -685 -741 804 0
-627 -685 -742 805 0
-627 -685 -743 806 0
-627 -685 -744 807 0
-627 -685 -745 807 0
-627 -685 -746 807 0
-627 -685 -747 807 0
-627 -685 -748 807 0
-627 -685 -749 807 0
-627 -685 -750 807 0
-627 -685 -751 807 0
-627 -685 -752 807 0
-627 -685 -753 807 0
-627 -685 -754 807 0
-627 -685 -755 807 0
-627 -686 -730 794 0
-627 -686 -731 795 0
-627 -686 -732 796 0
-627 -686 -733 797 0
-627 -686 -734 798 0
-627 -686 -735 799 0
-627 -686 -736 800 0
-627 -686 -737 801 0
-627 -686 -738 802 0
-627 -686 -739 803 0
-627 -686 -740 804 0
-627 -686 -741 805 0
-627 -686 -742 806 0
-627 -686 -743 807 0
-627 -686 -744 807 0
-627 -686 -745 807 0
-627 -686 -746 807 0
-627 -686 -747 807 0
-627 -686 -748 807 0
-627 -686 -749 807 0
-627 -686 -750 807 0
-627 -686 -751 807 0
-627 -686 -752 807 0
-627 -686 -753 807 0
-627 -686 -754 807 0
-627 -686 -755 807 0
-627 -687 -730 795 0
-627 -687 -731 796 0
-627 -687 -732 797 0
-627 -687 -733 798 0
-627 -687 -734 799 0
-627 -687 -735 800 0
-627 -687 -736 801 0
-627 -687 -737 802 0
-627 -687 -738 803 0
-627 -687 -739 804 0
-627 -687 -740 805 0
-627 -687 -741 806 0
-627 -687 -742 807 0
-627 -687 -743 807 0
-627 -687 -744 807 0
-627 -687 -745 807 0
-627 -687 -746 807 0
-627 -687 -747 807 0
-627 -687 -748 807 0
-627 -687 -749 807 0
-627 -687 -750 807 0
-627 -687 -751 807 0
-627 -687 -752 807 0
-627 -687 -753 807 0
-627 -687 -754 807 0
-627 -687 -755 807 0
-627 -688 -730 796 0
-627 -688 -731 797 0
-627 -688 -732 798 0
-627 -688 -733 799 0
-627 -688 -734 800 0
-627 -688 -735 801 0
-627 -688 -736 802 0
-627 -688 -737 803 0
-627 -688 -738 804 0
-627 -688 -739 805 0
-627 -688 -740 806 0
-627 -688 -741 807 0
-627 -688 -742 807 0
-627 -688 -743 807 0
-627 -688 -744 807 0
-627 -688 -745 807 0
-627 -688 -746 807 0
-627 -688 -747 807 0
-627 -688 -748 807 0
-627 -688 -749 807 0
-627 -688 -750 807 0
-627 -688 -751 807 0
-627 -688 -752 807 0
-627 -688 -753 807 0
-627 -688 -754 807 0
-627 -688 -755 807 0
-627 -689 -730 797 0
-627 -689 -731 798 0
-627 -689 -732 799 0
-627 -689 -733 800 0
-627 -689 -734 801 0
-627 -689 -735 802 0
-627 -689 -736 803 0
-627 -689 -737 804 0
-627 -689 -738 805 0
-627 -689 -739 806 0
-627 -689 -740 807 0
-627 -689 -741 807 0
-627 -689 -742 807 0
-627 -689 -743 807 0
-627 -689 -744 807 0
-627 -689 -745 807 0
-627 -689 -746 807 0
-627 -689 -747 807 0
-627 -689 -748 807 0
-627 -689 -749 807 0
-627 -689 -750 807 0
-627 -689 -751 807 0
-627 -689 -752 807 0
-627 -689 -753 807 0
-627 -689 -754 807 0
-627 -689 -755 807 0
-627 -690 -730 798 0
-627 -690 -731 799 0
-627 -690 -732 800 0
-627 -690 -733 801 0
-627 -690 -734 802 0
-627 -690 -735 803 0
-627 -690 -736 804 0
-627 -690 -737 805 0
-627 -690 -738 806 0
-627 -690 -739 807 0
-627 -690 -740 807 0
-627 -690 -741 807 0
-627 -690 -742 807 0
-627 -690 -743 807 0
-627 -690 -744 807 0
-627 -690 -745 807 0
-627 -690 -746 807 0
-627 -690 -747 807 0
-627 -690 -748 807 0
-627 -690 -749 807 0
-627 -690 -750 807 0
-627 -690 -751 807 0
-627 -690 -752 807 0
-627 -690 -753 807 0
-627 -690 -754 807 0
-627 -690 -755 807 0
-627 -691 -730 799 0
-627 -691 -731 800 0
-627 -691 -732 801 0
-627 -691 -733 802 0
-627 -691 -734 803 0
-627 -691 -735 804 0
-627 -691 -736 805 0
-627 -691 -737 806 0
-627 -691 -738 807 0
-627 -691 -739 807 0
-627 -691 -740 807 0
-627 -691 -741 807 0
-627 -691 -742 807 0
-627 -691 -743 807 0
-627 -691 -744 807 0
-627 -691 -745 807 0
-627 -691 -746 807 0
-627 -691 -747 807 0
-627 -691 -748 807 0
-627 -691 -749 807 0
-627 -691 -750 807 0
-627 -691 -751 807 0
-627 -691 -752 807 0
-627 -691 -753 807 0
-627 -691 -754 807 0
-627 -691 -755 807 0
-627 -692 -730 800 0
-627 -692 -731 801 0
-627 -692 -732 802 0
-627 -692 -733 803 0
-627 -692 -734 804 0
-627 -692 -735 805 0
-627 -692 -736 806 0
-627 -692 -737 807 0
-627 -692 -738 807 0
-627 -692 -739 807 0
-627 -692 -740 807 0
-627 -692 -741 807 0
-627 -692 -742 807 0
-627 -692 -743 807 0
-627 -692 -744 807 0
-627 -692 -745 807 0
-627 -692 -746 807 0
-627 -692 -747 807 0
-627 -692 -748 807 0
-627 -692 -749 807 0
-627 -692 -750 807 0
-627 -692 -751 807 0
-627 -692 -752 807 0
-627 -692 -753 807 0
-627 -692 -754 807 0
-627 -692 -755 807 0
-627 -693 -730 801 0
-627 -693 -731 802 0
-627 -693 -732 803 0
-627 -693 -733 804 0
-627 -693 -734 805 0
-627 -693 -735 806 0
-627 -693 -736 807 0
-627 -693 -737 807 0
-627 -693 -738 807 0
-627 -693 -739 807 0
-627 -693 -740 807 0
-627 -693 -741 807 0
-627 -693 -742 807 0
-627 -693 -743 807 0
-627 -693 -744 807 0
-627 -693 -745 807 0
-627 -693 -746 807 0
-627 -693 -747 807 0
-627 -693 -748 807 0
-627 -693 -749 807 0
-627 -693 -750 807 0
-627 -693 -751 807 0
-627 -693 -752 807 0
-627 -693 -753 807 0
-627 -693 -754 807 0
-627 -693 -755 807 0
-627 -694 -730 802 0
-627 -694 -731 803 0
-627 -694 -732 804 0
-627 -694 -733 805 0
-627 -694 -734 806 0
-627 -694 -735 807 0
-627 -694 -736 807 0
-627 -694 -737 807 0
-627 -694 -738 807 0
-627 -694 -739 807 0
-627 -694 -740 807 0
-627 -694 -741 807 0
-627 -694 -742 807 0
-627 -694 -743 807 0
-627 -694 -744 807 0
-627 -694 -745 807 0
-627 -694 -746 807 0
-627 -694 -747 807 0
-627 -694 -748 807 0
-627 -694 -749 807 0
-627 -694 -750 807 0
-627 -694 -751 807 0
-627 -694 -752 807 0
-627 -694 -753 807 0
-627 -694 -754 807 0
-627 -694 -755 807 0
-627 -695 -730 803 0
-627 -695 -731 804 0
-627 -695 -732 805 0
-627 -695 -733 806 0
-627 -695 -734 807 0
-627 -695 -735 807 0
-627 -695 -736 807 0
-627 -695 -737 807 0
-627 -695 -738 807 0
-627 -695 -739 807 0
-627 -695 -740 807 0
-627 -695 -741 807 0
-627 -695 -742 807 0
-627 -695 -743 807 0
-627 -695 -744 807 0
-627 -695 -745 807 0
-627 -695 -746 807 0
-627 -695 -747 807 0
-627 -695 -748 807 0
-627 -695 -749 807 0
-627 -695 -750 807 0
-627 -695 -751 807 0
-627 -695 -752 807 0
-627 -695 -753 807 0
-627 -695 -754 807 0
-627 -695 -755 807 0
-627 -696 -730 804 0
-627 -696 -731 805 0
-627 -696 -732 806 0
-627 -696 -733 807 0
-627 -696 -734 807 0
-627 -696 -735 807 0
-627 -696 -736 807 0
-627 -696 -737 807 0
-627 -696 -738 807 0
-627 -696 -739 807 0
-627 -696 -740 807 0
-627 -696 -741 807 0
-627 -696 -742 807 0
-627 -696 -743 807 0
-627 -696 -744 807 0
-627 -696 -745 807 0
-627 -696 -746 807 0
-627 -696 -747 807 0
-627 -696 -748 807 0
-627 -696 -749 807 0
-627 -696 -750 807 0
-627 -696 -751 807 0
-627 -696 -752 807 0
-627 -696 -753 807 0
-627 -696 -754 807 0
-627 -696 -755 807 0
-627 -697 -730 805 0
-627 -697 -731 806 0
-627 -697 -732 807 0
-627 -697 -733 807 0
-627 -697 -734 807 0
-627 -697 -735 807 0
-627 -697 -736 807 0
-627 -697 -737 807 0
-627 -697 -738 807 0
-627 -697 -739 807 0
-627 -697 -740 807 0
-627 -697 -741 807 0
-627 -697 -742 807 0
-627 -697 -743 807 0
-627 -697 -744 807 0
-627 -697 -745 807 0
-627 -697 -746 807 0
-627 -697 -747 807 0
-627 -697 -748 807 0
-627 -697 -749 807 0
-627 -697 -750 807 0
-627 -697 -751 807 0
-627 -697 -752 807 0
-627 -697 -753 807 0
-627 -697 -754 807 0
-627 -697 -755 807 0
-627 -698 -730 806 0
-627 -698 -731 807 0
-627 -698 -732 807 0
-627 -698 -733 807 0
-627 -698 -734 807 0
-627 -698 -735 807 0
-627 -698 -736 807 0
-627 -698 -737 807 0
-627 -698 -738 807 0
-627 -698 -739 807 0
-627 -698 -740 807 0
-627 -698 -741 807 0
-627 -698 -742 807 0
-627 -698 -743 807 0
-627 -698 -744 807 0
-627 -698 -745 807 0
-627 -698 -746 807 0
-627 -698 -747 807 0
-627 -698 -748 807 0
-627 -698 -749 807 0
-627 -698 -750 807 0
-627 -698 -751 807 0
-627 -698 -752 807 0
-627 -698 -753 807 0
-627 -698 -754 807 0
-627 -698 -755 807 0
-627 -699 -730 807 0
-627 -699 -731 807 0
-627 -699 -732 807 0
-627 -699 -733 807 0
-627 -699 -734 807 0
-627 -699 -735 807 0
-627 -699 -736 807 0
-627 -699 -737 807 0
-627 -699 -738 807 0
-627 -699 -739 807 0
-627 -699 -740 807 0
-627 -699 -741 807 0
-627 -699 -742 807 0
-627 -699 -743 807 0
-627 -699 -744 807 0
-627 -699 -745 807 0
-627 -699 -746 807 0
-627 -699 -747 807 0
-627 -699 -748 807 0
-627 -699 -749 807 0
-627 -699 -750 807 0
-627 -699 -751 807 0
-627 -699 -752 807 0
-627 -699 -753 807 0
-627 -699 -754 807 0
-627 -699 -755 807 0
-627 -700 -730 807 0
-627 -700 -731 807 0
-627 -700 -732 807 0
-627 -700 -733 807 0
-627 -700 -734 807 0
-627 -700 -735 807 0
-627 -700 -736 807 0
-627 -700 -737 807 0
-627 -700 -738 807 0
-627 -700 -739 807 0
-627 -700 -740 807 0
-627 -700 -741 807 0
-627 -700 -742 807 0
-627 -700 -743 807 0
-627 -700 -744 807 0
-627 -700 -745 807 0
-627 -700 -746 807 0
-627 -700 -747 807 0
-627 -700 -748 807 0
-627 -700 -749 807 0
-627 -700 -750 807 0
-627 -700 -751 807 0
-627 -700 -752 807 0
-627 -700 -753 807 0
-627 -700 -754 807 0
-627 -700 -755 807 0
-627 -701 -730 807 0
-627 -701 -731 807 0
-627 -701 -732 807 0
-627 -701 -733 807 0
-627 -701 -734 807 0
-627 -701 -735 807 0
-627 -701 -736 807 0
-627 -701 -737 807 0
-627 -701 -738 807 0
-627 -701 -739 807 0
-627 -701 -740 807 0
-627 -701 -741 807 0
-627 -701 -742 807 0
-627 -701 -743 807 0
-627 -701 -744 807 0
-627 -701 -745 807 0
-627 -701 -746 807 0
-627 -701 -747 807 0
-627 -701 -748 807 0
-627 -701 -749 807 0
-627 -701 -750 807 0
-627 -701 -751 807 0
-627 -701 -752 807 0
-627 -701 -753 807 0
-627 -701 -754 807 0
-627 -701 -755 807 0
-627 -702 -730 807 0
-627 -702 -731 807 0
-627 -702 -732 807 0
-627 -702 -733 807 0
-627 -702 -734 807 0
-627 -702 -735 807 0
-627 -702 -736 807 0
-627 -702 -737 807 0
-627 -702 -738 807 0
-627 -702 -739 807 0
-627 -702 -740 807 0
-627 -702 -741 807 0
-627 -702 -742 807 0
-627 -702 -743 807 0
-627 -702 -744 807 0
-627 -702 -745 807 0
-627 -702 -746 807 0
-627 -702 -747 807 0
-627 -702 -748 807 0
-627 -702 -749 807 0
-627 -702 -750 807 0
-627 -702 -751 807 0
-627 -702 -752 807 0
-627 -702 -753 807 0
-627 -702 -754 807 0
-627 -702 -755 807 0
-627 -703 -730 807 0
-627 -703 -731 807 0
-627 -703 -732 807 0
-627 -703 -733 807 0
-627 -703 -734 807 0
-627 -703 -735 807 0
-627 -703 -736 807 0
-627 -703 -737 807 0
-627 -703 -738 807 0
-627 -703 -739 807 0
-627 -703 -740 807 0
-627 -703 -741 807 0
-627 -703 -742 807 0
-627 -703 -743 807 0
-627 -703 -744 807 0
-627 -703 -745 807 0
-627 -703 -746 807 0
-627 -703 -747 807 0
-627 -703 -748 807 0
-627 -703 -749 807 0
-627 -703 -750 807 0
-627 -703 -751 807 0
-627 -703 -752 807 0
-627 -703 -753 807 0
-627 -703 -754 807 0
-627 -703 -755 807 0
-628 -678 -730 787 0
-628 -678 -731 788 0
-628 -678 -732 789 0
-628 -678 -733 790 0
-628 -678 -734 791 0
-628 -678 -735 792 0
-628 -678 -736 793 0
-628 -678 -737 794 0
-628 -678 -738 795 0
-628 -678 -739 796 0
-628 -678 -740 797 0
-628 -678 -741 798 0
-628 -678 -742 799 0
-628 -678 -743 800 0
-628 -678 -744 801 0
-628 -678 -745 802 0
-628 -678 -746 803 0
-628 -678 -747 804 0
-628 -678 -748 805 0
-628 -678 -749 806 0
-628 -678 -750 807 0
-628 -678 -751 807 0
-628 -678 -752 807 0
-628 -678 -753 807 0
-628 -678 -754 807 0
-628 -678 -755 807 0
-628 -679 -730 788 0
-628 -679 -731 789 0
-628 -679 -732 790 0
-628 -679 -733 791 0
-628 -679 -734 792 0
-628 -679 -735 793 0
-628 -679 -736 794 0
-628 -679 -737 795 0
-628 -679 -738 796 0
-628 -679 -739 797 0
-628 -679 -740 798 0
-628 -679 -741 799 0
-628 -679 -742 800 0
-628 -679 -743 801 0
-628 -679 -744 802 0
-628 -679 -745 803 0
-628 -679 -746 804 0
-628 -679 -747 805 0
-628 -679 -748 806 0
-628 -679 -749 807 0
-628 -679 -750 807 0
-628 -679 -751 807 0
-628 -679 -752 807 0
-628 -679 -753 807 0
-628 -679 -754 807 0
-628 -679 -755 807 0
-628 -680 -730 789 0
-628 -680 -731 790 0
-628 -680 -732 791 0
-628 -680 -733 792 0
-628 -680 -734 793 0
-628 -680 -735 794 0
-628 -680 -736 795 0
-628 -680 -737 796 0
-628 -680 -738 797 0
-628 -680 -739 798 0
-628 -680 -740 799 0
-628 -680 -741 800 0
-628 -680 -742 801 0
-628 -680 -743 802 0
-628 -680 -744 803 0
-628 -680 -745 804 0
-628 -680 -746 805 0
-628 -680 -747 806 0
-628 -680 -748 807 0
-628 -680 -749 807 0
-628 -680 -750 807 0
-628 -680 -751 807 0
-628 -680 -752 807 0
-628 -680 -753 807 0
-628 -680 -754 807 0
-628 -680 -755 807 0
-628 -681 -730 790 0
-628 -681 -731 791 0
-628 -681 -732 792 0
-628 -681 -733 793 0
-628 -681 -734 794 0
-628 -681 -735 795 0
-628 -681 -736 796 0
-628 -681 -737 797 0
-628 -681 -738 798 0
-628 -681 -739 799 0
-628 -681 -740 800 0
-628 -681 -741 801 0
-628 -681 -742 802 0
-628 -681 -743 803 0
-628 -681 -744 804 0
-628 -681 -745 805 0
-628 -681 -746 806 0
-628 -681 -747 807 0
-628 -681 -748 807 0
-628 -681 -749 807 0
-628 -681 -750 807 0
-628 -681 -751 807 0
-628 -681 -752 807 0
-628 -681 -753 807 0
-628 -681 -754 807 0
-628 -681 -755 807 0
-628 -682 -730 791 0
-628 -682 -731 792 0
-628 -682 -732 793 0
-628 -682 -733 794 0
-628 -682 -734 795 0
-628 -682 -735 796 0
-628 -682 -736 797 0
-628 -682 -737 798 0
-628 -682 -738 799 0
-628 -682 -739 800 0
-628 -682 -740 801 0
-628 -682 -741 802 0
-628 -682 -742 803 0
-628 -682 -743 804 0
-628 -682 -744 805 0
-628 -682 -745 806 0
-628 -682 -746 807 0
-628 -682 -747 807 0
-628 -682 -748 807 0
-628 -682 -749 807 0
-628 -682 -750 807 0
-628 -682 -751 807 0
-628 -682 -752 807 0
-628 -682 -753 807 0
-628 -682 -754 807 0
-628 -682 -755 807 0
-628 -683 -730 792 0
-628 -683 -731 793 0
-628 -683 -732 794 0
-628 -683 -733 795 0
-628 -683 -734 796 0
-628 -683 -735 797 0
-628 -683 -736 798 0
-628 -683 -737 799 0
-628 -683 -738 800 0
-628 -683 -739 801 0
-628 -683 -740 802 0
-628 -683 -741 803 0
-628 -683 -742 804 0
-628 -683 -743 805 0
-628 -683 -744 806 0
-628 -683 -745 807 0
-628 -683 -746 807 0
-628 -683 -747 807 0
-628 -683 -748 807 0
-628 -683 -749 807 0
-628 -683 -750 807 0
-628 -683 -751 807 0
-628 -683 -752 807 0
-628 -683 -753 807 0
-628 -683 -754 807 0
-628 -683 -755 807 0
-628 -684 -730 793 0
-628 -684 -731 794 0
-628 -684 -732 795 0
-628 -684 -733 796 0
-628 -684 -734 797 0
-628 -684 -735 798 0
-628 -684 -736 799 0
-628 -684 -737 800 0
-628 -684 -738 801 0
-628 -684 -739 802 0
-628 -684 -740 803 0
-628 -684 -741 804 0
-628 -684 -742 805 0
-628 -684 -743 806 0
-628 -684 -744 807 0
-628 -684 -745 807 0
-628 -684 -746 807 0
-628 -684 -747 807 0
-628 -684 -748 807 0
-628 -684 -749 807 0
-628 -684 -750 807 0
-628 -684 -751 807 0
-628 -684 -752 807 0
-628 -684 -753 807 0
-628 -684 -754 807 0
-628 -684 -755 807 0
-628 -685 -730 794 0
-628 -685 -731 795 0
-628 -685 -732 796 0
-628 -685 -733 797 0
-628 -685 -734 798 0
-628 -685 -735 799 0
-628 -685 -736 800 0
-628 -685 -737 801 0
-628 -685 -738 802 0
-628 -685 -739 803 0
-628 -685 -740 804 0
-628 -685 -741 805 0
-628 -685 -742 806 0
-628 -685 -743 807 0
-628 -685 -744 807 0
-628 -685 -745 807 0
-628 -685 -746 807 0
-628 -685 -747 807 0
-628 -685 -748 807 0
-628 -685 -749 807 0
-628 -685 -750 807 0
-628 -685 -751 807 0
-628 -685 -752 807 0
-628 -685 -753 807 0
-628 -685 -754 807 0
-628 -685 -755 807 0
-628 -686 -730 795 0
-628 -686 -731 796 0
-628 -686 -732 797 0
-628 -686 -733 798 0
-628 -686 -734 799 0
-628 -686 -735 800 0
-628 -686 -736 801 0
-628 -686 -737 802 0
-628 -686 -738 803 0
-628 -686 -739 804 0
-628 -686 -740 805 0
-628 -686 -741 806 0
-628 -686 -742 807 0
-628 -686 -743 807 0
-628 -686 -744 807 0
-628 -686 -745 807 0
-628 -686 -746 807 0
-628 -686 -747 807 0
-628 -686 -748 807 0
-628 -686 -749 807 0
-628 -686 -750 807 0
-628 -686 -751 807 0
-628 -686 -752 807 0
-628 -686 -753 807 0
-628 -686 -754 807 0
-628 -686 -755 807 0
-628 -687 -730 796 0
-628 -687 -731 797 0
-628 -687 -732 798 0
-628 -687 -733 799 0
-628 -687 -734 800 0
-628 -687 -735 801 0
-628 -687 -736 802 0
-628 -687 -737 803 0
-628 -687 -738 804 0
-628 -687 -739 805 0
-628 -687 -740 806 0
-628 -687 -741 807 0
-628 -687 -742 807 0
-628 -687 -743 807 0
-628 -687 -744 807 0
-628 -687 -745 807 0
-628 -687 -746 807 0
-628 -687 -747 807 0
-628 -687 -748 807 0
-628 -687 -749 807 0
-628 -687 -750 807 0
-628 -687 -751 807 0
-628 -687 -752 807 0
-628 -687 -753 807 0
-628 -687 -754 807 0
-628 -687 -755 807 0
-628 -688 -730 797 0
-628 -688 -731 798 0
-628 -688 -732 799 0
-628 -688 -733 800 0
-628 -688 -734 801 0
-628 -688 -735 802 0
-628 -688 -736 803 0
-628 -688 -737 804 0
-628 -688 -738 805 0
-628 -688 -739 806 0
-628 -688 -740 807 0
-628 -688 -741 807 0
-628 -688 -742 807 0
-628 -688 -743 807 0
-628 -688 -744 807 0
-628 -688 -745 807 0
-628 -688 -746 807 0
-628 -688 -747 807 0
-628 -688 -748 807 0
-628 -688 -749 807 0
-628 -688 -750 807 0
-628 -688 -751 807 0
-628 -688 -752 807 0
-628 -688 -753 807 0
-628 -688 -754 807 0
-628 -688 -755 807 0
-628 -689 -730 798 0
-628 -689 -731 799 0
-628 -689 -732 800 0
-628 -689 -733 801 0
-628 -689 -734 802 0
-628 -689 -735 803 0
-628 -689 -736 804 0
-628 -689 -737 805 0
-628 -689 -738 806 0
-628 -689 -739 807 0
-628 -689 -740 807 0
-628 -689 -741 807 0
-628 -689 -742 807 0
-628 -689 -743 807 0
-628 -689 -744 807 0
-628 -689 -745 807 0
-628 -689 -746 807 0
-628 -689 -747 807 0
-628 -689 -748 807 0
-628 -689 -749 807 0
-628 -689 -750 807 0
-628 -689 -751 807 0
-628 -689 -752 807 0
-628 -689 -753 807 0
-628 -689 -754 807 0
-628 -689 -755 807 0
-628 -690 -730 799 0
-628 -690 -731 800 0
-628 -690 -732 801 0
-628 -690 -733 802 0
-628 -690 -734 803 0
-628 -690 -735 804 0
-628 -690 -736 805 0
-628 -690 -737 806 0
-628 -690 -738 807 0
-628 -690 -739 807 0
-628 -690 -740 807 0
-628 -690 -741 807 0
-628 -690 -742 807 0
-628 -690 -743 807 0
-628 -690 -744 807 0
-628 -690 -745 807 0
-628 -690 -746 807 0
-628 -690 -747 807 0
-628 -690 -748 807 0
-628 -690 -749 807 0
-628 -690 -750 807 0
-628 -690 -751 807 0
-628 -690 -752 807 0
-628 -690 -753 807 0
-628 -690 -754 807 0
-628 -690 -755 807 0
-628 -691 -730 800 0
-628 -691 -731 801 0
-628 -691 -732 802 0
-628 -691 -733 803 0
-628 -691 -734 804 0
-628 -691 -735 805 0
-628 -691 -736 806 0
-628 -691 -737 807 0
-628 -691 -738 807 0
-628 -691 -739 807 0
-628 -691 -740 807 0
-628 -691 -741 807 0
-628 -691 -742 807 0
-628 -691 -743 807 0
-628 -691 -744 807 0
-628 -691 -745 807 0
-628 -691 -746 807 0
-628 -691 -747 807 0
-628 -691 -748 807 0
-628 -691 -749 807 0
-628 -691 -750 807 0
-628 -691 -751 807 0
-628 -691 -752 807 0
-628 -691 -753 807 0
-628 -691 -754 807 0
-628 -691 -755 807 0
-628 -692 -730 801 0
-628 -692 -731 802 0
-628 -692 -732 803 0
-628 -692 -733 804 0
-628 -692 -734 805 0
-628 -692 -735 806 0
-628 -692 -736 807 0
-628 -692 -737 807 0
-628 -692 -738 807 0
-628 -692 -739 807 0
-628 -692 -740 807 0
-628 -692 -741 807 0
-628 -692 -742 807 0
-628 -692 -743 807 0
-628 -692 -744 807 0
-628 -692 -745 807 0
-628 -692 -746 807 0
-628 -692 -747 807 0
-628 -692 -748 807 0
-628 -692 -749 807 0
-628 -692 -750 807 0
-628 -692 -751 807 0
-628 -692 -752 807 0
-628 -692 -753 807 0
-628 -692 -754 807 0
-628 -692 -755 807 0
-628 -693 -730 802 0
-628 -693 -731 803 0
-628 -693 -732 804 0
-628 -693 -733 805 0
-628 -693 -734 806 0
-628 -693 -735 807 0
-628 -693 -736 807 0
-628 -693 -737 807 0
-628 -693 -738 807 0
-628 -693 -739 807 0
-628 -693 -740 807 0
-628 -693 -741 807 0
-628 -693 -742 807 0
-628 -693 -743 807 0
-628 -693 -744 807 0
-628 -693 -745 807 0
-628 -693 -746 807 0
-628 -693 -747 807 0
-628 -693 -748 807 0
-628 -693 -749 807 0
-628 -693 -750 807 0
-628 -693 -751 807 0
-628 -693 -752 807 0
-628 -693 -753 807 0
-628 -693 -754 807 0
-628 -693 -755 807 0
-628 -694 -730 803 0
-628 -694 -731 804 0
-628 -694 -732 805 0
-628 -694 -733 806 0
-628 -694 -734 807 0
-628 -694 -735 807 0
-628 -694 -736 807 0
-628 -694 -737 807 0
-628 -694 -738 807 0
-628 -694 -739 807 0
-628 -694 -740 807 0
-628 -694 -741 807 0
-628 -694 -742 807 0
-628 -694 -743 807 0
-628 -694 -744 807 0
-628 -694 -745 807 0
-628 -694 -746 807 0
-628 -694 -747 807 0
-628 -694 -748 807 0
-628 -694 -749 807 0
-628 -694 -750 807 0
-628 -694 -751 807 0
-628 -694 -752 807 0
-628 -694 -753 807 0
-628 -694 -754 807 0
-628 -694 -755 807 0
-628 -695 -730 804 0
-628 -695 -731 805 0
-628 -695 -732 806 0
-628 -695 -733 807 0
-628 -695 -734 807 0
-628 -695 -735 807 0
-628 -695 -736 807 0
-628 -695 -737 807 0
-628 -695 -738 807 0
-628 -695 -739 807 0
-628 -695 -740 807 0
-628 -695 -741 807 0
-628 -695 -742 807 0
-628 -695 -743 807 0
-628 -695 -744 807 0
-628 -695 -745 807 0
-628 -695 -746 807 0
-628 -695 -747 807 0
-628 -695 -748 807 0
-628 -695 -749 807 0
-628 -695 -750 807 0
-628 -695 -751 807 0
-628 -695 -752 807 0
-628 -695 -753 807 0
-628 -695 -754 807 0
-628 -695 -755 807 0
-628 -696 -730 805 0
-628 -696 -731 806 0
-628 -696 -732 807 0
-628 -696 -733 807 0
-628 -696 -734 807 0
-628 -696 -735 807 0
-628 -696 -736 807 0
-628 -696 -737 807 0
-628 -696 -738 807 0
-628 -696 -739 807 0
-628 -696 -740 807 0
-628 -696 -741 807 0
-628 -696 -742 807 0
-628 -696 -743 807 0
-628 -696 -744 807 0
-628 -696 -745 807 0
-628 -696 -746 807 0
-628 -696 -747 807 0
-628 -696 -748 807 0
-628 -696 -749 807 0
-628 -696 -750 807 0
-628 -696 -751 807 0
-628 -696 -752 807 0
-628 -696 -753 807 0
-628 -696 -754 807 0
-628 -696 -755 807 0
-628 -697 -730 806 0
-628 -697 -731 807 0
-628 -697 -732 807 0
-628 -697 -733 807 0
-628 -697 -734 807 0
-628 -697 -735 807 0
-628 -697 -736 807 0
-628 -697 -737 807 0
-628 -697 -738 807 0
-628 -697 -739 807 0
-628 -697 -740 807 0
-628 -697 -741 807 0
-628 -697 -742 807 0
-628 -697 -743 807 0
-628 -697 -744 807 0
-628 -697 -745 807 0
-628 -697 -746 807 0
-628 -697 -747 807 0
-628 -697 -748 807 0
-628 -697 -749 807 0
-628 -697 -750 807 0
-628 -697 -751 807 0
-628 -697 -752 807 0
-628 -697 -753 807 0
-628 -697 -754 807 0
-628 -697 -755 807 0
-628 -698 -730 807 0
-628 -698 -731 807 0
-628 -698 -732 807 0
-628 -698 -733 807 0
-628 -698 -734 807 0
-628 -698 -735 807 0
-628 -698 -736 807 0
-628 -698 -737 807 0
-628 -698 -738 807 0
-628 -698 -739 807 0
-628 -698 -740 807 0
-628 -698 -741 807 0
-628 -698 -742 807 0
-628 -698 -743 807 0
-628 -698 -744 807 0
-628 -698 -745 807 0
-628 -698 -746 807 0
-628 -698 -747 807 0
-628 -698 -748 807 0
-628 -698 -749 807 0
-628 -698 -750 807 0
-628 -698 -751 807 0
-628 -698 -752 807 0
-628 -698 -753 807 0
-628 -698 -754 807 0
-628 -698 -755 807 0
-628 -699 -730 807 0
-628 -699 -731 807 0
-628 -699 -732 807 0
-628 -699 -733 807 0
-628 -699 -734 807 0
-628 -699 -735 807 0
-628 -699 -736 807 0
-628 -699 -737 807 0
-628 -699 -738 807 0
-628 -699 -739 807 0
-628 -699 -740 807 0
-628 -699 -741 807 0
-628 -699 -742 807 0
-628 -699 -743 807 0
-628 -699 -744 807 0
-628 -699 -745 807 0
-628 -699 -746 807 0
-628 -699 -747 807 0
-628 -699 -748 807 0
-628 -699 -749 807 0
-628 -699 -750 807 0
-628 -699 -751 807 0
-628 -699 -752 807 0
-628 -699 -753 807 0
-628 -699 -754 807 0
-628 -699 -755 807 0
-628 -700 -730 807 0
-628 -700 -731 807 0
-628 -700 -732 807 0
-628 -700 -733 807 0
-628 -700 -734 807 0
-628 -700 -735 807 0
-628 -700 -736 807 0
-628 -700 -737 807 0
-628 -700 -738 807 0
-628 -700 -739 807 0
-628 -700 -740 807 0
-628 -700 -741 807 0
-628 -700 -742 807 0
-628 -700 -743 807 0
-628 -700 -744 807 0
-628 -700 -745 807 0
-628 -700 -746 807 0
-628 -700 -747 807 0
-628 -700 -748 807 0
-628 -700 -749 807 0
-628 -700 -750 807 0
-628 -700 -751 807 0
-628 -700 -752 807 0
-628 -700 -753 807 0
-628 -700 -754 807 0
-628 -700 -755 807 0
-628 -701 -730 807 0
-628 -701 -731 807 0
-628 -701 -732 807 0
-628 -701 -733 807 0
-628 -701 -734 807 0
-628 -701 -735 807 0
-628 -701 -736 807 0
-628 -701 -737 807 0
-628 -701 -738 807 0
-628 -701 -739 807 0
-628 -701 -740 807 0
-628 -701 -741 807 0
-628 -701 -742 807 0
-628 -701 -743 807 0
-628 -701 -744 807 0
-628 -701 -745 807 0
-628 -701 -746 807 0
-628 -701 -747 807 0
-628 -701 -748 807 0
-628 -701 -749 807 0
-628 -701 -750 807 0
-628 -701 -751 807 0
-628 -701 -752 807 0
-628 -701 -753 807 0
-628 -701 -754 807 0
-628 -701 -755 807 0
-628 -702 -730 807 0
-628 -702 -731 807 0
-628 -702 -732 807 0
-628 -702 -733 807 0
-628 -702 -734 807 0
-628 -702 -735 807 0
-628 -702 -736 807 0
-628 -702 -737 807 0
-628 -702 -738 807 0
-628 -702 -739 807 0
-628 -702 -740 807 0
-628 -702 -741 807 0
-628 -702 -742 807 0
-628 -702 -743 807 0
-628 -702 -744 807 0
-628 -702 -745 807 0
-628 -702 -746 807 0
-628 -702 -747 807 0
-628 -702 -748 807 0
-628 -702 -749 807 0
-628 -702 -750 807 0
-628 -702 -751 807 0
-628 -702 -752 807 0
-628 -702 -753 807 0
-628 -702 -754 807 0
-628 -702 -755 807 0
-628 -703 -730 807 0
-628 -703 -731 807 0
-628 -703 -732 807 0
-628 -703 -733 807 0
-628 -703 -734 807 0
-628 -703 -735 807 0
-628 -703 -736 807 0
-628 -703 -737 807 0
-628 -703 -738 807 0
-628 -703 -739 807 0
-628 -703 -740 807 0
-628 -703 -741 807 0
-628 -703 -742 807 0
-628 -703 -743 807 0
-628 -703 -744 807 0
-628 -703 -745 807 0
-628 -703 -746 807 0
-628 -703 -747 807 0
-628 -703 -748 807 0
-628 -703 -749 807 0
-628 -703 -750 807 0
-628 -703 -751 807 0
-628 -703 -752 807 0
-628 -703 -753 807 0
-628 -703 -754 807 0
-628 -703 -755 807 0
-629 -678 -730 788 0
-629 -678 -731 789 0
-629 -678 -732 790 0
-629 -678 -733 791 0
-629 -678 -734 792 0
-629 -678 -735 793 0
-629 -678 -736 794 0
-629 -678 -737 795 0
-629 -678 -738 796 0
-629 -678 -739 797 0
-629 -678 -740 798 0
-629 -678 -741 799 0
-629 -678 -742 800 0
-629 -678 -743 801 0
-629 -678 -744 802 0
-629 -678 -745 803 0
-629 -678 -746 804 0
-629 -678 -747 805 0
-629 -678 -748 806 0
-629 -678 -749 807 0
-629 -678 -750 807 0
-629 -678 -751 807 0
-629 -678 -752 807 0
-629 -678 -753 807 0
-629 -678 -754 807 0
-629 -678 -755 807 0
-629 -679 -730 789 0
-629 -679 -731 790 0
-629 -679 -732 791 0
-629 -679 -733 792 0
-629 -679 -734 793 0
-629 -679 -735 794 0
-629 -679 -736 795 0
-629 -679 -737 796 0
-629 -679 -738 797 0
-629 -679 -739 798 0
-629 -679 -740 799 0
-629 -679 -741 800 0
-629 -679 -742 801 0
-629 -679 -743 802 0
-629 -679 -744 803 0
-629 -679 -745 804 0
-629 -679 -746 805 0
-629 -679 -747 806 0
-629 -679 -748 807 0
-629 -679 -749 807 0
-629 -679 -750 807 0
-629 -679 -751 807 0
-629 -679 -752 807 0
-629 -679 -753 807 0
-629 -679 -754 807 0
-629 -679 -755 807 0
-629 -680 -730 790 0
-629 -680 -731 791 0
-629 -680 -732 792 0
-629 -680 -733 793 0
-629 -680 -734 794 0
-629 -680 -735 795 0
-629 -680 -736 796 0
-629 -680 -737 797 0
-629 -680 -738 798 0
-629 -680 -739 799 0
-629 -680 -740 800 0
-629 -680 -741 801 0
-629 -680 -742 802 0
-629 -680 -743 803 0
-629 -680 -744 804 0
-629 -680 -745 805 0
-629 -680 -746 806 0
-629 -680 -747 807 0
-629 -680 -748 807 0
-629 -680 -749 807 0
-629 -680 -750 807 0
-629 -680 -751 807 0
-629 -680 -752 807 0
-629 -680 -753 807 0
-629 -680 -754 807 0
-629 -680 -755 807 0
-629 -681 -730 791 0
-629 -681 -731 792 0
-629 -681 -732 793 0
-629 -681 -733 794 0
-629 -681 -734 795 0
-629 -681 -735 796 0
-629 -681 -736 797 0
-629 -681 -737 798 0
-629 -681 -738 799 0
-629 -681 -739 800 0
-629 -681 -740 801 0
-629 -681 -741 802 0
-629 -681 -742 803 0
-629 -681 -743 804 0
-629 -681 -744 805 0
-629 -681 -745 806 0
-629 -681 -746 807 0
-629 -681 -747 807 0
-629 -681 -748 807 0
-629 -681 -749 807 0
-629 -681 -750 807 0
-629 -681 -751 807 0
-629 -681 -752 807 0
-629 -681 -753 807 0
-629 -681 -754 807 0
-629 -681 -755 807 0
-629 -682 -730 792 0
-629 -682 -731 793 0
-629 -682 -732 794 0
-629 -682 -733 795 0
-629 -682 -734 796 0
-629 -682 -735 797 0
-629 -682 -736 798 0
-629 -682 -737 799 0
-629 -682 -738 800 0
-629 -682 -739 801 0
-629 -682 -740 802 0
-629 -682 -741 803 0
-629 -682 -742 804 0
-629 -682 -743 805 0
-629 -682 -744 806 0
-629 -682 -745 807 0
-629 -682 -746 807 0
-629 -682 -747 807 0
-629 -682 -748 807 0
-629 -682 -749 807 0
-629 -682 -750 807 0
-629 -682 -751 807 0
-629 -682 -752 807 0
-629 -682 -753 807 0
-629 -682 -754 807 0
-629 -682 -755 807 0
-629 -683 -730 793 0
-629 -683 -731 794 0
-629 -683 -732 795 0
-629 -683 -733 796 0
-629 -683 -734 797 0
-629 -683 -735 798 0
-629 -683 -736 799 0
-629 -683 -737 800 0
-629 -683 -738 801 0
-629 -683 -739 802 0
-629 -683 -740 803 0
-629 -683 -741 804 0
-629 -683 -742 805 0
-629 -683 -743 806 0
-629 -683 -744 807 0
-629 -683 -745 807 0
-629 -683 -746 807 0
-629 -683 -747 807 0
-629 -683 -748 807 0
-629 -683 -749 807 0
-629 -683 -750 807 0
-629 -683 -751 807 0
-629 -683 -752 807 0
-629 -683 -753 807 0
-629 -683 -754 807 0
-629 -683 -755 807 0
-629 -684 -730 794 0
-629 -684 -731 795 0
-629 -684 -732 796 0
-629 -684 -733 797 0
-629 -684 -734 798 0
-629 -684 -735 799 0
-629 -684 -736 800 0
-629 -684 -737 801 0
-629 -684 -738 802 0
-629 -684 -739 803 0
-629 -684 -740 804 0
-629 -684 -741 805 0
-629 -684 -742 806 0
-629 -684 -743 807 0
-629 -684 -744 807 0
-629 -684 -745 807 0
-629 -684 -746 807 0
-629 -684 -747 807 0
-629 -684 -748 807 0
-629 -684 -749 807 0
-629 -684 -750 807 0
-629 -684 -751 807 0
-629 -684 -752 807 0
-629 -684 -753 807 0
-629 -684 -754 807 0
-629 -684 -755 807 0
-629 -685 -730 795 0
-629 -685 -731 796 0
-629 -685 -732 797 0
-629 -685 -733 798 0
-629 -685 -734 799 0
-629 -685 -735 800 0
-629 -685 -736 801 0
-629 -685 -737 802 0
-629 -685 -738 803 0
-629 -685 -739 804 0
-629 -685 -740 805 0
-629 -685 -741 806 0
-629 -685 -742 807 0
-629 -685 -743 807 0
-629 -685 -744 807 0
-629 -685 -745 807 0
-629 -685 -746 807 0
-629 -685 -747 807 0
-629 -685 -748 807 0
-629 -685 -749 807 0
-629 -685 -750 807 0
-629 -685 -751 807 0
-629 -685 -752 807 0
-629 -685 -753 807 0
-629 -685 -754 807 0
-629 -685 -755 807 0
-629 -686 -730 796 0
-629 -686 -731 797 0
-629 -686 -732 798 0
-629 -686 -733 799 0
-629 -686 -734 800 0
-629 -686 -735 801 0
-629 -686 -736 802 0
-629 -686 -737 803 0
-629 -686 -738 804 0
-629 -686 -739 805 0
-629 -686 -740 806 0
-629 -686 -741 807 0
-629 -686 -742 807 0
-629 -686 -743 807 0
-629 -686 -744 807 0
-629 -686 -745 807 0
-629 -686 -746 807 0
-629 -686 -747 807 0
-629 -686 -748 807 0
-629 -686 -749 807 0
-629 -686 -750 807 0
-629 -686 -751 807 0
-629 -686 -752 807 0
-629 -686 -753 807 0
-629 -686 -754 807 0
-629 -686 -755 807 0
-629 -687 -730 797 0
-629 -687 -731 798 0
-629 -687 -732 799 0
-629 -687 -733 800 0
-629 -687 -734 801 0
-629 -687 -735 802 0
-629 -687 -736 803 0
-629 -687 -737 804 0
-629 -687 -738 805 0
-629 -687 -739 806 0
-629 -687 -740 807 0
-629 -687 -741 807 0
-629 -687 -742 807 0
-629 -687 -743 807 0
-629 -687 -744 807 0
-629 -687 -745 807 0
-629 -687 -746 807 0
-629 -687 -747 807 0
-629 -687 -748 807 0
-629 -687 -749 807 0
-629 -687 -750 807 0
-629 -687 -751 807 0
-629 -687 -752 807 0
-629 -687 -753 807 0
-629 -687 -754 807 0
-629 -687 -755 807 0
-629 -688 -730 798 0
-629 -688 -731 799 0
-629 -688 -732 800 0
-629 -688 -733 801 0
-629 -688 -734 802 0
-629 -688 -735 803 0
-629 -688 -736 804 0
-629 -688 -737 805 0
-629 -688 -738 806 0
-629 -688 -739 807 0
-629 -688 -740 807 0
-629 -688 -741 807 0
-629 -688 -742 807 0
-629 -688 -743 807 0
-629 -688 -744 807 0
-629 -688 -745 807 0
-629 -688 -746 807 0
-629 -688 -747 807 0
-629 -688 -748 807 0
-629 -688 -749 807 0
-629 -688 -750 807 0
-629 -688 -751 807 0
-629 -688 -752 807 0
-629 -688 -753 807 0
-629 -688 -754 807 0
-629 -688 -755 807 0
-629 -689 -730 799 0
-629 -689 -731 800 0
-629 -689 -732 801 0
-629 -689 -733 802 0
-629 -689 -734 803 0
-629 -689 -735 804 0
-629 -689 -736 805 0
-629 -689 -737 806 0
-629 -689 -738 807 0
-629 -689 -739 807 0
-629 -689 -740 807 0
-629 -689 -741 807 0
-629 -689 -742 807 0
-629 -689 -743 807 0
-629 -689 -744 807 0
-629 -689 -745 807 0
-629 -689 -746 807 0
-629 -689 -747 807 0
-629 -689 -748 807 0
-629 -689 -749 807 0
-629 -689 -750 807 0
-629 -689 -751 807 0
-629 -689 -752 807 0
-629 -689 -753 807 0
-629 -689 -754 807 0
-629 -689 -755 807 0
-629 -690 -730 800 0
-629 -690 -731 801 0
-629 -690 -732 802 0
-629 -690 -733 803 0
-629 -690 -734 804 0
-629 -690 -735 805 0
-629 -690 -736 806 0
-629 -690 -737 807 0
-629 -690 -738 807 0
-629 -690 -739 807 0
-629 -690 -740 807 0
-629 -690 -741 807 0
-629 -690 -742 807 0
-629 -690 -743 807 0
-629 -690 -744 807 0
-629 -690 -745 807 0
-629 -690 -746 807 0
-629 -690 -747 807 0
-629 -690 -748 807 0
-629 -690 -749 807 0
-629 -690 -750 807 0
-629 -690 -751 807 0
-629 -690 -752 807 0
-629 -690 -753 807 0
-629 -690 -754 807 0
-629 -690 -755 807 0
-629 -691 -730 801 0
-629 -691 -731 802 0
-629 -691 -732 803 0
-629 -691 -733 804 0
-629 -691 -734 805 0
-629 -691 -735 806 0
-629 -691 -736 807 0
-629 -691 -737 807 0
-629 -691 -738 807 0
-629 -691 -739 807 0
-629 -691 -740 807 0
-629 -691 -741 807 0
-629 -691 -742 807 0
-629 -691 -743 807 0
-629 -691 -744 807 0
-629 -691 -745 807 0
-629 -691 -746 807 0
-629 -691 -747 807 0
-629 -691 -748 807 0
-629 -691 -749 807 0
-629 -691 -750 807 0
-629 -691 -751 807 0
-629 -691 -752 807 0
-629 -691 -753 807 0
-629 -691 -754 807 0
-629 -691 -755 807 0
-629 -692 -730 802 0
-629 -692 -731 803 0
-629 -692 -732 804 0
-629 -692 -733 805 0
-629 -692 -734 806 0
-629 -692 -735 807 0
-629 -692 -736 807 0
-629 -692 -737 807 0
-629 -692 -738 807 0
-629 -692 -739 807 0
-629 -692 -740 807 0
-629 -692 -741 807 0
-629 -692 -742 807 0
-629 -692 -743 807 0
-629 -692 -744 807 0
-629 -692 -745 807 0
-629 -692 -746 807 0
-629 -692 -747 807 0
-629 -692 -748 807 0
-629 -692 -749 807 0
-629 -692 -750 807 0
-629 -692 -751 807 0
-629 -692 -752 807 0
-629 -692 -753 807 0
-629 -692 -754 807 0
-629 -692 -755 807 0
-629 -693 -730 803 0
-629 -693 -731 804 0
-629 -693 -732 805 0
-629 -693 -733 806 0
-629 -693 -734 807 0
-629 -693 -735 807 0
-629 -693 -736 807 0
-629 -693 -737 807 0
-629 -693 -738 807 0
-629 -693 -739 807 0
-629 -693 -740 807 0
-629 -693 -741 807 0
-629 -693 -742 807 0
-629 -693 -743 807 0
-629 -693 -744 807 0
-629 -693 -745 807 0
-629 -693 -746 807 0
-629 -693 -747 807 0
-629 -693 -748 807 0
-629 -693 -749 807 0
-629 -693 -750 807 0
-629 -693 -751 807 0
-629 -693 -752 807 0
-629 -693 -753 807 0
-629 -693 -754 807 0
-629 -693 -755 807 0
-629 -694 -730 804 0
-629 -694 -731 805 0
-629 -694 -732 806 0
-629 -694 -733 807 0
-629 -694 -734 807 0
-629 -694 -735 807 0
-629 -694 -736 807 0
-629 -694 -737 807 0
-629 -694 -738 807 0
-629 -694 -739 807 0
-629 -694 -740 807 0
-629 -694 -741 807 0
-629 -694 -742 807 0
-629 -694 -743 807 0
-629 -694 -744 807 0
-629 -694 -745 807 0
-629 -694 -746 807 0
-629 -694 -747 807 0
-629 -694 -748 807 0
-629 -694 -749 807 0
-629 -694 -750 807 0
-629 -694 -751 807 0
-629 -694 -752 807 0
-629 -694 -753 807 0
-629 -694 -754 807 0
-629 -694 -755 807 0
-629 -695 -730 805 0
-629 -695 -731 806 0
-629 -695 -732 807 0
-629 -695 -733 807 0
-629 -695 -734 807 0
-629 -695 -735 807 0
-629 -695 -736 807 0
-629 -695 -737 807 0
-629 -695 -738 807 0
-629 -695 -739 807 0
-629 -695 -740 807 0
-629 -695 -741 807 0
-629 -695 -742 807 0
-629 -695 -743 807 0
-629 -695 -744 807 0
-629 -695 -745 807 0
-629 -695 -746 807 0
-629 -695 -747 807 0
-629 -695 -748 807 0
-629 -695 -749 807 0
-629 -695 -750 807 0
-629 -695 -751 807 0
-629 -695 -752 807 0
-629 -695 -753 807 0
-629 -695 -754 807 0
-629 -695 -755 807 0
-629 -696 -730 806 0
-629 -696 -731 807 0
-629 -696 -732 807 0
-629 -696 -733 807 0
-629 -696 -734 807 0
-629 -696 -735 807 0
-629 -696 -736 807 0
-629 -696 -737 807 0
-629 -696 -738 807 0
-629 -696 -739 807 0
-629 -696 -740 807 0
-629 -696 -741 807 0
-629 -696 -742 807 0
-629 -696 -743 807 0
-629 -696 -744 807 0
-629 -696 -745 807 0
-629 -696 -746 807 0
-629 -696 -747 807 0
-629 -696 -748 807 0
-629 -696 -749 807 0
-629 -696 -750 807 0
-629 -696 -751 807 0
-629 -696 -752 807 0
-629 -696 -753 807 0
-629 -696 -754 807 0
-629 -696 -755 807 0
-629 -697 -730 807 0
-629 -697 -731 807 0
-629 -697 -732 807 0
-629 -697 -733 807 0
-629 -697 -734 807 0
-629 -697 -735 807 0
-629 -697 -736 807 0
-629 -697 -737 807 0
-629 -697 -738 807 0
-629 -697 -739 807 0
-629 -697 -740 807 0
-629 -697 -741 807 0
-629 -697 -742 807 0
-629 -697 -743 807 0
-629 -697 -744 807 0
-629 -697 -745 807 0
-629 -697 -746 807 0
-629 -697 -747 807 0
-629 -697 -748 807 0
-629 -697 -749 807 0
-629 -697 -750 807 0
-629 -697 -751 807 0
-629 -697 -752 807 0
-629 -697 -753 807 0
-629 -697 -754 807 0
-629 -697 -755 807 0
-629 -698 -730 807 0
-629 -698 -731 807 0
-629 -698 -732 807 0
-629 -698 -733 807 0
-629 -698 -734 807 0
-629 -698 -735 807 0
-629 -698 -736 807 0
-629 -698 -737 807 0
-629 -698 -738 807 0
-629 -698 -739 807 0
-629 -698 -740 807 0
-629 -698 -741 807 0
-629 -698 -742 807 0
-629 -698 -743 807 0
-629 -698 -744 807 0
-629 -698 -745 807 0
-629 -698 -746 807 0
-629 -698 -747 807 0
-629 -698 -748 807 0
-629 -698 -749 807 0
-629 -698 -750 807 0
-629 -698 -751 807 0
-629 -698 -752 807 0
-629 -698 -753 807 0
-629 -698 -754 807 0
-629 -698 -755 807 0
-629 -699 -730 807 0
-629 -699 -731 807 0
-629 -699 -732 807 0
-629 -699 -733 807 0
-629 -699 -734 807 0
-629 -699 -735 807 0
-629 -699 -736 807 0
-629 -699 -737 807 0
-629 -699 -738 807 0
-629 -699 -739 807 0
-629 -699 -740 807 0
-629 -699 -741 807 0
-629 -699 -742 807 0
-629 -699 -743 807 0
-629 -699 -744 807 0
-629 -699 -745 807 0
-629 -699 -746 807 0
-629 -699 -747 807 0
-629 -699 -748 807 0
-629 -699 -749 807 0
-629 -699 -750 807 0
-629 -699 -751 807 0
-629 -699 -752 807 0
-629 -699 -753 807 0
-629 -699 -754 807 0
-629 -699 -755 807 0
-629 -700 -730 807 0
-629 -700 -731 807 0
-629 -700 -732 807 0
-629 -700 -733 807 0
-629 -700 -734 807 0
-629 -700 -735 807 0
-629 -700 -736 807 0
-629 -700 -737 807 0
-629 -700 -738 807 0
-629 -700 -739 807 0
-629 -700 -740 807 0
-629 -700 -741 807 0
-629 -700 -742 807 0
-629 -700 -743 807 0
-629 -700 -744 807 0
-629 -700 -745 807 0
-629 -700 -746 807 0
-629 -700 -747 807 0
-629 -700 -748 807 0
-629 -700 -749 807 0
-629 -700 -750 807 0
-629 -700 -751 807 0
-629 -700 -752 807 0
-629 -700 -753 807 0
-629 -700 -754 807 0
-629 -700 -755 807 0
-629 -701 -730 807 0
-629 -701 -731 807 0
-629 -701 -732 807 0
-629 -701 -733 807 0
-629 -701 -734 807 0
-629 -701 -735 807 0
-629 -701 -736 807 0
-629 -701 -737 807 0
-629 -701 -738 807 0
-629 -701 -739 807 0
-629 -701 -740 807 0
-629 -701 -741 807 0
-629 -701 -742 807 0
-629 -701 -743 807 0
-629 -701 -744 807 0
-629 -701 -745 807 0
-629 -701 -746 807 0
-629 -701 -747 807 0
-629 -701 -748 807 0
-629 -701 -749 807 0
-629 -701 -750 807 0
-629 -701 -751 807 0
-629 -701 -752 807 0
-629 -701 -753 807 0
-629 -701 -754 807 0
-629 -701 -755 807 0
-629 -702 -730 807 0
-629 -702 -731 807 0
-629 -702 -732 807 0
-629 -702 -733 807 0
-629 -702 -734 807 0
-629 -702 -735 807 0
-629 -702 -736 807 0
-629 -702 -737 807 0
-629 -702 -738 807 0
-629 -702 -739 807 0
-629 -702 -740 807 0
-629 -702 -741 807 0
-629 -702 -742 807 0
-629 -702 -743 807 0
-629 -702 -744 807 0
-629 -702 -745 807 0
-629 -702 -746 807 0
-629 -702 -747 807 0
-629 -702 -748 807 0
-629 -702 -749 807 0
-629 -702 -750 807 0
-629 -702 -751 807 0
-629 -702 -752 807 0
-629 -702 -753 807 0
-629 -702 -754 807 0
-629 -702 -755 807 0
-629 -703 -730 807 0
-629 -703 -731 807 0
-629 -703 -732 807 0
-629 -703 -733 807 0
-629 -703 -734 807 0
-629 -703 -735 807 0
-629 -703 -736 807 0
-629 -703 -737 807 0
-629 -703 -738 807 0
-629 -703 -739 807 0
-629 -703 -740 807 0
-629 -703 -741 807 0
-629 -703 -742 807 0
-629 -703 -743 807 0
-629 -703 -744 807 0
-629 -703 -745 807 0
-629 -703 -746 807 0
-629 -703 -747 807 0
-629 -703 -748 807 0
-629 -703 -749 807 0
-629 -703 -750 807 0
-629 -703 -751 807 0
-629 -703 -752 807 0
-629 -703 -753 807 0
-629 -703 -754 807 0
-629 -703 -755 807 0
-630 -678 -730 789 0
-630 -678 -731 790 0
-630 -678 -732 791 0
-630 -678 -733 792 0
-630 -678 -734 793 0
-630 -678 -735 794 0
-630 -678 -736 795 0
-630 -678 -737 796 0
-630 -678 -738 797 0
-630 -678 -739 798 0
-630 -678 -740 799 0
-630 -678 -741 800 0
-630 -678 -742 801 0
-630 -678 -743 802 0
-630 -678 -744 803 0
-630 -678 -745 804 0
-630 -678 -746 805 0
-630 -678 -747 806 0
-630 -678 -748 807 0
-630 -678 -749 807 0
-630 -678 -750 807 0
-630 -678 -751 807 0
-630 -678 -752 807 0
-630 -678 -753 807 0
-630 -678 -754 807 0
-630 -678 -755 807 0
-630 -679 -730 790 0
-630 -679 -731 791 0
-630 -679 -732 792 0
-630 -679 -733 793 0
-630 -679 -734 794 0
-630 -679 -735 795 0
-630 -679 -736 796 0
-630 -679 -737 797 0
-630 -679 -738 798 0
-630 -679 -739 799 0
-630 -679 -740 800 0
-630 -679 -741 801 0
-630 -679 -742 802 0
-630 -679 -743 803 0
-630 -679 -744 804 0
-630 -679 -745 805 0
-630 -679 -746 806 0
-630 -679 -747 807 0
-630 -679 -748 807 0
-630 -679 -749 807 0
-630 -679 -750 807 0
-630 -679 -751 807 0
-630 -679 -752 807 0
-630 -679 -753 807 0
-630 -679 -754 807 0
-630 -679 -755 807 0
-630 -680 -730 791 0
-630 -680 -731 792 0
-630 -680 -732 793 0
-630 -680 -733 794 0
-630 -680 -734 795 0
-630 -680 -735 796 0
-630 -680 -736 797 0
-630 -680 -737 798 0
-630 -680 -738 799 0
-630 -680 -739 800 0
-630 -680 -740 801 0
-630 -680 -741 802 0
-630 -680 -742 803 0
-630 -680 -743 804 0
-630 -680 -744 805 0
-630 -680 -745 806 0
-630 -680 -746 807 0
-630 -680 -747 807 0
-630 -680 -748 807 0
-630 -680 -749 807 0
-630 -680 -750 807 0
-630 -680 -751 807 0
-630 -680 -752 807 0
-630 -680 -753 807 0
-630 -680 -754 807 0
-630 -680 -755 807 0
-630 -681 -730 792 0
-630 -681 -731 793 0
-630 -681 -732 794 0
-630 -681 -733 795 0
-630 -681 -734 796 0
-630 -681 -735 797 0
-630 -681 -736 798 0
-630 -681 -737 799 0
-630 -681 -738 800 0
-630 -681 -739 801 0
-630 -681 -740 802 0
-630 -681 -741 803 0
-630 -681 -742 804 0
-630 -681 -743 805 0
-630 -681 -744 806 0
-630 -681 -745 807 0
-630 -681 -746 807 0
-630 -681 -747 807 0
-630 -681 -748 807 0
-630 -681 -749 807 0
-630 -681 -750 807 0
-630 -681 -751 807 0
-630 -681 -752 807 0
-630 -681 -753 807 0
-630 -681 -754 807 0
-630 -681 -755 807 0
-630 -682 -730 793 0
-630 -682 -731 794 0
-630 -682 -732 795 0
-630 -682 -733 796 0
-630 -682 -734 797 0
-630 -682 -735 798 0
-630 -682 -736 799 0
-630 -682 -737 800 0
-630 -682 -738 801 0
-630 -682 -739 802 0
-630 -682 -740 803 0
-630 -682 -741 804 0
-630 -682 -742 805 0
-630 -682 -743 806 0
-630 -682 -744 807 0
-630 -682 -745 807 0
-630 -682 -746 807 0
-630 -682 -747 807 0
-630 -682 -748 807 0
-630 -682 -749 807 0
-630 -682 -750 807 0
-630 -682 -751 807 0
-630 -682 -752 807 0
-630 -682 -753 807 0
-630 -682 -754 807 0
-630 -682 -755 807 0
-630 -683 -730 794 0
-630 -683 -731 795 0
-630 -683 -732 796 0
-630 -683 -733 797 0
-630 -683 -734 798 0
-630 -683 -735 799 0
-630 -683 -736 800 0
-630 -683 -737 801 0
-630 -683 -738 802 0
-630 -683 -739 803 0
-630 -683 -740 804 0
-630 -683 -741 805 0
-630 -683 -742 806 0
-630 -683 -743 807 0
-630 -683 -744 807 0
-630 -683 -745 807 0
-630 -683 -746 807 0
-630 -683 -747 807 0
-630 -683 -748 807 0
-630 -683 -749 807 0
-630 -683 -750 807 0
-630 -683 -751 807 0
-630 -683 -752 807 0
-630 -683 -753 807 0
-630 -683 -754 807 0
-630 -683 -755 807 0
-630 -684 -730 795 0
-630 -684 -731 796 0
-630 -684 -732 797 0
-630 -684 -733 798 0
-630 -684 -734 799 0
-630 -684 -735 800 0
-630 -684 -736 801 0
-630 -684 -737 802 0
-630 -684 -738 803 0
-630 -684 -739 804 0
-630 -684 -740 805 0
-630 -684 -741 806 0
-630 -684 -742 807 0
-630 -684 -743 807 0
-630 -684 -744 807 0
-630 -684 -745 807 0
-630 -684 -746 807 0
-630 -684 -747 807 0
-630 -684 -748 807 0
-630 -684 -749 807 0
-630 -684 -750 807 0
-630 -684 -751 807 0
-630 -684 -752 807 0
-630 -684 -753 807 0
-630 -684 -754 807 0
-630 -684 -755 807 0
-630 -685 -730 796 0
-630 -685 -731 797 0
-630 -685 -732 798 0
-630 -685 -733 799 0
-630 -685 -734 800 0
-630 -685 -735 801 0
-630 -685 -736 802 0
-630 -685 -737 803 0
-630 -685 -738 804 0
-630 -685 -739 805 0
-630 -685 -740 806 0
-630 -685 -741 807 0
-630 -685 -742 807 0
-630 -685 -743 807 0
-630 -685 -744 807 0
-630 -685 -745 807 0
-630 -685 -746 807 0
-630 -685 -747 807 0
-630 -685 -748 807 0
-630 -685 -749 807 0
-630 -685 -750 807 0
-630 -685 -751 807 0
-630 -685 -752 807 0
-630 -685 -753 807 0
-630 -685 -754 807 0
-630 -685 -755 807 0
-630 -686 -730 797 0
-630 -686 -731 798 0
-630 -686 -732 799 0
-630 -686 -733 800 0
-630 -686 -734 801 0
-630 -686 -735 802 0
-630 -686 -736 803 0
-630 -686 -737 804 0
-630 -686 -738 805 0
-630 -686 -739 806 0
-630 -686 -740 807 0
-630 -686 -741 807 0
-630 -686 -742 807 0
-630 -686 -743 807 0
-630 -686 -744 807 0
-630 -686 -745 807 0
-630 -686 -746 807 0
-630 -686 -747 807 0
-630 -686 -748 807 0
-630 -686 -749 807 0
-630 -686 -750 807 0
-630 -686 -751 807 0
-630 -686 -752 807 0
-630 -686 -753 807 0
-630 -686 -754 807 0
-630 -686 -755 807 0
-630 -687 -730 798 0
-630 -687 -731 799 0
-630 -687 -732 800 0
-630 -687 -733 801 0
-630 -687 -734 802 0
-630 -687 -735 803 0
-630 -687 -736 804 0
-630 -687 -737 805 0
-630 -687 -738 806 0
-630 -687 -739 807 0
-630 -687 -740 807 0
-630 -687 -741 807 0
-630 -687 -742 807 0
-630 -687 -743 807 0
-630 -687 -744 807 0
-630 -687 -745 807 0
-630 -687 -746 807 0
-630 -687 -747 807 0
-630 -687 -748 807 0
-630 -687 -749 807 0
-630 -687 -750 807 0
-630 -687 -751 807 0
-630 -687 -752 807 0
-630 -687 -753 807 0
-630 -687 -754 807 0
-630 -687 -755 807 0
-630 -688 -730 799 0
-630 -688 -731 800 0
-630 -688 -732 801 0
-630 -688 -733 802 0
-630 -688 -734 803 0
-630 -688 -735 804 0
-630 -688 -736 805 0
-630 -688 -737 806 0
-630 -688 -738 807 0
-630 -688 -739 807 0
-630 -688 -740 807 0
-630 -688 -741 807 0
-630 -688 -742 807 0
-630 -688 -743 807 0
-630 -688 -744 807 0
-630 -688 -745 807 0
-630 -688 -746 807 0
-630 -688 -747 807 0
-630 -688 -748 807 0
-630 -688 -749 807 0
-630 -688 -750 807 0
-630 -688 -751 807 0
-630 -688 -752 807 0
-630 -688 -753 807 0
-630 -688 -754 807 0
-630 -688 -755 807 0
-630 -689 -730 800 0
-630 -689 -731 801 0
-630 -689 -732 802 0
-630 -689 -733 803 0
-630 -689 -734 804 0
-630 -689 -735 805 0
-630 -689 -736 806 0
-630 -689 -737 807 0
-630 -689 -738 807 0
-630 -689 -739 807 0
-630 -689 -740 807 0
-630 -689 -741 807 0
-630 -689 -742 807 0
-630 -689 -743 807 0
-630 -689 -744 807 0
-630 -689 -745 807 0
-630 -689 -746 807 0
-630 -689 -747 807 0
-630 -689 -748 807 0
-630 -689 -749 807 0
-630 -689 -750 807 0
-630 -689 -751 807 0
-630 -689 -752 807 0
-630 -689 -753 807 0
-630 -689 -754 807 0
-630 -689 -755 807 0
-630 -690 -730 801 0
-630 -690 -731 802 0
-630 -690 -732 803 0
-630 -690 -733 804 0
-630 -690 -734 805 0
-630 -690 -735 806 0
-630 -690 -736 807 0
-630 -690 -737 807 0
-630 -690 -738 807 0
-630 -690 -739 807 0
-630 -690 -740 807 0
-630 -690 -741 807 0
-630 -690 -742 807 0
-630 -690 -743 807 0
-630 -690 -744 807 0
-630 -690 -745 807 0
-630 -690 -746 807 0
-630 -690 -747 807 0
-630 -690 -748 807 0
-630 -690 -749 807 0
-630 -690 -750 807 0
-630 -690 -751 807 0
-630 -690 -752 807 0
-630 -690 -753 807 0
-630 -690 -754 807 0
-630 -690 -755 807 0
-630 -691 -730 802 0
-630 -691 -731 803 0
-630 -691 -732 804 0
-630 -691 -733 805 0
-630 -691 -734 806 0
-630 -691 -735 807 0
-630 -691 -736 807 0
-630 -691 -737 807 0
-630 -691 -738 807 0
-630 -691 -739 807 0
-630 -691 -740 807 0
-630 -691 -741 807 0
-630 -691 -742 807 0
-630 -691 -743 807 0
-630 -691 -744 807 0
-630 -691 -745 807 0
-630 -691 -746 807 0
-630 -691 -747 807 0
-630 -691 -748 807 0
-630 -691 -749 807 0
-630 -691 -750 807 0
-630 -691 -751 807 0
-630 -691 -752 807 0
-630 -691 -753 807 0
-630 -691 -754 807 0
-630 -691 -755 807 0
-630 -692 -730 803 0
-630 -692 -731 804 0
-630 -692 -732 805 0
-630 -692 -733 806 0
-630 -692 -734 807 0
-630 -692 -735 807 0
-630 -692 -736 807 0
-630 -692 -737 807 0
-630 -692 -738 807 0
-630 -692 -739 807 0
-630 -692 -740 807 0
-630 -692 -741 807 0
-630 -692 -742 807 0
-630 -692 -743 807 0
-630 -692 -744 807 0
-630 -692 -745 807 0
-630 -692 -746 807 0
-630 -692 -747 807 0
-630 -692 -748 807 0
-630 -692 -749 807 0
-630 -692 -750 807 0
-630 -692 -751 807 0
-630 -692 -752 807 0
-630 -692 -753 807 0
-630 -692 -754 807 0
-630 -692 -755 807 0
-630 -693 -730 804 0
-630 -693 -731 805 0
-630 -693 -732 806 0
-630 -693 -733 807 0
-630 -693 -734 807 0
-630 -693 -735 807 0
-630 -693 -736 807 0
-630 -693 -737 807 0
-630 -693 -738 807 0
-630 -693 -739 807 0
-630 -693 -740 807 0
-630 -693 -741 807 0
-630 -693 -742 807 0
-630 -693 -743 807 0
-630 -693 -744 807 0
-630 -693 -745 807 0
-630 -693 -746 807 0
-630 -693 -747 807 0
-630 -693 -748 807 0
-630 -693 -749 807 0
-630 -693 -750 807 0
-630 -693 -751 807 0
-630 -693 -752 807 0
-630 -693 -753 807 0
-630 -693 -754 807 0
-630 -693 -755 807 0
-630 -694 -730 805 0
-630 -694 -731 806 0
-630 -694 -732 807 0
-630 -694 -733 807 0
-630 -694 -734 807 0
-630 -694 -735 807 0
-630 -694 -736 807 0
-630 -694 -737 807 0
-630 -694 -738 807 0
-630 -694 -739 807 0
-630 -694 -740 807 0
-630 -694 -741 807 0
-630 -694 -742 807 0
-630 -694 -743 807 0
-630 -694 -744 807 0
-630 -694 -745 807 0
-630 -694 -746 807 0
-630 -694 -747 807 0
-630 -694 -748 807 0
-630 -694 -749 807 0
-630 -694 -750 807 0
-630 -694 -751 807 0
-630 -694 -752 807 0
-630 -694 -753 807 0
-630 -694 -754 807 0
-630 -694 -755 807 0
-630 -695 -730 806 0
-630 -695 -731 807 0
-630 -695 -732 807 0
-630 -695 -733 807 0
-630 -695 -734 807 0
-630 -695 -735 807 0
-630 -695 -736 807 0
-630 -695 -737 807 0
-630 -695 -738 807 0
-630 -695 -739 807 0
-630 -695 -740 807 0
-630 -695 -741 807 0
-630 -695 -742 807 0
-630 -695 -743 807 0
-630 -695 -744 807 0
-630 -695 -745 807 0
-630 -695 -746 807 0
-630 -695 -747 807 0
-630 -695 -748 807 0
-630 -695 -749 807 0
-630 -695 -750 807 0
-630 -695 -751 807 0
-630 -695 -752 807 0
-630 -695 -753 807 0
-630 -695 -754 807 0
-630 -695 -755 807 0
-630 -696 -730 807 0
-630 -696 -731 807 0
-630 -696 -732 807 0
-630 -696 -733 807 0
-630 -696 -734 807 0
-630 -696 -735 807 0
-630 -696 -736 807 0
-630 -696 -737 807 0
-630 -696 -738 807 0
-630 -696 -739 807 0
-630 -696 -740 807 0
-630 -696 -741 807 0
-630 -696 -742 807 0
-630 -696 -743 807 0
-630 -696 -744 807 0
-630 -696 -745 807 0
-630 -696 -746 807 0
-630 -696 -747 807 0
-630 -696 -748 807 0
-630 -696 -749 807 0
-630 -696 -750 807 0
-630 -696 -751 807 0
-630 -696 -752 807 0
-630 -696 -753 807 0
-630 -696 -754 807 0
-630 -696 -755 807 0
-630 -697 -730 807 0
-630 -697 -731 807 0
-630 -697 -732 807 0
-630 -697 -733 807 0
-630 -697 -734 807 0
-630 -697 -735 807 0
-630 -697 -736 807 0
-630 -697 -737 807 0
-630 -697 -738 807 0
-630 -697 -739 807 0
-630 -697 -740 807 0
-630 -697 -741 807 0
-630 -697 -742 807 0
-630 -697 -743 807 0
-630 -697 -744 807 0
-630 -697 -745 807 0
-630 -697 -746 807 0
-630 -697 -747 807 0
-630 -697 -748 807 0
-630 -697 -749 807 0
-630 -697 -750 807 0
-630 -697 -751 807 0
-630 -697 -752 807 0
-630 -697 -753 807 0
-630 -697 -754 807 0
-630 -697 -755 807 0
-630 -698 -730 807 0
-630 -698 -731 807 0
-630 -698 -732 807 0
-630 -698 -733 807 0
-630 -698 -734 807 0
-630 -698 -735 807 0
-630 -698 -736 807 0
-630 -698 -737 807 0
-630 -698 -738 807 0
-630 -698 -739 807 0
-630 -698 -740 807 0
-630 -698 -741 807 0
-630 -698 -742 807 0
-630 -698 -743 807 0
-630 -698 -744 807 0
-630 -698 -745 807 0
-630 -698 -746 807 0
-630 -698 -747 807 0
-630 -698 -748 807 0
-630 -698 -749 807 0
-630 -698 -750 807 0
-630 -698 -751 807 0
-630 -698 -752 807 0
-630 -698 -753 807 0
-630 -698 -754 807 0
-630 -698 -755 807 0
-630 -699 -730 807 0
-630 -699 -731 807 0
-630 -699 -732 807 0
-630 -699 -733 807 0
-630 -699 -734 807 0
-630 -699 -735 807 0
-630 -699 -736 807 0
-630 -699 -737 807 0
-630 -699 -738 807 0
-630 -699 -739 807 0
-630 -699 -740 807 0
-630 -699 -741 807 0
-630 -699 -742 807 0
-630 -699 -743 807 0
-630 -699 -744 807 0
-630 -699 -745 807 0
-630 -699 -746 807 0
-630 -699 -747 807 0
-630 -699 -748 807 0
-630 -699 -749 807 0
-630 -699 -750 807 0
-630 -699 -751 807 0
-630 -699 -752 807 0
-630 -699 -753 807 0
-630 -699 -754 807 0
-630 -699 -755 807 0
-630 -700 -730 807 0
-630 -700 -731 807 0
-630 -700 -732 807 0
-630 -700 -733 807 0
-630 -700 -734 807 0
-630 -700 -735 807 0
-630 -700 -736 807 0
-630 -700 -737 807 0
-630 -700 -738 807 0
-630 -700 -739 807 0
-630 -700 -740 807 0
-630 -700 -741 807 0
-630 -700 -742 807 0
-630 -700 -743 807 0
-630 -700 -744 807 0
-630 -700 -745 807 0
-630 -700 -746 807 0
-630 -700 -747 807 0
-630 -700 -748 807 0
-630 -700 -749 807 0
-630 -700 -750 807 0
-630 -700 -751 807 0
-630 -700 -752 807 0
-630 -700 -753 807 0
-630 -700 -754 807 0
-630 -700 -755 807 0
-630 -701 -730 807 0
-630 -701 -731 807 0
-630 -701 -732 807 0
-630 -701 -733 807 0
-630 -701 -734 807 0
-630 -701 -735 807 0
-630 -701 -736 807 0
-630 -701 -737 807 0
-630 -701 -738 807 0
-630 -701 -739 807 0
-630 -701 -740 807 0
-630 -701 -741 807 0
-630 -701 -742 807 0
-630 -701 -743 807 0
-630 -701 -744 807 0
-630 -701 -745 807 0
-630 -701 -746 807 0
-630 -701 -747 807 0
-630 -701 -748 807 0
-630 -701 -749 807 0
-630 -701 -750 807 0
-630 -701 -751 807 0
-630 -701 -752 807 0
-630 -701 -753 807 0
-630 -701 -754 807 0
-630 -701 -755 807 0
-630 -702 -730 807 0
-630 -702 -731 807 0
-630 -702 -732 807 0
-630 -702 -733 807 0
-630 -702 -734 807 0
-630 -702 -735 807 0
-630 -702 -736 807 0
-630 -702 -737 807 0
-630 -702 -738 807 0
-630 -702 -739 807 0
-630 -702 -740 807 0
-630 -702 -741 807 0
-630 -702 -742 807 0
-630 -702 -743 807 0
-630 -702 -744 807 0
-630 -702 -745 807 0
-630 -702 -746 807 0
-630 -702 -747 807 0
-630 -702 -748 807 0
-630 -702 -749 807 0
-630 -702 -750 807 0
-630 -702 -751 807 0
-630 -702 -752 807 0
-630 -702 -753 807 0
-630 -702 -754 807 0
-630 -702 -755 807 0
-630 -703 -730 807 0
-630 -703 -731 807 0
-630 -703 -732 807 0
-630 -703 -733 807 0
-630 -703 -734 807 0
-630 -703 -735 807 0
-630 -703 -736 807 0
-630 -703 -737 807 0
-630 -703 -738 807 0
-630 -703 -739 807 0
-630 -703 -740 807 0
-630 -703 -741 807 0
-630 -703 -742 807 0
-630 -703 -743 807 0
-630 -703 -744 807 0
-630 -703 -745 807 0
-630 -703 -746 807 0
-630 -703 -747 807 0
-630 -703 -748 807 0
-630 -703 -749 807 0
-630 -703 -750 807 0
-630 -703 -751 807 0
-630 -703 -752 807 0
-630 -703 -753 807 0
-630 -703 -754 807 0
-630 -703 -755 807 0
-631 -678 -730 790 0
-631 -678 -731 791 0
-631 -678 -732 792 0
-631 -678 -733 793 0
-631 -678 -734 794 0
-631 -678 -735 795 0
-631 -678 -736 796 0
-631 -678 -737 797 0
-631 -678 -738 798 0
-631 -678 -739 799 0
-631 -678 -740 800 0
-631 -678 -741 801 0
-631 -678 -742 802 0
-631 -678 -743 803 0
-631 -678 -744 804 0
-631 -678 -745 805 0
-631 -678 -746 806 0
-631 -678 -747 807 0
-631 -678 -748 807 0
-631 -678 -749 807 0
-631 -678 -750 807 0
-631 -678 -751 807 0
-631 -678 -752 807 0
-631 -678 -753 807 0
-631 -678 -754 807 0
-631 -678 -755 807 0
-631 -679 -730 791 0
-631 -679 -731 792 0
-631 -679 -732 793 0
-631 -679 -733 794 0
-631 -679 -734 795 0
-631 -679 -735 796 0
-631 -679 -736 797 0
-631 -679 -737 798 0
-631 -679 -738 799 0
-631 -679 -739 800 0
-631 -679 -740 801 0
-631 -679 -741 802 0
-631 -679 -742 803 0
-631 -679 -743 804 0
-631 -679 -744 805 0
-631 -679 -745 806 0
-631 -679 -746 807 0
-631 -679 -747 807 0
-631 -679 -748 807 0
-631 -679 -749 807 0
-631 -679 -750 807 0
-631 -679 -751 807 0
-631 -679 -752 807 0
-631 -679 -753 807 0
-631 -679 -754 807 0
-631 -679 -755 807 0
-631 -680 -730 792 0
-631 -680 -731 793 0
-631 -680 -732 794 0
-631 -680 -733 795 0
-631 -680 -734 796 0
-631 -680 -735 797 0
-631 -680 -736 798 0
-631 -680 -737 799 0
-631 -680 -738 800 0
-631 -680 -739 801 0
-631 -680 -740 802 0
-631 -680 -741 803 0
-631 -680 -742 804 0
-631 -680 -743 805 0
-631 -680 -744 806 0
-631 -680 -745 807 0
-631 -680 -746 807 0
-631 -680 -747 807 0
-631 -680 -748 807 0
-631 -680 -749 807 0
-631 -680 -750 807 0
-631 -680 -751 807 0
-631 -680 -752 807 0
-631 -680 -753 807 0
-631 -680 -754 807 0
-631 -680 -755 807 0
-631 -681 -730 793 0
-631 -681 -731 794 0
-631 -681 -732 795 0
-631 -681 -733 796 0
-631 -681 -734 797 0
-631 -681 -735 798 0
-631 -681 -736 799 0
-631 -681 -737 800 0
-631 -681 -738 801 0
-631 -681 -739 802 0
-631 -681 -740 803 0
-631 -681 -741 804 0
-631 -681 -742 805 0
-631 -681 -743 806 0
-631 -681 -744 807 0
-631 -681 -745 807 0
-631 -681 -746 807 0
-631 -681 -747 807 0
-631 -681 -748 807 0
-631 -681 -749 807 0
-631 -681 -750 807 0
-631 -681 -751 807 0
-631 -681 -752 807 0
-631 -681 -753 807 0
-631 -681 -754 807 0
-631 -681 -755 807 0
-631 -682 -730 794 0
-631 -682 -731 795 0
-631 -682 -732 796 0
-631 -682 -733 797 0
-631 -682 -734 798 0
-631 -682 -735 799 0
-631 -682 -736 800 0
-631 -682 -737 801 0
-631 -682 -738 802 0
-631 -682 -739 803 0
-631 -682 -740 804 0
-631 -682 -741 805 0
-631 -682 -742 806 0
-631 -682 -743 807 0
-631 -682 -744 807 0
-631 -682 -745 807 0
-631 -682 -746 807 0
-631 -682 -747 807 0
-631 -682 -748 807 0
-631 -682 -749 807 0
-631 -682 -750 807 0
-631 -682 -751 807 0
-631 -682 -752 807 0
-631 -682 -753 807 0
-631 -682 -754 807 0
-631 -682 -755 807 0
-631 -683 -730 795 0
-631 -683 -731 796 0
-631 -683 -732 797 0
-631 -683 -733 798 0
-631 -683 -734 799 0
-631 -683 -735 800 0
-631 -683 -736 801 0
-631 -683 -737 802 0
-631 -683 -738 803 0
-631 -683 -739 804 0
-631 -683 -740 805 0
-631 -683 -741 806 0
-631 -683 -742 807 0
-631 -683 -743 807 0
-631 -683 -744 807 0
-631 -683 -745 807 0
-631 -683 -746 807 0
-631 -683 -747 807 0
-631 -683 -748 807 0
-631 -683 -749 807 0
-631 -683 -750 807 0
-631 -683 -751 807 0
-631 -683 -752 807 0
-631 -683 -753 807 0
-631 -683 -754 807 0
-631 -683 -755 807 0
-631 -684 -730 796 0
-631 -684 -731 797 0
-631 -684 -732 798 0
-631 -684 -733 799 0
-631 -684 -734 800 0
-631 -684 -735 801 0
-631 -684 -736 802 0
-631 -684 -737 803 0
-631 -684 -738 804 0
-631 -684 -739 805 0
-631 -684 -740 806 0
-631 -684 -741 807 0
-631 -684 -742 807 0
-631 -684 -743 807 0
-631 -684 -744 807 0
-631 -684 -745 807 0
-631 -684 -746 807 0
-631 -684 -747 807 0
-631 -684 -748 807 0
-631 -684 -749 807 0
-631 -684 -750 807 0
-631 -684 -751 807 0
-631 -684 -752 807 0
-631 -684 -753 807 0
-631 -684 -754 807 0
-631 -684 -755 807 0
-631 -685 -730 797 0
-631 -685 -731 798 0
-631 -685 -732 799 0
-631 -685 -733 800 0
-631 -685 -734 801 0
-631 -685 -735 802 0
-631 -685 -736 803 0
-631 -685 -737 804 0
-631 -685 -738 805 0
-631 -685 -739 806 0
-631 -685 -740 807 0
-631 -685 -741 807 0
-631 -685 -742 807 0
-631 -685 -743 807 0
-631 -685 -744 807 0
-631 -685 -745 807 0
-631 -685 -746 807 0
-631 -685 -747 807 0
-631 -685 -748 807 0
-631 -685 -749 807 0
-631 -685 -750 807 0
-631 -685 -751 807 0
-631 -685 -752 807 0
-631 -685 -753 807 0
-631 -685 -754 807 0
-631 -685 -755 807 0
-631 -686 -730 798 0
-631 -686 -731 799 0
-631 -686 -732 800 0
-631 -686 -733 801 0
-631 -686 -734 802 0
-631 -686 -735 803 0
-631 -686 -736 804 0
-631 -686 -737 805 0
-631 -686 -738 806 0
-631 -686 -739 807 0
-631 -686 -740 807 0
-631 -686 -741 807 0
-631 -686 -742 807 0
-631 -686 -743 807 0
-631 -686 -744 807 0
-631 -686 -745 807 0
-631 -686 -746 807 0
-631 -686 -747 807 0
-631 -686 -748 807 0
-631 -686 -749 807 0
-631 -686 -750 807 0
-631 -686 -751 807 0
-631 -686 -752 807 0
-631 -686 -753 807 0
-631 -686 -754 807 0
-631 -686 -755 807 0
-631 -687 -730 799 0
-631 -687 -731 800 0
-631 -687 -732 801 0
-631 -687 -733 802 0
-631 -687 -734 803 0
-631 -687 -735 804 0
-631 -687 -736 805 0
-631 -687 -737 806 0
-631 -687 -738 807 0
-631 -687 -739 807 0
-631 -687 -740 807 0
-631 -687 -741 807 0
-631 -687 -742 807 0
-631 -687 -743 807 0
-631 -687 -744 807 0
-631 -687 -745 807 0
-631 -687 -746 807 0
-631 -687 -747 807 0
-631 -687 -748 807 0
-631 -687 -749 807 0
-631 -687 -750 807 0
-631 -687 -751 807 0
-631 -687 -752 807 0
-631 -687 -753 807 0
-631 -687 -754 807 0
-631 -687 -755 807 0
-631 -688 -730 800 0
-631 -688 -731 801 0
-631 -688 -732 802 0
-631 -688 -733 803 0
-631 -688 -734 804 0
-631 -688 -735 805 0
-631 -688 -736 806 0
-631 -688 -737 807 0
-631 -688 -738 807 0
-631 -688 -739 807 0
-631 -688 -740 807 0
-631 -688 -741 807 0
-631 -688 -742 807 0
-631 -688 -743 807 0
-631 -688 -744 807 0
-631 -688 -745 807 0
-631 -688 -746 807 0
-631 -688 -747 807 0
-631 -688 -748 807 0
-631 -688 -749 807 0
-631 -688 -750 807 0
-631 -688 -751 807 0
-631 -688 -752 807 0
-631 -688 -753 807 0
-631 -688 -754 807 0
-631 -688 -755 807 0
-631 -689 -730 801 0
-631 -689 -731 802 0
-631 -689 -732 803 0
-631 -689 -733 804 0
-631 -689 -734 805 0
-631 -689 -735 806 0
-631 -689 -736 807 0
-631 -689 -737 807 0
-631 -689 -738 807 0
-631 -689 -739 807 0
-631 -689 -740 807 0
-631 -689 -741 807 0
-631 -689 -742 807 0
-631 -689 -743 807 0
-631 -689 -744 807 0
-631 -689 -745 807 0
-631 -689 -746 807 0
-631 -689 -747 807 0
-631 -689 -748 807 0
-631 -689 -749 807 0
-631 -689 -750 807 0
-631 -689 -751 807 0
-631 -689 -752 807 0
-631 -689 -753 807 0
-631 -689 -754 807 0
-631 -689 -755 807 0
-631 -690 -730 802 0
-631 -690 -731 803 0
-631 -690 -732 804 0
-631 -690 -733 805 0
-631 -690 -734 806 0
-631 -690 -735 807 0
-631 -690 -736 807 0
-631 -690 -737 807 0
-631 -690 -738 807 0
-631 -690 -739 807 0
-631 -690 -740 807 0
-631 -690 -741 807 0
-631 -690 -742 807 0
-631 -690 -743 807 0
-631 -690 -744 807 0
-631 -690 -745 807 0
-631 -690 -746 807 0
-631 -690 -747 807 0
-631 -690 -748 807 0
-631 -690 -749 807 0
-631 -690 -750 807 0
-631 -690 -751 807 0
-631 -690 -752 807 0
-631 -690 -753 807 0
-631 -690 -754 807 0
-631 -690 -755 807 0
-631 -691 -730 803 0
-631 -691 -731 804 0
-631 -691 -732 805 0
-631 -691 -733 806 0
-631 -691 -734 807 0
-631 -691 -735 807 0
-631 -691 -736 807 0
-631 -691 -737 807 0
-631 -691 -738 807 0
-631 -691 -739 807 0
-631 -691 -740 807 0
-631 -691 -741 807 0
-631 -691 -742 807 0
-631 -691 -743 807 0
-631 -691 -744 807 0
-631 -691 -745 807 0
-631 -691 -746 807 0
-631 -691 -747 807 0
-631 -691 -748 807 0
-631 -691 -749 807 0
-631 -691 -750 807 0
-631 -691 -751 807 0
-631 -691 -752 807 0
-631 -691 -753 807 0
-631 -691 -754 807 0
-631 -691 -755 807 0
-631 -692 -730 804 0
-631 -692 -731 805 0
-631 -692 -732 806 0
-631 -692 -733 807 0
-631 -692 -734 807 0
-631 -692 -735 807 0
-631 -692 -736 807 0
-631 -692 -737 807 0
-631 -692 -738 807 0
-631 -692 -739 807 0
-631 -692 -740 807 0
-631 -692 -741 807 0
-631 -692 -742 807 0
-631 -692 -743 807 0
-631 -692 -744 807 0
-631 -692 -745 807 0
-631 -692 -746 807 0
-631 -692 -747 807 0
-631 -692 -748 807 0
-631 -692 -749 807 0
-631 -692 -750 807 0
-631 -692 -751 807 0
-631 -692 -752 807 0
-631 -692 -753 807 0
-631 -692 -754 807 0
-631 -692 -755 807 0
-631 -693 -730 805 0
-631 -693 -731 806 0
-631 -693 -732 807 0
-631 -693 -733 807 0
-631 -693 -734 807 0
-631 -693 -735 807 0
-631 -693 -736 807 0
-631 -693 -737 807 0
-631 -693 -738 807 0
-631 -693 -739 807 0
-631 -693 -740 807 0
-631 -693 -741 807 0
-631 -693 -742 807 0
-631 -693 -743 807 0
-631 -693 -744 807 0
-631 -693 -745 807 0
-631 -693 -746 807 0
-631 -693 -747 807 0
-631 -693 -748 807 0
-631 -693 -749 807 0
-631 -693 -750 807 0
-631 -693 -751 807 0
-631 -693 -752 807 0
-631 -693 -753 807 0
-631 -693 -754 807 0
-631 -693 -755 807 0
-631 -694 -730 806 0
-631 -694 -731 807 0
-631 -694 -732 807 0
-631 -694 -733 807 0
-631 -694 -734 807 0
-631 -694 -735 807 0
-631 -694 -736 807 0
-631 -694 -737 807 0
-631 -694 -738 807 0
-631 -694 -739 807 0
-631 -694 -740 807 0
-631 -694 -741 807 0
-631 -694 -742 807 0
-631 -694 -743 807 0
-631 -694 -744 807 0
-631 -694 -745 807 0
-631 -694 -746 807 0
-631 -694 -747 807 0
-631 -694 -748 807 0
-631 -694 -749 807 0
-631 -694 -750 807 0
-631 -694 -751 807 0
-631 -694 -752 807 0
-631 -694 -753 807 0
-631 -694 -754 807 0
-631 -694 -755 807 0
-631 -695 -730 807 0
-631 -695 -731 807 0
-631 -695 -732 807 0
-631 -695 -733 807 0
-631 -695 -734 807 0
-631 -695 -735 807 0
-631 -695 -736 807 0
-631 -695 -737 807 0
-631 -695 -738 807 0
-631 -695 -739 807 0
-631 -695 -740 807 0
-631 -695 -741 807 0
-631 -695 -742 807 0
-631 -695 -743 807 0
-631 -695 -744 807 0
-631 -695 -745 807 0
-631 -695 -746 807 0
-631 -695 -747 807 0
-631 -695 -748 807 0
-631 -695 -749 807 0
-631 -695 -750 807 0
-631 -695 -751 807 0
-631 -695 -752 807 0
-631 -695 -753 807 0
-631 -695 -754 807 0
-631 -695 -755 807 0
-631 -696 -730 807 0
-631 -696 -731 807 0
-631 -696 -732 807 0
-631 -696 -733 807 0
-631 -696 -734 807 0
-631 -696 -735 807 0
-631 -696 -736 807 0
-631 -696 -737 807 0
-631 -696 -738 807 0
-631 -696 -739 807 0
-631 -696 -740 807 0
-631 -696 -741 807 0
-631 -696 -742 807 0
-631 -696 -743 807 0
-631 -696 -744 807 0
-631 -696 -745 807 0
-631 -696 -746 807 0
-631 -696 -747 807 0
-631 -696 -748 807 0
-631 -696 -749 807 0
-631 -696 -750 807 0
-631 -696 -751 807 0
-631 -696 -752 807 0
-631 -696 -753 807 0
-631 -696 -754 807 0
-631 -696 -755 807 0
-631 -697 -730 807 0
-631 -697 -731 807 0
-631 -697 -732 807 0
-631 -697 -733 807 0
-631 -697 -734 807 0
-631 -697 -735 807 0
-631 -697 -736 807 0
-631 -697 -737 807 0
-631 -697 -738 807 0
-631 -697 -739 807 0
-631 -697 -740 807 0
-631 -697 -741 807 0
-631 -697 -742 807 0
-631 -697 -743 807 0
-631 -697 -744 807 0
-631 -697 -745 807 0
-631 -697 -746 807 0
-631 -697 -747 807 0
-631 -697 -748 807 0
-631 -697 -749 807 0
-631 -697 -750 807 0
-631 -697 -751 807 0
-631 -697 -752 807 0
-631 -697 -753 807 0
-631 -697 -754 807 0
-631 -697 -755 807 0
-631 -698 -730 807 0
-631 -698 -731 807 0
-631 -698 -732 807 0
-631 -698 -733 807 0
-631 -698 -734 807 0
-631 -698 -735 807 0
-631 -698 -736 807 0
-631 -698 -737 807 0
-631 -698 -738 807 0
-631 -698 -739 807 0
-631 -698 -740 807 0
-631 -698 -741 807 0
-631 -698 -742 807 0
-631 -698 -743 807 0
-631 -698 -744 807 0
-631 -698 -745 807 0
-631 -698 -746 807 0
-631 -698 -747 807 0
-631 -698 -748 807 0
-631 -698 -749 807 0
-631 -698 -750 807 0
-631 -698 -751 807 0
-631 -698 -752 807 0
-631 -698 -753 807 0
-631 -698 -754 807 0
-631 -698 -755 807 0
-631 -699 -730 807 0
-631 -699 -731 807 0
-631 -699 -732 807 0
-631 -699 -733 807 0
-631 -699 -734 807 0
-631 -699 -735 807 0
-631 -699 -736 807 0
-631 -699 -737 807 0
-631 -699 -738 807 0
-631 -699 -739 807 0
-631 -699 -740 807 0
-631 -699 -741 807 0
-631 -699 -742 807 0
-631 -699 -743 807 0
-631 -699 -744 807 0
-631 -699 -745 807 0
-631 -699 -746 807 0
-631 -699 -747 807 0
-631 -699 -748 807 0
-631 -699 -749 807 0
-631 -699 -750 807 0
-631 -699 -751 807 0
-631 -699 -752 807 0
-631 -699 -753 807 0
-631 -699 -754 807 0
-631 -699 -755 807 0
-631 -700 -730 807 0
-631 -700 -731 807 0
-631 -700 -732 807 0
-631 -700 -733 807 0
-631 -700 -734 807 0
-631 -700 -735 807 0
-631 -700 -736 807 0
-631 -700 -737 807 0
-631 -700 -738 807 0
-631 -700 -739 807 0
-631 -700 -740 807 0
-631 -700 -741 807 0
-631 -700 -742 807 0
-631 -700 -743 807 0
-631 -700 -744 807 0
-631 -700 -745 807 0
-631 -700 -746 807 0
-631 -700 -747 807 0
-631 -700 -748 807 0
-631 -700 -749 807 0
-631 -700 -750 807 0
-631 -700 -751 807 0
-631 -700 -752 807 0
-631 -700 -753 807 0
-631 -700 -754 807 0
-631 -700 -755 807 0
-631 -701 -730 807 0
-631 -701 -731 807 0
-631 -701 -732 807 0
-631 -701 -733 807 0
-631 -701 -734 807 0
-631 -701 -735 807 0
-631 -701 -736 807 0
-631 -701 -737 807 0
-631 -701 -738 807 0
-631 -701 -739 807 0
-631 -701 -740 807 0
-631 -701 -741 807 0
-631 -701 -742 807 0
-631 -701 -743 807 0
-631 -701 -744 807 0
-631 -701 -745 807 0
-631 -701 -746 807 0
-631 -701 -747 807 0
-631 -701 -748 807 0
-631 -701 -749 807 0
-631 -701 -750 807 0
-631 -701 -751 807 0
-631 -701 -752 807 0
-631 -701 -753 807 0
-631 -701 -754 807 0
-631 -701 -755 807 0
-631 -702 -730 807 0
-631 -702 -731 807 0
-631 -702 -732 807 0
-631 -702 -733 807 0
-631 -702 -734 807 0
-631 -702 -735 807 0
-631 -702 -736 807 0
-631 -702 -737 807 0
-631 -702 -738 807 0
-631 -702 -739 807 0
-631 -702 -740 807 0
-631 -702 -741 807 0
-631 -702 -742 807 0
-631 -702 -743 807 0
-631 -702 -744 807 0
-631 -702 -745 807 0
-631 -702 -746 807 0
-631 -702 -747 807 0
-631 -702 -748 807 0
-631 -702 -749 807 0
-631 -702 -750 807 0
-631 -702 -751 807 0
-631 -702 -752 807 0
-631 -702 -753 807 0
-631 -702 -754 807 0
-631 -702 -755 807 0
-631 -703 -730 807 0
-631 -703 -731 807 0
-631 -703 -732 807 0
-631 -703 -733 807 0
-631 -703 -734 807 0
-631 -703 -735 807 0
-631 -703 -736 807 0
-631 -703 -737 807 0
-631 -703 -738 807 0
-631 -703 -739 807 0
-631 -703 -740 807 0
-631 -703 -741 807 0
-631 -703 -742 807 0
-631 -703 -743 807 0
-631 -703 -744 807 0
-631 -703 -745 807 0
-631 -703 -746 807 0
-631 -703 -747 807 0
-631 -703 -748 807 0
-631 -703 -749 807 0
-631 -703 -750 807 0
-631 -703 -751 807 0
-631 -703 -752 807 0
-631 -703 -753 807 0
-631 -703 -754 807 0
-631 -703 -755 807 0
-632 -678 -730 791 0
-632 -678 -731 792 0
-632 -678 -732 793 0
-632 -678 -733 794 0
-632 -678 -734 795 0
-632 -678 -735 796 0
-632 -678 -736 797 0
-632 -678 -737 798 0
-632 -678 -738 799 0
-632 -678 -739 800 0
-632 -678 -740 801 0
-632 -678 -741 802 0
-632 -678 -742 803 0
-632 -678 -743 804 0
-632 -678 -744 805 0
-632 -678 -745 806 0
-632 -678 -746 807 0
-632 -678 -747 807 0
-632 -678 -748 807 0
-632 -678 -749 807 0
-632 -678 -750 807 0
-632 -678 -751 807 0
-632 -678 -752 807 0
-632 -678 -753 807 0
-632 -678 -754 807 0
-632 -678 -755 807 0
-632 -679 -730 792 0
-632 -679 -731 793 0
-632 -679 -732 794 0
-632 -679 -733 795 0
-632 -679 -734 796 0
-632 -679 -735 797 0
-632 -679 -736 798 0
-632 -679 -737 799 0
-632 -679 -738 800 0
-632 -679 -739 801 0
-632 -679 -740 802 0
-632 -679 -741 803 0
-632 -679 -742 804 0
-632 -679 -743 805 0
-632 -679 -744 806 0
-632 -679 -745 807 0
-632 -679 -746 807 0
-632 -679 -747 807 0
-632 -679 -748 807 0
-632 -679 -749 807 0
-632 -679 -750 807 0
-632 -679 -751 807 0
-632 -679 -752 807 0
-632 -679 -753 807 0
-632 -679 -754 807 0
-632 -679 -755 807 0
-632 -680 -730 793 0
-632 -680 -731 794 0
-632 -680 -732 795 0
-632 -680 -733 796 0
-632 -680 -734 797 0
-632 -680 -735 798 0
-632 -680 -736 799 0
-632 -680 -737 800 0
-632 -680 -738 801 0
-632 -680 -739 802 0
-632 -680 -740 803 0
-632 -680 -741 804 0
-632 -680 -742 805 0
-632 -680 -743 806 0
-632 -680 -744 807 0
-632 -680 -745 807 0
-632 -680 -746 807 0
-632 -680 -747 807 0
-632 -680 -748 807 0
-632 -680 -749 807 0
-632 -680 -750 807 0
-632 -680 -751 807 0
-632 -680 -752 807 0
-632 -680 -753 807 0
-632 -680 -754 807 0
-632 -680 -755 807 0
-632 -681 -730 794 0
-632 -681 -731 795 0
-632 -681 -732 796 0
-632 -681 -733 797 0
-632 -681 -734 798 0
-632 -681 -735 799 0
-632 -681 -736 800 0
-632 -681 -737 801 0
-632 -681 -738 802 0
-632 -681 -739 803 0
-632 -681 -740 804 0
-632 -681 -741 805 0
-632 -681 -742 806 0
-632 -681 -743 807 0
-632 -681 -744 807 0
-632 -681 -745 807 0
-632 -681 -746 807 0
-632 -681 -747 807 0
-632 -681 -748 807 0
-632 -681 -749 807 0
-632 -681 -750 807 0
-632 -681 -751 807 0
-632 -681 -752 807 0
-632 -681 -753 807 0
-632 -681 -754 807 0
-632 -681 -755 807 0
-632 -682 -730 795 0
-632 -682 -731 796 0
-632 -682 -732 797 0
-632 -682 -733 798 0
-632 -682 -734 799 0
-632 -682 -735 800 0
-632 -682 -736 801 0
-632 -682 -737 802 0
-632 -682 -738 803 0
-632 -682 -739 804 0
-632 -682 -740 805 0
-632 -682 -741 806 0
-632 -682 -742 807 0
-632 -682 -743 807 0
-632 -682 -744 807 0
-632 -682 -745 807 0
-632 -682 -746 807 0
-632 -682 -747 807 0
-632 -682 -748 807 0
-632 -682 -749 807 0
-632 -682 -750 807 0
-632 -682 -751 807 0
-632 -682 -752 807 0
-632 -682 -753 807 0
-632 -682 -754 807 0
-632 -682 -755 807 0
-632 -683 -730 796 0
-632 -683 -731 797 0
-632 -683 -732 798 0
-632 -683 -733 799 0
-632 -683 -734 800 0
-632 -683 -735 801 0
-632 -683 -736 802 0
-632 -683 -737 803 0
-632 -683 -738 804 0
-632 -683 -739 805 0
-632 -683 -740 806 0
-632 -683 -741 807 0
-632 -683 -742 807 0
-632 -683 -743 807 0
-632 -683 -744 807 0
-632 -683 -745 807 0
-632 -683 -746 807 0
-632 -683 -747 807 0
-632 -683 -748 807 0
-632 -683 -749 807 0
-632 -683 -750 807 0
-632 -683 -751 807 0
-632 -683 -752 807 0
-632 -683 -753 807 0
-632 -683 -754 807 0
-632 -683 -755 807 0
-632 -684 -730 797 0
-632 -684 -731 798 0
-632 -684 -732 799 0
-632 -684 -733 800 0
-632 -684 -734 801 0
-632 -684 -735 802 0
-632 -684 -736 803 0
-632 -684 -737 804 0
-632 -684 -738 805 0
-632 -684 -739 806 0
-632 -684 -740 807 0
-632 -684 -741 807 0
-632 -684 -742 807 0
-632 -684 -743 807 0
-632 -684 -744 807 0
-632 -684 -745 807 0
-632 -684 -746 807 0
-632 -684 -747 807 0
-632 -684 -748 807 0
-632 -684 -749 807 0
-632 -684 -750 807 0
-632 -684 -751 807 0
-632 -684 -752 807 0
-632 -684 -753 807 0
-632 -684 -754 807 0
-632 -684 -755 807 0
-632 -685 -730 798 0
-632 -685 -731 799 0
-632 -685 -732 800 0
-632 -685 -733 801 0
-632 -685 -734 802 0
-632 -685 -735 803 0
-632 -685 -736 804 0
-632 -685 -737 805 0
-632 -685 -738 806 0
-632 -685 -739 807 0
-632 -685 -740 807 0
-632 -685 -741 807 0
-632 -685 -742 807 0
-632 -685 -743 807 0
-632 -685 -744 807 0
-632 -685 -745 807 0
-632 -685 -746 807 0
-632 -685 -747 807 0
-632 -685 -748 807 0
-632 -685 -749 807 0
-632 -685 -750 807 0
-632 -685 -751 807 0
-632 -685 -752 807 0
-632 -685 -753 807 0
-632 -685 -754 807 0
-632 -685 -755 807 0
-632 -686 -730 799 0
-632 -686 -731 800 0
-632 -686 -732 801 0
-632 -686 -733 802 0
-632 -686 -734 803 0
-632 -686 -735 804 0
-632 -686 -736 805 0
-632 -686 -737 806 0
-632 -686 -738 807 0
-632 -686 -739 807 0
-632 -686 -740 807 0
-632 -686 -741 807 0
-632 -686 -742 807 0
-632 -686 -743 807 0
-632 -686 -744 807 0
-632 -686 -745 807 0
-632 -686 -746 807 0
-632 -686 -747 807 0
-632 -686 -748 807 0
-632 -686 -749 807 0
-632 -686 -750 807 0
-632 -686 -751 807 0
-632 -686 -752 807 0
-632 -686 -753 807 0
-632 -686 -754 807 0
-632 -686 -755 807 0
-632 -687 -730 800 0
-632 -687 -731 801 0
-632 -687 -732 802 0
-632 -687 -733 803 0
-632 -687 -734 804 0
-632 -687 -735 805 0
-632 -687 -736 806 0
-632 -687 -737 807 0
-632 -687 -738 807 0
-632 -687 -739 807 0
-632 -687 -740 807 0
-632 -687 -741 807 0
-632 -687 -742 807 0
-632 -687 -743 807 0
-632 -687 -744 807 0
-632 -687 -745 807 0
-632 -687 -746 807 0
-632 -687 -747 807 0
-632 -687 -748 807 0
-632 -687 -749 807 0
-632 -687 -750 807 0
-632 -687 -751 807 0
-632 -687 -752 807 0
-632 -687 -753 807 0
-632 -687 -754 807 0
-632 -687 -755 807 0
-632 -688 -730 801 0
-632 -688 -731 802 0
-632 -688 -732 803 0
-632 -688 -733 804 0
-632 -688 -734 805 0
-632 -688 -735 806 0
-632 -688 -736 807 0
-632 -688 -737 807 0
-632 -688 -738 807 0
-632 -688 -739 807 0
-632 -688 -740 807 0
-632 -688 -741 807 0
-632 -688 -742 807 0
-632 -688 -743 807 0
-632 -688 -744 807 0
-632 -688 -745 807 0
-632 -688 -746 807 0
-632 -688 -747 807 0
-632 -688 -748 807 0
-632 -688 -749 807 0
-632 -688 -750 807 0
-632 -688 -751 807 0
-632 -688 -752 807 0
-632 -688 -753 807 0
-632 -688 -754 807 0
-632 -688 -755 807 0
-632 -689 -730 802 0
-632 -689 -731 803 0
-632 -689 -732 804 0
-632 -689 -733 805 0
-632 -689 -734 806 0
-632 -689 -735 807 0
-632 -689 -736 807 0
-632 -689 -737 807 0
-632 -689 -738 807 0
-632 -689 -739 807 0
-632 -689 -740 807 0
-632 -689 -741 807 0
-632 -689 -742 807 0
-632 -689 -743 807 0
-632 -689 -744 807 0
-632 -689 -745 807 0
-632 -689 -746 807 0
-632 -689 -747 807 0
-632 -689 -748 807 0
-632 -689 -749 807 0
-632 -689 -750 807 0
-632 -689 -751 807 0
-632 -689 -752 807 0
-632 -689 -753 807 0
-632 -689 -754 807 0
-632 -689 -755 807 0
-632 -690 -730 803 0
-632 -690 -731 804 0
-632 -690 -732 805 0
-632 -690 -733 806 0
-632 -690 -734 807 0
-632 -690 -735 807 0
-632 -690 -736 807 0
-632 -690 -737 807 0
-632 -690 -738 807 0
-632 -690 -739 807 0
-632 -690 -740 807 0
-632 -690 -741 807 0
-632 -690 -742 807 0
-632 -690 -743 807 0
-632 -690 -744 807 0
-632 -690 -745 807 0
-632 -690 -746 807 0
-632 -690 -747 807 0
-632 -690 -748 807 0
-632 -690 -749 807 0
-632 -690 -750 807 0
-632 -690 -751 807 0
-632 -690 -752 807 0
-632 -690 -753 807 0
-632 -690 -754 807 0
-632 -690 -755 807 0
-632 -691 -730 804 0
-632 -691 -731 805 0
-632 -691 -732 806 0
-632 -691 -733 807 0
-632 -691 -734 807 0
-632 -691 -735 807 0
-632 -691 -736 807 0
-632 -691 -737 807 0
-632 -691 -738 807 0
-632 -691 -739 807 0
-632 -691 -740 807 0
-632 -691 -741 807 0
-632 -691 -742 807 0
-632 -691 -743 807 0
-632 -691 -744 807 0
-632 -691 -745 807 0
-632 -691 -746 807 0
-632 -691 -747 807 0
-632 -691 -748 807 0
-632 -691 -749 807 0
-632 -691 -750 807 0
-632 -691 -751 807 0
-632 -691 -752 807 0
-632 -691 -753 807 0
-632 -691 -754 807 0
-632 -691 -755 807 0
-632 -692 -730 805 0
-632 -692 -731 806 0
-632 -692 -732 807 0
-632 -692 -733 807 0
-632 -692 -734 807 0
-632 -692 -735 807 0
-632 -692 -736 807 0
-632 -692 -737 807 0
-632 -692 -738 807 0
-632 -692 -739 807 0
-632 -692 -740 807 0
-632 -692 -741 807 0
-632 -692 -742 807 0
-632 -692 -743 807 0
-632 -692 -744 807 0
-632 -692 -745 807 0
-632 -692 -746 807 0
-632 -692 -747 807 0
-632 -692 -748 807 0
-632 -692 -749 807 0
-632 -692 -750 807 0
-632 -692 -751 807 0
-632 -692 -752 807 0
-632 -692 -753 807 0
-632 -692 -754 807 0
-632 -692 -755 807 0
-632 -693 -730 806 0
-632 -693 -731 807 0
-632 -693 -732 807 0
-632 -693 -733 807 0
-632 -693 -734 807 0
-632 -693 -735 807 0
-632 -693 -736 807 0
-632 -693 -737 807 0
-632 -693 -738 807 0
-632 -693 -739 807 0
-632 -693 -740 807 0
-632 -693 -741 807 0
-632 -693 -742 807 0
-632 -693 -743 807 0
-632 -693 -744 807 0
-632 -693 -745 807 0
-632 -693 -746 807 0
-632 -693 -747 807 0
-632 -693 -748 807 0
-632 -693 -749 807 0
-632 -693 -750 807 0
-632 -693 -751 807 0
-632 -693 -752 807 0
-632 -693 -753 807 0
-632 -693 -754 807 0
-632 -693 -755 807 0
-632 -694 -730 807 0
-632 -694 -731 807 0
-632 -694 -732 807 0
-632 -694 -733 807 0
-632 -694 -734 807 0
-632 -694 -735 807 0
-632 -694 -736 807 0
-632 -694 -737 807 0
-632 -694 -738 807 0
-632 -694 -739 807 0
-632 -694 -740 807 0
-632 -694 -741 807 0
-632 -694 -742 807 0
-632 -694 -743 807 0
-632 -694 -744 807 0
-632 -694 -745 807 0
-632 -694 -746 807 0
-632 -694 -747 807 0
-632 -694 -748 807 0
-632 -694 -749 807 0
-632 -694 -750 807 0
-632 -694 -751 807 0
-632 -694 -752 807 0
-632 -694 -753 807 0
-632 -694 -754 807 0
-632 -694 -755 807 0
-632 -695 -730 807 0
-632 -695 -731 807 0
-632 -695 -732 807 0
-632 -695 -733 807 0
-632 -695 -734 807 0
-632 -695 -735 807 0
-632 -695 -736 807 0
-632 -695 -737 807 0
-632 -695 -738 807 0
-632 -695 -739 807 0
-632 -695 -740 807 0
-632 -695 -741 807 0
-632 -695 -742 807 0
-632 -695 -743 807 0
-632 -695 -744 807 0
-632 -695 -745 807 0
-632 -695 -746 807 0
-632 -695 -747 807 0
-632 -695 -748 807 0
-632 -695 -749 807 0
-632 -695 -750 807 0
-632 -695 -751 807 0
-632 -695 -752 807 0
-632 -695 -753 807 0
-632 -695 -754 807 0
-632 -695 -755 807 0
-632 -696 -730 807 0
-632 -696 -731 807 0
-632 -696 -732 807 0
-632 -696 -733 807 0
-632 -696 -734 807 0
-632 -696 -735 807 0
-632 -696 -736 807 0
-632 -696 -737 807 0
-632 -696 -738 807 0
-632 -696 -739 807 0
-632 -696 -740 807 0
-632 -696 -741 807 0
-632 -696 -742 807 0
-632 -696 -743 807 0
-632 -696 -744 807 0
-632 -696 -745 807 0
-632 -696 -746 807 0
-632 -696 -747 807 0
-632 -696 -748 807 0
-632 -696 -749 807 0
-632 -696 -750 807 0
-632 -696 -751 807 0
-632 -696 -752 807 0
-632 -696 -753 807 0
-632 -696 -754 807 0
-632 -696 -755 807 0
-632 -697 -730 807 0
-632 -697 -731 807 0
-632 -697 -732 807 0
-632 -697 -733 807 0
-632 -697 -734 807 0
-632 -697 -735 807 0
-632 -697 -736 807 0
-632 -697 -737 807 0
-632 -697 -738 807 0
-632 -697 -739 807 0
-632 -697 -740 807 0
-632 -697 -741 807 0
-632 -697 -742 807 0
-632 -697 -743 807 0
-632 -697 -744 807 0
-632 -697 -745 807 0
-632 -697 -746 807 0
-632 -697 -747 807 0
-632 -697 -748 807 0
-632 -697 -749 807 0
-632 -697 -750 807 0
-632 -697 -751 807 0
-632 -697 -752 807 0
-632 -697 -753 807 0
-632 -697 -754 807 0
-632 -697 -755 807 0
-632 -698 -730 807 0
-632 -698 -731 807 0
-632 -698 -732 807 0
-632 -698 -733 807 0
-632 -698 -734 807 0
-632 -698 -735 807 0
-632 -698 -736 807 0
-632 -698 -737 807 0
-632 -698 -738 807 0
-632 -698 -739 807 0
-632 -698 -740 807 0
-632 -698 -741 807 0
-632 -698 -742 807 0
-632 -698 -743 807 0
-632 -698 -744 807 0
-632 -698 -745 807 0
-632 -698 -746 807 0
-632 -698 -747 807 0
-632 -698 -748 807 0
-632 -698 -749 807 0
-632 -698 -750 807 0
-632 -698 -751 807 0
-632 -698 -752 807 0
-632 -698 -753 807 0
-632 -698 -754 807 0
-632 -698 -755 807 0
-632 -699 -730 807 0
-632 -699 -731 807 0
-632 -699 -732 807 0
-632 -699 -733 807 0
-632 -699 -734 807 0
-632 -699 -735 807 0
-632 -699 -736 807 0
-632 -699 -737 807 0
-632 -699 -738 807 0
-632 -699 -739 807 0
-632 -699 -740 807 0
-632 -699 -741 807 0
-632 -699 -742 807 0
-632 -699 -743 807 0
-632 -699 -744 807 0
-632 -699 -745 807 0
-632 -699 -746 807 0
-632 -699 -747 807 0
-632 -699 -748 807 0
-632 -699 -749 807 0
-632 -699 -750 807 0
-632 -699 -751 807 0
-632 -699 -752 807 0
-632 -699 -753 807 0
-632 -699 -754 807 0
-632 -699 -755 807 0
-632 -700 -730 807 0
-632 -700 -731 807 0
-632 -700 -732 807 0
-632 -700 -733 807 0
-632 -700 -734 807 0
-632 -700 -735 807 0
-632 -700 -736 807 0
-632 -700 -737 807 0
-632 -700 -738 807 0
-632 -700 -739 807 0
-632 -700 -740 807 0
-632 -700 -741 807 0
-632 -700 -742 807 0
-632 -700 -743 807 0
-632 -700 -744 807 0
-632 -700 -745 807 0
-632 -700 -746 807 0
-632 -700 -747 807 0
-632 -700 -748 807 0
-632 -700 -749 807 0
-632 -700 -750 807 0
-632 -700 -751 807 0
-632 -700 -752 807 0
-632 -700 -753 807 0
-632 -700 -754 807 0
-632 -700 -755 807 0
-632 -701 -730 807 0
-632 -701 -731 807 0
-632 -701 -732 807 0
-632 -701 -733 807 0
-632 -701 -734 807 0
-632 -701 -735 807 0
-632 -701 -736 807 0
-632 -701 -737 807 0
-632 -701 -738 807 0
-632 -701 -739 807 0
-632 -701 -740 807 0
-632 -701 -741 807 0
-632 -701 -742 807 0
-632 -701 -743 807 0
-632 -701 -744 807 0
-632 -701 -745 807 0
-632 -701 -746 807 0
-632 -701 -747 807 0
-632 -701 -748 807 0
-632 -701 -749 807 0
-632 -701 -750 807 0
-632 -701 -751 807 0
-632 -701 -752 807 0
-632 -701 -753 807 0
-632 -701 -754 807 0
-632 -701 -755 807 0
-632 -702 -730 807 0
-632 -702 -731 807 0
-632 -702 -732 807 0
-632 -702 -733 807 0
-632 -702 -734 807 0
-632 -702 -735 807 0
-632 -702 -736 807 0
-632 -702 -737 807 0
-632 -702 -738 807 0
-632 -702 -739 807 0
-632 -702 -740 807 0
-632 -702 -741 807 0
-632 -702 -742 807 0
-632 -702 -743 807 0
-632 -702 -744 807 0
-632 -702 -745 807 0
-632 -702 -746 807 0
-632 -702 -747 807 0
-632 -702 -748 807 0
-632 -702 -749 807 0
-632 -702 -750 807 0
-632 -702 -751 807 0
-632 -702 -752 807 0
-632 -702 -753 807 0
-632 -702 -754 807 0
-632 -702 -755 807 0
-632 -703 -730 807 0
-632 -703 -731 807 0
-632 -703 -732 807 0
-632 -703 -733 807 0
-632 -703 -734 807 0
-632 -703 -735 807 0
-632 -703 -736 807 0
-632 -703 -737 807 0
-632 -703 -738 807 0
-632 -703 -739 807 0
-632 -703 -740 807 0
-632 -703 -741 807 0
-632 -703 -742 807 0
-632 -703 -743 807 0
-632 -703 -744 807 0
-632 -703 -745 807 0
-632 -703 -746 807 0
-632 -703 -747 807 0
-632 -703 -748 807 0
-632 -703 -749 807 0
-632 -703 -750 807 0
-632 -703 -751 807 0
-632 -703 -752 807 0
-632 -703 -753 807 0
-632 -703 -754 807 0
-632 -703 -755 807 0
-633 -678 -730 792 0
-633 -678 -731 793 0
-633 -678 -732 794 0
-633 -678 -733 795 0
-633 -678 -734 796 0
-633 -678 -735 797 0
-633 -678 -736 798 0
-633 -678 -737 799 0
-633 -678 -738 800 0
-633 -678 -739 801 0
-633 -678 -740 802 0
-633 -678 -741 803 0
-633 -678 -742 804 0
-633 -678 -743 805 0
-633 -678 -744 806 0
-633 -678 -745 807 0
-633 -678 -746 807 0
-633 -678 -747 807 0
-633 -678 -748 807 0
-633 -678 -749 807 0
-633 -678 -750 807 0
-633 -678 -751 807 0
-633 -678 -752 807 0
-633 -678 -753 807 0
-633 -678 -754 807 0
-633 -678 -755 807 0
-633 -679 -730 793 0
-633 -679 -731 794 0
-633 -679 -732 795 0
-633 -679 -733 796 0
-633 -679 -734 797 0
-633 -679 -735 798 0
-633 -679 -736 799 0
-633 -679 -737 800 0
-633 -679 -738 801 0
-633 -679 -739 802 0
-633 -679 -740 803 0
-633 -679 -741 804 0
-633 -679 -742 805 0
-633 -679 -743 806 0
-633 -679 -744 807 0
-633 -679 -745 807 0
-633 -679 -746 807 0
-633 -679 -747 807 0
-633 -679 -748 807 0
-633 -679 -749 807 0
-633 -679 -750 807 0
-633 -679 -751 807 0
-633 -679 -752 807 0
-633 -679 -753 807 0
-633 -679 -754 807 0
-633 -679 -755 807 0
-633 -680 -730 794 0
-633 -680 -731 795 0
-633 -680 -732 796 0
-633 -680 -733 797 0
-633 -680 -734 798 0
-633 -680 -735 799 0
-633 -680 -736 800 0
-633 -680 -737 801 0
-633 -680 -738 802 0
-633 -680 -739 803 0
-633 -680 -740 804 0
-633 -680 -741 805 0
-633 -680 -742 806 0
-633 -680 -743 807 0
-633 -680 -744 807 0
-633 -680 -745 807 0
-633 -680 -746 807 0
-633 -680 -747 807 0
-633 -680 -748 807 0
-633 -680 -749 807 0
-633 -680 -750 807 0
-633 -680 -751 807 0
-633 -680 -752 807 0
-633 -680 -753 807 0
-633 -680 -754 807 0
-633 -680 -755 807 0
-633 -681 -730 795 0
-633 -681 -731 796 0
-633 -681 -732 797 0
-633 -681 -733 798 0
-633 -681 -734 799 0
-633 -681 -735 800 0
-633 -681 -736 801 0
-633 -681 -737 802 0
-633 -681 -738 803 0
-633 -681 -739 804 0
-633 -681 -740 805 0
-633 -681 -741 806 0
-633 -681 -742 807 0
-633 -681 -743 807 0
-633 -681 -744 807 0
-633 -681 -745 807 0
-633 -681 -746 807 0
-633 -681 -747 807 0
-633 -681 -748 807 0
-633 -681 -749 807 0
-633 -681 -750 807 0
-633 -681 -751 807 0
-633 -681 -752 807 0
-633 -681 -753 807 0
-633 -681 -754 807 0
-633 -681 -755 807 0
-633 -682 -730 796 0
-633 -682 -731 797 0
-633 -682 -732 798 0
-633 -682 -733 799 0
-633 -682 -734 800 0
-633 -682 -735 801 0
-633 -682 -736 802 0
-633 -682 -737 803 0
-633 -682 -738 804 0
-633 -682 -739 805 0
-633 -682 -740 806 0
-633 -682 -741 807 0
-633 -682 -742 807 0
-633 -682 -743 807 0
-633 -682 -744 807 0
-633 -682 -745 807 0
-633 -682 -746 807 0
-633 -682 -747 807 0
-633 -682 -748 807 0
-633 -682 -749 807 0
-633 -682 -750 807 0
-633 -682 -751 807 0
-633 -682 -752 807 0
-633 -682 -753 807 0
-633 -682 -754 807 0
-633 -682 -755 807 0
-633 -683 -730 797 0
-633 -683 -731 798 0
-633 -683 -732 799 0
-633 -683 -733 800 0
-633 -683 -734 801 0
-633 -683 -735 802 0
-633 -683 -736 803 0
-633 -683 -737 804 0
-633 -683 -738 805 0
-633 -683 -739 806 0
-633 -683 -740 807 0
-633 -683 -741 807 0
-633 -683 -742 807 0
-633 -683 -743 807 0
-633 -683 -744 807 0
-633 -683 -745 807 0
-633 -683 -746 807 0
-633 -683 -747 807 0
-633 -683 -748 807 0
-633 -683 -749 807 0
-633 -683 -750 807 0
-633 -683 -751 807 0
-633 -683 -752 807 0
-633 -683 -753 807 0
-633 -683 -754 807 0
-633 -683 -755 807 0
-633 -684 -730 798 0
-633 -684 -731 799 0
-633 -684 -732 800 0
-633 -684 -733 801 0
-633 -684 -734 802 0
-633 -684 -735 803 0
-633 -684 -736 804 0
-633 -684 -737 805 0
-633 -684 -738 806 0
-633 -684 -739 807 0
-633 -684 -740 807 0
-633 -684 -741 807 0
-633 -684 -742 807 0
-633 -684 -743 807 0
-633 -684 -744 807 0
-633 -684 -745 807 0
-633 -684 -746 807 0
-633 -684 -747 807 0
-633 -684 -748 807 0
-633 -684 -749 807 0
-633 -684 -750 807 0
-633 -684 -751 807 0
-633 -684 -752 807 0
-633 -684 -753 807 0
-633 -684 -754 807 0
-633 -684 -755 807 0
-633 -685 -730 799 0
-633 -685 -731 800 0
-633 -685 -732 801 0
-633 -685 -733 802 0
-633 -685 -734 803 0
-633 -685 -735 804 0
-633 -685 -736 805 0
-633 -685 -737 806 0
-633 -685 -738 807 0
-633 -685 -739 807 0
-633 -685 -740 807 0
-633 -685 -741 807 0
-633 -685 -742 807 0
-633 -685 -743 807 0
-633 -685 -744 807 0
-633 -685 -745 807 0
-633 -685 -746 807 0
-633 -685 -747 807 0
-633 -685 -748 807 0
-633 -685 -749 807 0
-633 -685 -750 807 0
-633 -685 -751 807 0
-633 -685 -752 807 0
-633 -685 -753 807 0
-633 -685 -754 807 0
-633 -685 -755 807 0
-633 -686 -730 800 0
-633 -686 -731 801 0
-633 -686 -732 802 0
-633 -686 -733 803 0
-633 -686 -734 804 0
-633 -686 -735 805 0
-633 -686 -736 806 0
-633 -686 -737 807 0
-633 -686 -738 807 0
-633 -686 -739 807 0
-633 -686 -740 807 0
-633 -686 -741 807 0
-633 -686 -742 807 0
-633 -686 -743 807 0
-633 -686 -744 807 0
-633 -686 -745 807 0
-633 -686 -746 807 0
-633 -686 -747 807 0
-633 -686 -748 807 0
-633 -686 -749 807 0
-633 -686 -750 807 0
-633 -686 -751 807 0
-633 -686 -752 807 0
-633 -686 -753 807 0
-633 -686 -754 807 0
-633 -686 -755 807 0
-633 -687 -730 801 0
-633 -687 -731 802 0
-633 -687 -732 803 0
-633 -687 -733 804 0
-633 -687 -734 805 0
-633 -687 -735 806 0
-633 -687 -736 807 0
-633 -687 -737 807 0
-633 -687 -738 807 0
-633 -687 -739 807 0
-633 -687 -740 807 0
-633 -687 -741 807 0
-633 -687 -742 807 0
-633 -687 -743 807 0
-633 -687 -744 807 0
-633 -687 -745 807 0
-633 -687 -746 807 0
-633 -687 -747 807 0
-633 -687 -748 807 0
-633 -687 -749 807 0
-633 -687 -750 807 0
-633 -687 -751 807 0
-633 -687 -752 807 0
-633 -687 -753 807 0
-633 -687 -754 807 0
-633 -687 -755 807 0
-633 -688 -730 802 0
-633 -688 -731 803 0
-633 -688 -732 804 0
-633 -688 -733 805 0
-633 -688 -734 806 0
-633 -688 -735 807 0
-633 -688 -736 807 0
-633 -688 -737 807 0
-633 -688 -738 807 0
-633 -688 -739 807 0
-633 -688 -740 807 0
-633 -688 -741 807 0
-633 -688 -742 807 0
-633 -688 -743 807 0
-633 -688 -744 807 0
-633 -688 -745 807 0
-633 -688 -746 807 0
-633 -688 -747 807 0
-633 -688 -748 807 0
-633 -688 -749 807 0
-633 -688 -750 807 0
-633 -688 -751 807 0
-633 -688 -752 807 0
-633 -688 -753 807 0
-633 -688 -754 807 0
-633 -688 -755 807 0
-633 -689 -730 803 0
-633 -689 -731 804 0
-633 -689 -732 805 0
-633 -689 -733 806 0
-633 -689 -734 807 0
-633 -689 -735 807 0
-633 -689 -736 807 0
-633 -689 -737 807 0
-633 -689 -738 807 0
-633 -689 -739 807 0
-633 -689 -740 807 0
-633 -689 -741 807 0
-633 -689 -742 807 0
-633 -689 -743 807 0
-633 -689 -744 807 0
-633 -689 -745 807 0
-633 -689 -746 807 0
-633 -689 -747 807 0
-633 -689 -748 807 0
-633 -689 -749 807 0
-633 -689 -750 807 0
-633 -689 -751 807 0
-633 -689 -752 807 0
-633 -689 -753 807 0
-633 -689 -754 807 0
-633 -689 -755 807 0
-633 -690 -730 804 0
-633 -690 -731 805 0
-633 -690 -732 806 0
-633 -690 -733 807 0
-633 -690 -734 807 0
-633 -690 -735 807 0
-633 -690 -736 807 0
-633 -690 -737 807 0
-633 -690 -738 807 0
-633 -690 -739 807 0
-633 -690 -740 807 0
-633 -690 -741 807 0
-633 -690 -742 807 0
-633 -690 -743 807 0
-633 -690 -744 807 0
-633 -690 -745 807 0
-633 -690 -746 807 0
-633 -690 -747 807 0
-633 -690 -748 807 0
-633 -690 -749 807 0
-633 -690 -750 807 0
-633 -690 -751 807 0
-633 -690 -752 807 0
-633 -690 -753 807 0
-633 -690 -754 807 0
-633 -690 -755 807 0
-633 -691 -730 805 0
-633 -691 -731 806 0
-633 -691 -732 807 0
-633 -691 -733 807 0
-633 -691 -734 807 0
-633 -691 -735 807 0
-633 -691 -736 807 0
-633 -691 -737 807 0
-633 -691 -738 807 0
-633 -691 -739 807 0
-633 -691 -740 807 0
-633 -691 -741 807 0
-633 -691 -742 807 0
-633 -691 -743 807 0
-633 -691 -744 807 0
-633 -691 -745 807 0
-633 -691 -746 807 0
-633 -691 -747 807 0
-633 -691 -748 807 0
-633 -691 -749 807 0
-633 -691 -750 807 0
-633 -691 -751 807 0
-633 -691 -752 807 0
-633 -691 -753 807 0
-633 -691 -754 807 0
-633 -691 -755 807 0
-633 -692 -730 806 0
-633 -692 -731 807 0
-633 -692 -732 807 0
-633 -692 -733 807 0
-633 -692 -734 807 0
-633 -692 -735 807 0
-633 -692 -736 807 0
-633 -692 -737 807 0
-633 -692 -738 807 0
-633 -692 -739 807 0
-633 -692 -740 807 0
-633 -692 -741 807 0
-633 -692 -742 807 0
-633 -692 -743 807 0
-633 -692 -744 807 0
-633 -692 -745 807 0
-633 -692 -746 807 0
-633 -692 -747 807 0
-633 -692 -748 807 0
-633 -692 -749 807 0
-633 -692 -750 807 0
-633 -692 -751 807 0
-633 -692 -752 807 0
-633 -692 -753 807 0
-633 -692 -754 807 0
-633 -692 -755 807 0
-633 -693 -730 807 0
-633 -693 -731 807 0
-633 -693 -732 807 0
-633 -693 -733 807 0
-633 -693 -734 807 0
-633 -693 -735 807 0
-633 -693 -736 807 0
-633 -693 -737 807 0
-633 -693 -738 807 0
-633 -693 -739 807 0
-633 -693 -740 807 0
-633 -693 -741 807 0
-633 -693 -742 807 0
-633 -693 -743 807 0
-633 -693 -744 807 0
-633 -693 -745 807 0
-633 -693 -746 807 0
-633 -693 -747 807 0
-633 -693 -748 807 0
-633 -693 -749 807 0
-633 -693 -750 807 0
-633 -693 -751 807 0
-633 -693 -752 807 0
-633 -693 -753 807 0
-633 -693 -754 807 0
-633 -693 -755 807 0
-633 -694 -730 807 0
-633 -694 -731 807 0
-633 -694 -732 807 0
-633 -694 -733 807 0
-633 -694 -734 807 0
-633 -694 -735 807 0
-633 -694 -736 807 0
-633 -694 -737 807 0
-633 -694 -738 807 0
-633 -694 -739 807 0
-633 -694 -740 807 0
-633 -694 -741 807 0
-633 -694 -742 807 0
-633 -694 -743 807 0
-633 -694 -744 807 0
-633 -694 -745 807 0
-633 -694 -746 807 0
-633 -694 -747 807 0
-633 -694 -748 807 0
-633 -694 -749 807 0
-633 -694 -750 807 0
-633 -694 -751 807 0
-633 -694 -752 807 0
-633 -694 -753 807 0
-633 -694 -754 807 0
-633 -694 -755 807 0
-633 -695 -730 807 0
-633 -695 -731 807 0
-633 -695 -732 807 0
-633 -695 -733 807 0
-633 -695 -734 807 0
-633 -695 -735 807 0
-633 -695 -736 807 0
-633 -695 -737 807 0
-633 -695 -738 807 0
-633 -695 -739 807 0
-633 -695 -740 807 0
-633 -695 -741 807 0
-633 -695 -742 807 0
-633 -695 -743 807 0
-633 -695 -744 807 0
-633 -695 -745 807 0
-633 -695 -746 807 0
-633 -695 -747 807 0
-633 -695 -748 807 0
-633 -695 -749 807 0
-633 -695 -750 807 0
-633 -695 -751 807 0
-633 -695 -752 807 0
-633 -695 -753 807 0
-633 -695 -754 807 0
-633 -695 -755 807 0
-633 -696 -730 807 0
-633 -696 -731 807 0
-633 -696 -732 807 0
-633 -696 -733 807 0
-633 -696 -734 807 0
-633 -696 -735 807 0
-633 -696 -736 807 0
-633 -696 -737 807 0
-633 -696 -738 807 0
-633 -696 -739 807 0
-633 -696 -740 807 0
-633 -696 -741 807 0
-633 -696 -742 807 0
-633 -696 -743 807 0
-633 -696 -744 807 0
-633 -696 -745 807 0
-633 -696 -746 807 0
-633 -696 -747 807 0
-633 -696 -748 807 0
-633 -696 -749 807 0
-633 -696 -750 807 0
-633 -696 -751 807 0
-633 -696 -752 807 0
-633 -696 -753 807 0
-633 -696 -754 807 0
-633 -696 -755 807 0
-633 -697 -730 807 0
-633 -697 -731 807 0
-633 -697 -732 807 0
-633 -697 -733 807 0
-633 -697 -734 807 0
-633 -697 -735 807 0
-633 -697 -736 807 0
-633 -697 -737 807 0
-633 -697 -738 807 0
-633 -697 -739 807 0
-633 -697 -740 807 0
-633 -697 -741 807 0
-633 -697 -742 807 0
-633 -697 -743 807 0
-633 -697 -744 807 0
-633 -697 -745 807 0
-633 -697 -746 807 0
-633 -697 -747 807 0
-633 -697 -748 807 0
-633 -697 -749 807 0
-633 -697 -750 807 0
-633 -697 -751 807 0
-633 -697 -752 807 0
-633 -697 -753 807 0
-633 -697 -754 807 0
-633 -697 -755 807 0
-633 -698 -730 807 0
-633 -698 -731 807 0
-633 -698 -732 807 0
-633 -698 -733 807 0
-633 -698 -734 807 0
-633 -698 -735 807 0
-633 -698 -736 807 0
-633 -698 -737 807 0
-633 -698 -738 807 0
-633 -698 -739 807 0
-633 -698 -740 807 0
-633 -698 -741 807 0
-633 -698 -742 807 0
-633 -698 -743 807 0
-633 -698 -744 807 0
-633 -698 -745 807 0
-633 -698 -746 807 0
-633 -698 -747 807 0
-633 -698 -748 807 0
-633 -698 -749 807 0
-633 -698 -750 807 0
-633 -698 -751 807 0
-633 -698 -752 807 0
-633 -698 -753 807 0
-633 -698 -754 807 0
-633 -698 -755 807 0
-633 -699 -730 807 0
-633 -699 -731 807 0
-633 -699 -732 807 0
-633 -699 -733 807 0
-633 -699 -734 807 0
-633 -699 -735 807 0
-633 -699 -736 807 0
-633 -699 -737 807 0
-633 -699 -738 807 0
-633 -699 -739 807 0
-633 -699 -740 807 0
-633 -699 -741 807 0
-633 -699 -742 807 0
-633 -699 -743 807 0
-633 -699 -744 807 0
-633 -699 -745 807 0
-633 -699 -746 807 0
-633 -699 -747 807 0
-633 -699 -748 807 0
-633 -699 -749 807 0
-633 -699 -750 807 0
-633 -699 -751 807 0
-633 -699 -752 807 0
-633 -699 -753 807 0
-633 -699 -754 807 0
-633 -699 -755 807 0
-633 -700 -730 807 0
-633 -700 -731 807 0
-633 -700 -732 807 0
-633 -700 -733 807 0
-633 -700 -734 807 0
-633 -700 -735 807 0
-633 -700 -736 807 0
-633 -700 -737 807 0
-633 -700 -738 807 0
-633 -700 -739 807 0
-633 -700 -740 807 0
-633 -700 -741 807 0
-633 -700 -742 807 0
-633 -700 -743 807 0
-633 -700 -744 807 0
-633 -700 -745 807 0
-633 -700 -746 807 0
-633 -700 -747 807 0
-633 -700 -748 807 0
-633 -700 -749 807 0
-633 -700 -750 807 0
-633 -700 -751 807 0
-633 -700 -752 807 0
-633 -700 -753 807 0
-633 -700 -754 807 0
-633 -700 -755 807 0
-633 -701 -730 807 0
-633 -701 -731 807 0
-633 -701 -732 807 0
-633 -701 -733 807 0
-633 -701 -734 807 0
-633 -701 -735 807 0
-633 -701 -736 807 0
-633 -701 -737 807 0
-633 -701 -738 807 0
-633 -701 -739 807 0
-633 -701 -740 807 0
-633 -701 -741 807 0
-633 -701 -742 807 0
-633 -701 -743 807 0
-633 -701 -744 807 0
-633 -701 -745 807 0
-633 -701 -746 807 0
-633 -701 -747 807 0
-633 -701 -748 807 0
-633 -701 -749 807 0
-633 -701 -750 807 0
-633 -701 -751 807 0
-633 -701 -752 807 0
-633 -701 -753 807 0
-633 -701 -754 807 0
-633 -701 -755 807 0
-633 -702 -730 807 0
-633 -702 -731 807 0
-633 -702 -732 807 0
-633 -702 -733 807 0
-633 -702 -734 807 0
-633 -702 -735 807 0
-633 -702 -736 807 0
-633 -702 -737 807 0
-633 -702 -738 807 0
-633 -702 -739 807 0
-633 -702 -740 807 0
-633 -702 -741 807 0
-633 -702 -742 807 0
-633 -702 -743 807 0
-633 -702 -744 807 0
-633 -702 -745 807 0
-633 -702 -746 807 0
-633 -702 -747 807 0
-633 -702 -748 807 0
-633 -702 -749 807 0
-633 -702 -750 807 0
-633 -702 -751 807 0
-633 -702 -752 807 0
-633 -702 -753 807 0
-633 -702 -754 807 0
-633 -702 -755 807 0
-633 -703 -730 807 0
-633 -703 -731 807 0
-633 -703 -732 807 0
-633 -703 -733 807 0
-633 -703 -734 807 0
-633 -703 -735 807 0
-633 -703 -736 807 0
-633 -703 -737 807 0
-633 -703 -738 807 0
-633 -703 -739 807 0
-633 -703 -740 807 0
-633 -703 -741 807 0
-633 -703 -742 807 0
-633 -703 -743 807 0
-633 -703 -744 807 0
-633 -703 -745 807 0
-633 -703 -746 807 0
-633 -703 -747 807 0
-633 -703 -748 807 0
-633 -703 -749 807 0
-633 -703 -750 807 0
-633 -703 -751 807 0
-633 -703 -752 807 0
-633 -703 -753 807 0
-633 -703 -754 807 0
-633 -703 -755 807 0
-634 -678 -730 793 0
-634 -678 -731 794 0
-634 -678 -732 795 0
-634 -678 -733 796 0
-634 -678 -734 797 0
-634 -678 -735 798 0
-634 -678 -736 799 0
-634 -678 -737 800 0
-634 -678 -738 801 0
-634 -678 -739 802 0
-634 -678 -740 803 0
-634 -678 -741 804 0
-634 -678 -742 805 0
-634 -678 -743 806 0
-634 -678 -744 807 0
-634 -678 -745 807 0
-634 -678 -746 807 0
-634 -678 -747 807 0
-634 -678 -748 807 0
-634 -678 -749 807 0
-634 -678 -750 807 0
-634 -678 -751 807 0
-634 -678 -752 807 0
-634 -678 -753 807 0
-634 -678 -754 807 0
-634 -678 -755 807 0
-634 -679 -730 794 0
-634 -679 -731 795 0
-634 -679 -732 796 0
-634 -679 -733 797 0
-634 -679 -734 798 0
-634 -679 -735 799 0
-634 -679 -736 800 0
-634 -679 -737 801 0
-634 -679 -738 802 0
-634 -679 -739 803 0
-634 -679 -740 804 0
-634 -679 -741 805 0
-634 -679 -742 806 0
-634 -679 -743 807 0
-634 -679 -744 807 0
-634 -679 -745 807 0
-634 -679 -746 807 0
-634 -679 -747 807 0
-634 -679 -748 807 0
-634 -679 -749 807 0
-634 -679 -750 807 0
-634 -679 -751 807 0
-634 -679 -752 807 0
-634 -679 -753 807 0
-634 -679 -754 807 0
-634 -679 -755 807 0
-634 -680 -730 795 0
-634 -680 -731 796 0
-634 -680 -732 797 0
-634 -680 -733 798 0
-634 -680 -734 799 0
-634 -680 -735 800 0
-634 -680 -736 801 0
-634 -680 -737 802 0
-634 -680 -738 803 0
-634 -680 -739 804 0
-634 -680 -740 805 0
-634 -680 -741 806 0
-634 -680 -742 807 0
-634 -680 -743 807 0
-634 -680 -744 807 0
-634 -680 -745 807 0
-634 -680 -746 807 0
-634 -680 -747 807 0
-634 -680 -748 807 0
-634 -680 -749 807 0
-634 -680 -750 807 0
-634 -680 -751 807 0
-634 -680 -752 807 0
-634 -680 -753 807 0
-634 -680 -754 807 0
-634 -680 -755 807 0
-634 -681 -730 796 0
-634 -681 -731 797 0
-634 -681 -732 798 0
-634 -681 -733 799 0
-634 -681 -734 800 0
-634 -681 -735 801 0
-634 -681 -736 802 0
-634 -681 -737 803 0
-634 -681 -738 804 0
-634 -681 -739 805 0
-634 -681 -740 806 0
-634 -681 -741 807 0
-634 -681 -742 807 0
-634 -681 -743 807 0
-634 -681 -744 807 0
-634 -681 -745 807 0
-634 -681 -746 807 0
-634 -681 -747 807 0
-634 -681 -748 807 0
-634 -681 -749 807 0
-634 -681 -750 807 0
-634 -681 -751 807 0
-634 -681 -752 807 0
-634 -681 -753 807 0
-634 -681 -754 807 0
-634 -681 -755 807 0
-634 -682 -730 797 0
-634 -682 -731 798 0
-634 -682 -732 799 0
-634 -682 -733 800 0
-634 -682 -734 801 0
-634 -682 -735 802 0
-634 -682 -736 803 0
-634 -682 -737 804 0
-634 -682 -738 805 0
-634 -682 -739 806 0
-634 -682 -740 807 0
-634 -682 -741 807 0
-634 -682 -742 807 0
-634 -682 -743 807 0
-634 -682 -744 807 0
-634 -682 -745 807 0
-634 -682 -746 807 0
-634 -682 -747 807 0
-634 -682 -748 807 0
-634 -682 -749 807 0
-634 -682 -750 807 0
-634 -682 -751 807 0
-634 -682 -752 807 0
-634 -682 -753 807 0
-634 -682 -754 807 0
-634 -682 -755 807 0
-634 -683 -730 798 0
-634 -683 -731 799 0
-634 -683 -732 800 0
-634 -683 -733 801 0
-634 -683 -734 802 0
-634 -683 -735 803 0
-634 -683 -736 804 0
-634 -683 -737 805 0
-634 -683 -738 806 0
-634 -683 -739 807 0
-634 -683 -740 807 0
-634 -683 -741 807 0
-634 -683 -742 807 0
-634 -683 -743 807 0
-634 -683 -744 807 0
-634 -683 -745 807 0
-634 -683 -746 807 0
-634 -683 -747 807 0
-634 -683 -748 807 0
-634 -683 -749 807 0
-634 -683 -750 807 0
-634 -683 -751 807 0
-634 -683 -752 807 0
-634 -683 -753 807 0
-634 -683 -754 807 0
-634 -683 -755 807 0
-634 -684 -730 799 0
-634 -684 -731 800 0
-634 -684 -732 801 0
-634 -684 -733 802 0
-634 -684 -734 803 0
-634 -684 -735 804 0
-634 -684 -736 805 0
-634 -684 -737 806 0
-634 -684 -738 807 0
-634 -684 -739 807 0
-634 -684 -740 807 0
-634 -684 -741 807 0
-634 -684 -742 807 0
-634 -684 -743 807 0
-634 -684 -744 807 0
-634 -684 -745 807 0
-634 -684 -746 807 0
-634 -684 -747 807 0
-634 -684 -748 807 0
-634 -684 -749 807 0
-634 -684 -750 807 0
-634 -684 -751 807 0
-634 -684 -752 807 0
-634 -684 -753 807 0
-634 -684 -754 807 0
-634 -684 -755 807 0
-634 -685 -730 800 0
-634 -685 -731 801 0
-634 -685 -732 802 0
-634 -685 -733 803 0
-634 -685 -734 804 0
-634 -685 -735 805 0
-634 -685 -736 806 0
-634 -685 -737 807 0
-634 -685 -738 807 0
-634 -685 -739 807 0
-634 -685 -740 807 0
-634 -685 -741 807 0
-634 -685 -742 807 0
-634 -685 -743 807 0
-634 -685 -744 807 0
-634 -685 -745 807 0
-634 -685 -746 807 0
-634 -685 -747 807 0
-634 -685 -748 807 0
-634 -685 -749 807 0
-634 -685 -750 807 0
-634 -685 -751 807 0
-634 -685 -752 807 0
-634 -685 -753 807 0
-634 -685 -754 807 0
-634 -685 -755 807 0
-634 -686 -730 801 0
-634 -686 -731 802 0
-634 -686 -732 803 0
-634 -686 -733 804 0
-634 -686 -734 805 0
-634 -686 -735 806 0
-634 -686 -736 807 0
-634 -686 -737 807 0
-634 -686 -738 807 0
-634 -686 -739 807 0
-634 -686 -740 807 0
-634 -686 -741 807 0
-634 -686 -742 807 0
-634 -686 -743 807 0
-634 -686 -744 807 0
-634 -686 -745 807 0
-634 -686 -746 807 0
-634 -686 -747 807 0
-634 -686 -748 807 0
-634 -686 -749 807 0
-634 -686 -750 807 0
-634 -686 -751 807 0
-634 -686 -752 807 0
-634 -686 -753 807 0
-634 -686 -754 807 0
-634 -686 -755 807 0
-634 -687 -730 802 0
-634 -687 -731 803 0
-634 -687 -732 804 0
-634 -687 -733 805 0
-634 -687 -734 806 0
-634 -687 -735 807 0
-634 -687 -736 807 0
-634 -687 -737 807 0
-634 -687 -738 807 0
-634 -687 -739 807 0
-634 -687 -740 807 0
-634 -687 -741 807 0
-634 -687 -742 807 0
-634 -687 -743 807 0
-634 -687 -744 807 0
-634 -687 -745 807 0
-634 -687 -746 807 0
-634 -687 -747 807 0
-634 -687 -748 807 0
-634 -687 -749 807 0
-634 -687 -750 807 0
-634 -687 -751 807 0
-634 -687 -752 807 0
-634 -687 -753 807 0
-634 -687 -754 807 0
-634 -687 -755 807 0
-634 -688 -730 803 0
-634 -688 -731 804 0
-634 -688 -732 805 0
-634 -688 -733 806 0
-634 -688 -734 807 0
-634 -688 -735 807 0
-634 -688 -736 807 0
-634 -688 -737 807 0
-634 -688 -738 807 0
-634 -688 -739 807 0
-634 -688 -740 807 0
-634 -688 -741 807 0
-634 -688 -742 807 0
-634 -688 -743 807 0
-634 -688 -744 807 0
-634 -688 -745 807 0
-634 -688 -746 807 0
-634 -688 -747 807 0
-634 -688 -748 807 0
-634 -688 -749 807 0
-634 -688 -750 807 0
-634 -688 -751 807 0
-634 -688 -752 807 0
-634 -688 -753 807 0
-634 -688 -754 807 0
-634 -688 -755 807 0
-634 -689 -730 804 0
-634 -689 -731 805 0
-634 -689 -732 806 0
-634 -689 -733 807 0
-634 -689 -734 807 0
-634 -689 -735 807 0
-634 -689 -736 807 0
-634 -689 -737 807 0
-634 -689 -738 807 0
-634 -689 -739 807 0
-634 -689 -740 807 0
-634 -689 -741 807 0
-634 -689 -742 807 0
-634 -689 -743 807 0
-634 -689 -744 807 0
-634 -689 -745 807 0
-634 -689 -746 807 0
-634 -689 -747 807 0
-634 -689 -748 807 0
-634 -689 -749 807 0
-634 -689 -750 807 0
-634 -689 -751 807 0
-634 -689 -752 807 0
-634 -689 -753 807 0
-634 -689 -754 807 0
-634 -689 -755 807 0
-634 -690 -730 805 0
-634 -690 -731 806 0
-634 -690 -732 807 0
-634 -690 -733 807 0
-634 -690 -734 807 0
-634 -690 -735 807 0
-634 -690 -736 807 0
-634 -690 -737 807 0
-634 -690 -738 807 0
-634 -690 -739 807 0
-634 -690 -740 807 0
-634 -690 -741 807 0
-634 -690 -742 807 0
-634 -690 -743 807 0
-634 -690 -744 807 0
-634 -690 -745 807 0
-634 -690 -746 807 0
-634 -690 -747 807 0
-634 -690 -748 807 0
-634 -690 -749 807 0
-634 -690 -750 807 0
-634 -690 -751 807 0
-634 -690 -752 807 0
-634 -690 -753 807 0
-634 -690 -754 807 0
-634 -690 -755 807 0
-634 -691 -730 806 0
-634 -691 -731 807 0
-634 -691 -732 807 0
-634 -691 -733 807 0
-634 -691 -734 807 0
-634 -691 -735 807 0
-634 -691 -736 807 0
-634 -691 -737 807 0
-634 -691 -738 807 0
-634 -691 -739 807 0
-634 -691 -740 807 0
-634 -691 -741 807 0
-634 -691 -742 807 0
-634 -691 -743 807 0
-634 -691 -744 807 0
-634 -691 -745 807 0
-634 -691 -746 807 0
-634 -691 -747 807 0
-634 -691 -748 807 0
-634 -691 -749 807 0
-634 -691 -750 807 0
-634 -691 -751 807 0
-634 -691 -752 807 0
-634 -691 -753 807 0
-634 -691 -754 807 0
-634 -691 -755 807 0
-634 -692 -730 807 0
-634 -692 -731 807 0
-634 -692 -732 807 0
-634 -692 -733 807 0
-634 -692 -734 807 0
-634 -692 -735 807 0
-634 -692 -736 807 0
-634 -692 -737 807 0
-634 -692 -738 807 0
-634 -692 -739 807 0
-634 -692 -740 807 0
-634 -692 -741 807 0
-634 -692 -742 807 0
-634 -692 -743 807 0
-634 -692 -744 807 0
-634 -692 -745 807 0
-634 -692 -746 807 0
-634 -692 -747 807 0
-634 -692 -748 807 0
-634 -692 -749 807 0
-634 -692 -750 807 0
-634 -692 -751 807 0
-634 -692 -752 807 0
-634 -692 -753 807 0
-634 -692 -754 807 0
-634 -692 -755 807 0
-634 -693 -730 807 0
-634 -693 -731 807 0
-634 -693 -732 807 0
-634 -693 -733 807 0
-634 -693 -734 807 0
-634 -693 -735 807 0
-634 -693 -736 807 0
-634 -693 -737 807 0
-634 -693 -738 807 0
-634 -693 -739 807 0
-634 -693 -740 807 0
-634 -693 -741 807 0
-634 -693 -742 807 0
-634 -693 -743 807 0
-634 -693 -744 807 0
-634 -693 -745 807 0
-634 -693 -746 807 0
-634 -693 -747 807 0
-634 -693 -748 807 0
-634 -693 -749 807 0
-634 -693 -750 807 0
-634 -693 -751 807 0
-634 -693 -752 807 0
-634 -693 -753 807 0
-634 -693 -754 807 0
-634 -693 -755 807 0
-634 -694 -730 807 0
-634 -694 -731 807 0
-634 -694 -732 807 0
-634 -694 -733 807 0
-634 -694 -734 807 0
-634 -694 -735 807 0
-634 -694 -736 807 0
-634 -694 -737 807 0
-634 -694 -738 807 0
-634 -694 -739 807 0
-634 -694 -740 807 0
-634 -694 -741 807 0
-634 -694 -742 807 0
-634 -694 -743 807 0
-634 -694 -744 807 0
-634 -694 -745 807 0
-634 -694 -746 807 0
-634 -694 -747 807 0
-634 -694 -748 807 0
-634 -694 -749 807 0
-634 -694 -750 807 0
-634 -694 -751 807 0
-634 -694 -752 807 0
-634 -694 -753 807 0
-634 -694 -754 807 0
-634 -694 -755 807 0
-634 -695 -730 807 0
-634 -695 -731 807 0
-634 -695 -732 807 0
-634 -695 -733 807 0
-634 -695 -734 807 0
-634 -695 -735 807 0
-634 -695 -736 807 0
-634 -695 -737 807 0
-634 -695 -738 807 0
-634 -695 -739 807 0
-634 -695 -740 807 0
-634 -695 -741 807 0
-634 -695 -742 807 0
-634 -695 -743 807 0
-634 -695 -744 807 0
-634 -695 -745 807 0
-634 -695 -746 807 0
-634 -695 -747 807 0
-634 -695 -748 807 0
-634 -695 -749 807 0
-634 -695 -750 807 0
-634 -695 -751 807 0
-634 -695 -752 807 0
-634 -695 -753 807 0
-634 -695 -754 807 0
-634 -695 -755 807 0
-634 -696 -730 807 0
-634 -696 -731 807 0
-634 -696 -732 807 0
-634 -696 -733 807 0
-634 -696 -734 807 0
-634 -696 -735 807 0
-634 -696 -736 807 0
-634 -696 -737 807 0
-634 -696 -738 807 0
-634 -696 -739 807 0
-634 -696 -740 807 0
-634 -696 -741 807 0
-634 -696 -742 807 0
-634 -696 -743 807 0
-634 -696 -744 807 0
-634 -696 -745 807 0
-634 -696 -746 807 0
-634 -696 -747 807 0
-634 -696 -748 807 0
-634 -696 -749 807 0
-634 -696 -750 807 0
-634 -696 -751 807 0
-634 -696 -752 807 0
-634 -696 -753 807 0
-634 -696 -754 807 0
-634 -696 -755 807 0
-634 -697 -730 807 0
-634 -697 -731 807 0
-634 -697 -732 807 0
-634 -697 -733 807 0
-634 -697 -734 807 0
-634 -697 -735 807 0
-634 -697 -736 807 0
-634 -697 -737 807 0
-634 -697 -738 807 0
-634 -697 -739 807 0
-634 -697 -740 807 0
-634 -697 -741 807 0
-634 -697 -742 807 0
-634 -697 -743 807 0
-634 -697 -744 807 0
-634 -697 -745 807 0
-634 -697 -746 807 0
-634 -697 -747 807 0
-634 -697 -748 807 0
-634 -697 -749 807 0
-634 -697 -750 807 0
-634 -697 -751 807 0
-634 -697 -752 807 0
-634 -697 -753 807 0
-634 -697 -754 807 0
-634 -697 -755 807 0
-634 -698 -730 807 0
-634 -698 -731 807 0
-634 -698 -732 807 0
-634 -698 -733 807 0
-634 -698 -734 807 0
-634 -698 -735 807 0
-634 -698 -736 807 0
-634 -698 -737 807 0
-634 -698 -738 807 0
-634 -698 -739 807 0
-634 -698 -740 807 0
-634 -698 -741 807 0
-634 -698 -742 807 0
-634 -698 -743 807 0
-634 -698 -744 807 0
-634 -698 -745 807 0
-634 -698 -746 807 0
-634 -698 -747 807 0
-634 -698 -748 807 0
-634 -698 -749 807 0
-634 -698 -750 807 0
-634 -698 -751 807 0
-634 -698 -752 807 0
-634 -698 -753 807 0
-634 -698 -754 807 0
-634 -698 -755 807 0
-634 -699 -730 807 0
-634 -699 -731 807 0
-634 -699 -732 807 0
-634 -699 -733 807 0
-634 -699 -734 807 0
-634 -699 -735 807 0
-634 -699 -736 807 0
-634 -699 -737 807 0
-634 -699 -738 807 0
-634 -699 -739 807 0
-634 -699 -740 807 0
-634 -699 -741 807 0
-634 -699 -742 807 0
-634 -699 -743 807 0
-634 -699 -744 807 0
-634 -699 -745 807 0
-634 -699 -746 807 0
-634 -699 -747 807 0
-634 -699 -748 807 0
-634 -699 -749 807 0
-634 -699 -750 807 0
-634 -699 -751 807 0
-634 -699 -752 807 0
-634 -699 -753 807 0
-634 -699 -754 807 0
-634 -699 -755 807 0
-634 -700 -730 807 0
-634 -700 -731 807 0
-634 -700 -732 807 0
-634 -700 -733 807 0
-634 -700 -734 807 0
-634 -700 -735 807 0
-634 -700 -736 807 0
-634 -700 -737 807 0
-634 -700 -738 807 0
-634 -700 -739 807 0
-634 -700 -740 807 0
-634 -700 -741 807 0
-634 -700 -742 807 0
-634 -700 -743 807 0
-634 -700 -744 807 0
-634 -700 -745 807 0
-634 -700 -746 807 0
-634 -700 -747 807 0
-634 -700 -748 807 0
-634 -700 -749 807 0
-634 -700 -750 807 0
-634 -700 -751 807 0
-634 -700 -752 807 0
-634 -700 -753 807 0
-634 -700 -754 807 0
-634 -700 -755 807 0
-634 -701 -730 807 0
-634 -701 -731 807 0
-634 -701 -732 807 0
-634 -701 -733 807 0
-634 -701 -734 807 0
-634 -701 -735 807 0
-634 -701 -736 807 0
-634 -701 -737 807 0
-634 -701 -738 807 0
-634 -701 -739 807 0
-634 -701 -740 807 0
-634 -701 -741 807 0
-634 -701 -742 807 0
-634 -701 -743 807 0
-634 -701 -744 807 0
-634 -701 -745 807 0
-634 -701 -746 807 0
-634 -701 -747 807 0
-634 -701 -748 807 0
-634 -701 -749 807 0
-634 -701 -750 807 0
-634 -701 -751 807 0
-634 -701 -752 807 0
-634 -701 -753 807 0
-634 -701 -754 807 0
-634 -701 -755 807 0
-634 -702 -730 807 0
-634 -702 -731 807 0
-634 -702 -732 807 0
-634 -702 -733 807 0
-634 -702 -734 807 0
-634 -702 -735 807 0
-634 -702 -736 807 0
-634 -702 -737 807 0
-634 -702 -738 807 0
-634 -702 -739 807 0
-634 -702 -740 807 0
-634 -702 -741 807 0
-634 -702 -742 807 0
-634 -702 -743 807 0
-634 -702 -744 807 0
-634 -702 -745 807 0
-634 -702 -746 807 0
-634 -702 -747 807 0
-634 -702 -748 807 0
-634 -702 -749 807 0
-634 -702 -750 807 0
-634 -702 -751 807 0
-634 -702 -752 807 0
-634 -702 -753 807 0
-634 -702 -754 807 0
-634 -702 -755 807 0
-634 -703 -730 807 0
-634 -703 -731 807 0
-634 -703 -732 807 0
-634 -703 -733 807 0
-634 -703 -734 807 0
-634 -703 -735 807 0
-634 -703 -736 807 0
-634 -703 -737 807 0
-634 -703 -738 807 0
-634 -703 -739 807 0
-634 -703 -740 807 0
-634 -703 -741 807 0
-634 -703 -742 807 0
-634 -703 -743 807 0
-634 -703 -744 807 0
-634 -703 -745 807 0
-634 -703 -746 807 0
-634 -703 -747 807 0
-634 -703 -748 807 0
-634 -703 -749 807 0
-634 -703 -750 807 0
-634 -703 -751 807 0
-634 -703 -752 807 0
-634 -703 -753 807 0
-634 -703 -754 807 0
-634 -703 -755 807 0
-635 -678 -730 794 0
-635 -678 -731 795 0
-635 -678 -732 796 0
-635 -678 -733 797 0
-635 -678 -734 798 0
-635 -678 -735 799 0
-635 -678 -736 800 0
-635 -678 -737 801 0
-635 -678 -738 802 0
-635 -678 -739 803 0
-635 -678 -740 804 0
-635 -678 -741 805 0
-635 -678 -742 806 0
-635 -678 -743 807 0
-635 -678 -744 807 0
-635 -678 -745 807 0
-635 -678 -746 807 0
-635 -678 -747 807 0
-635 -678 -748 807 0
-635 -678 -749 807 0
-635 -678 -750 807 0
-635 -678 -751 807 0
-635 -678 -752 807 0
-635 -678 -753 807 0
-635 -678 -754 807 0
-635 -678 -755 807 0
-635 -679 -730 795 0
-635 -679 -731 796 0
-635 -679 -732 797 0
-635 -679 -733 798 0
-635 -679 -734 799 0
-635 -679 -735 800 0
-635 -679 -736 801 0
-635 -679 -737 802 0
-635 -679 -738 803 0
-635 -679 -739 804 0
-635 -679 -740 805 0
-635 -679 -741 806 0
-635 -679 -742 807 0
-635 -679 -743 807 0
-635 -679 -744 807 0
-635 -679 -745 807 0
-635 -679 -746 807 0
-635 -679 -747 807 0
-635 -679 -748 807 0
-635 -679 -749 807 0
-635 -679 -750 807 0
-635 -679 -751 807 0
-635 -679 -752 807 0
-635 -679 -753 807 0
-635 -679 -754 807 0
-635 -679 -755 807 0
-635 -680 -730 796 0
-635 -680 -731 797 0
-635 -680 -732 798 0
-635 -680 -733 799 0
-635 -680 -734 800 0
-635 -680 -735 801 0
-635 -680 -736 802 0
-635 -680 -737 803 0
-635 -680 -738 804 0
-635 -680 -739 805 0
-635 -680 -740 806 0
-635 -680 -741 807 0
-635 -680 -742 807 0
-635 -680 -743 807 0
-635 -680 -744 807 0
-635 -680 -745 807 0
-635 -680 -746 807 0
-635 -680 -747 807 0
-635 -680 -748 807 0
-635 -680 -749 807 0
-635 -680 -750 807 0
-635 -680 -751 807 0
-635 -680 -752 807 0
-635 -680 -753 807 0
-635 -680 -754 807 0
-635 -680 -755 807 0
-635 -681 -730 797 0
-635 -681 -731 798 0
-635 -681 -732 799 0
-635 -681 -733 800 0
-635 -681 -734 801 0
-635 -681 -735 802 0
-635 -681 -736 803 0
-635 -681 -737 804 0
-635 -681 -738 805 0
-635 -681 -739 806 0
-635 -681 -740 807 0
-635 -681 -741 807 0
-635 -681 -742 807 0
-635 -681 -743 807 0
-635 -681 -744 807 0
-635 -681 -745 807 0
-635 -681 -746 807 0
-635 -681 -747 807 0
-635 -681 -748 807 0
-635 -681 -749 807 0
-635 -681 -750 807 0
-635 -681 -751 807 0
-635 -681 -752 807 0
-635 -681 -753 807 0
-635 -681 -754 807 0
-635 -681 -755 807 0
-635 -682 -730 798 0
-635 -682 -731 799 0
-635 -682 -732 800 0
-635 -682 -733 801 0
-635 -682 -734 802 0
-635 -682 -735 803 0
-635 -682 -736 804 0
-635 -682 -737 805 0
-635 -682 -738 806 0
-635 -682 -739 807 0
-635 -682 -740 807 0
-635 -682 -741 807 0
-635 -682 -742 807 0
-635 -682 -743 807 0
-635 -682 -744 807 0
-635 -682 -745 807 0
-635 -682 -746 807 0
-635 -682 -747 807 0
-635 -682 -748 807 0
-635 -682 -749 807 0
-635 -682 -750 807 0
-635 -682 -751 807 0
-635 -682 -752 807 0
-635 -682 -753 807 0
-635 -682 -754 807 0
-635 -682 -755 807 0
-635 -683 -730 799 0
-635 -683 -731 800 0
-635 -683 -732 801 0
-635 -683 -733 802 0
-635 -683 -734 803 0
-635 -683 -735 804 0
-635 -683 -736 805 0
-635 -683 -737 806 0
-635 -683 -738 807 0
-635 -683 -739 807 0
-635 -683 -740 807 0
-635 -683 -741 807 0
-635 -683 -742 807 0
-635 -683 -743 807 0
-635 -683 -744 807 0
-635 -683 -745 807 0
-635 -683 -746 807 0
-635 -683 -747 807 0
-635 -683 -748 807 0
-635 -683 -749 807 0
-635 -683 -750 807 0
-635 -683 -751 807 0
-635 -683 -752 807 0
-635 -683 -753 807 0
-635 -683 -754 807 0
-635 -683 -755 807 0
-635 -684 -730 800 0
-635 -684 -731 801 0
-635 -684 -732 802 0
-635 -684 -733 803 0
-635 -684 -734 804 0
-635 -684 -735 805 0
-635 -684 -736 806 0
-635 -684 -737 807 0
-635 -684 -738 807 0
-635 -684 -739 807 0
-635 -684 -740 807 0
-635 -684 -741 807 0
-635 -684 -742 807 0
-635 -684 -743 807 0
-635 -684 -744 807 0
-635 -684 -745 807 0
-635 -684 -746 807 0
-635 -684 -747 807 0
-635 -684 -748 807 0
-635 -684 -749 807 0
-635 -684 -750 807 0
-635 -684 -751 807 0
-635 -684 -752 807 0
-635 -684 -753 807 0
-635 -684 -754 807 0
-635 -684 -755 807 0
-635 -685 -730 801 0
-635 -685 -731 802 0
-635 -685 -732 803 0
-635 -685 -733 804 0
-635 -685 -734 805 0
-635 -685 -735 806 0
-635 -685 -736 807 0
-635 -685 -737 807 0
-635 -685 -738 807 0
-635 -685 -739 807 0
-635 -685 -740 807 0
-635 -685 -741 807 0
-635 -685 -742 807 0
-635 -685 -743 807 0
-635 -685 -744 807 0
-635 -685 -745 807 0
-635 -685 -746 807 0
-635 -685 -747 807 0
-635 -685 -748 807 0
-635 -685 -749 807 0
-635 -685 -750 807 0
-635 -685 -751 807 0
-635 -685 -752 807 0
-635 -685 -753 807 0
-635 -685 -754 807 0
-635 -685 -755 807 0
-635 -686 -730 802 0
-635 -686 -731 803 0
-635 -686 -732 804 0
-635 -686 -733 805 0
-635 -686 -734 806 0
-635 -686 -735 807 0
-635 -686 -736 807 0
-635 -686 -737 807 0
-635 -686 -738 807 0
-635 -686 -739 807 0
-635 -686 -740 807 0
-635 -686 -741 807 0
-635 -686 -742 807 0
-635 -686 -743 807 0
-635 -686 -744 807 0
-635 -686 -745 807 0
-635 -686 -746 807 0
-635 -686 -747 807 0
-635 -686 -748 807 0
-635 -686 -749 807 0
-635 -686 -750 807 0
-635 -686 -751 807 0
-635 -686 -752 807 0
-635 -686 -753 807 0
-635 -686 -754 807 0
-635 -686 -755 807 0
-635 -687 -730 803 0
-635 -687 -731 804 0
-635 -687 -732 805 0
-635 -687 -733 806 0
-635 -687 -734 807 0
-635 -687 -735 807 0
-635 -687 -736 807 0
-635 -687 -737 807 0
-635 -687 -738 807 0
-635 -687 -739 807 0
-635 -687 -740 807 0
-635 -687 -741 807 0
-635 -687 -742 807 0
-635 -687 -743 807 0
-635 -687 -744 807 0
-635 -687 -745 807 0
-635 -687 -746 807 0
-635 -687 -747 807 0
-635 -687 -748 807 0
-635 -687 -749 807 0
-635 -687 -750 807 0
-635 -687 -751 807 0
-635 -687 -752 807 0
-635 -687 -753 807 0
-635 -687 -754 807 0
-635 -687 -755 807 0
-635 -688 -730 804 0
-635 -688 -731 805 0
-635 -688 -732 806 0
-635 -688 -733 807 0
-635 -688 -734 807 0
-635 -688 -735 807 0
-635 -688 -736 807 0
-635 -688 -737 807 0
-635 -688 -738 807 0
-635 -688 -739 807 0
-635 -688 -740 807 0
-635 -688 -741 807 0
-635 -688 -742 807 0
-635 -688 -743 807 0
-635 -688 -744 807 0
-635 -688 -745 807 0
-635 -688 -746 807 0
-635 -688 -747 807 0
-635 -688 -748 807 0
-635 -688 -749 807 0
-635 -688 -750 807 0
-635 -688 -751 807 0
-635 -688 -752 807 0
-635 -688 -753 807 0
-635 -688 -754 807 0
-635 -688 -755 807 0
-635 -689 -730 805 0
-635 -689 -731 806 0
-635 -689 -732 807 0
-635 -689 -733 807 0
-635 -689 -734 807 0
-635 -689 -735 807 0
-635 -689 -736 807 0
-635 -689 -737 807 0
-635 -689 -738 807 0
-635 -689 -739 807 0
-635 -689 -740 807 0
-635 -689 -741 807 0
-635 -689 -742 807 0
-635 -689 -743 807 0
-635 -689 -744 807 0
-635 -689 -745 807 0
-635 -689 -746 807 0
-635 -689 -747 807 0
-635 -689 -748 807 0
-635 -689 -749 807 0
-635 -689 -750 807 0
-635 -689 -751 807 0
-635 -689 -752 807 0
-635 -689 -753 807 0
-635 -689 -754 807 0
-635 -689 -755 807 0
-635 -690 -730 806 0
-635 -690 -731 807 0
-635 -690 -732 807 0
-635 -690 -733 807 0
-635 -690 -734 807 0
-635 -690 -735 807 0
-635 -690 -736 807 0
-635 -690 -737 807 0
-635 -690 -738 807 0
-635 -690 -739 807 0
-635 -690 -740 807 0
-635 -690 -741 807 0
-635 -690 -742 807 0
-635 -690 -743 807 0
-635 -690 -744 807 0
-635 -690 -745 807 0
-635 -690 -746 807 0
-635 -690 -747 807 0
-635 -690 -748 807 0
-635 -690 -749 807 0
-635 -690 -750 807 0
-635 -690 -751 807 0
-635 -690 -752 807 0
-635 -690 -753 807 0
-635 -690 -754 807 0
-635 -690 -755 807 0
-635 -691 -730 807 0
-635 -691 -731 807 0
-635 -691 -732 807 0
-635 -691 -733 807 0
-635 -691 -734 807 0
-635 -691 -735 807 0
-635 -691 -736 807 0
-635 -691 -737 807 0
-635 -691 -738 807 0
-635 -691 -739 807 0
-635 -691 -740 807 0
-635 -691 -741 807 0
-635 -691 -742 807 0
-635 -691 -743 807 0
-635 -691 -744 807 0
-635 -691 -745 807 0
-635 -691 -746 807 0
-635 -691 -747 807 0
-635 -691 -748 807 0
-635 -691 -749 807 0
-635 -691 -750 807 0
-635 -691 -751 807 0
-635 -691 -752 807 0
-635 -691 -753 807 0
-635 -691 -754 807 0
-635 -691 -755 807 0
-635 -692 -730 807 0
-635 -692 -731 807 0
-635 -692 -732 807 0
-635 -692 -733 807 0
-635 -692 -734 807 0
-635 -692 -735 807 0
-635 -692 -736 807 0
-635 -692 -737 807 0
-635 -692 -738 807 0
-635 -692 -739 807 0
-635 -692 -740 807 0
-635 -692 -741 807 0
-635 -692 -742 807 0
-635 -692 -743 807 0
-635 -692 -744 807 0
-635 -692 -745 807 0
-635 -692 -746 807 0
-635 -692 -747 807 0
-635 -692 -748 807 0
-635 -692 -749 807 0
-635 -692 -750 807 0
-635 -692 -751 807 0
-635 -692 -752 807 0
-635 -692 -753 807 0
-635 -692 -754 807 0
-635 -692 -755 807 0
-635 -693 -730 807 0
-635 -693 -731 807 0
-635 -693 -732 807 0
-635 -693 -733 807 0
-635 -693 -734 807 0
-635 -693 -735 807 0
-635 -693 -736 807 0
-635 -693 -737 807 0
-635 -693 -738 807 0
-635 -693 -739 807 0
-635 -693 -740 807 0
-635 -693 -741 807 0
-635 -693 -742 807 0
-635 -693 -743 807 0
-635 -693 -744 807 0
-635 -693 -745 807 0
-635 -693 -746 807 0
-635 -693 -747 807 0
-635 -693 -748 807 0
-635 -693 -749 807 0
-635 -693 -750 807 0
-635 -693 -751 807 0
-635 -693 -752 807 0
-635 -693 -753 807 0
-635 -693 -754 807 0
-635 -693 -755 807 0
-635 -694 -730 807 0
-635 -694 -731 807 0
-635 -694 -732 807 0
-635 -694 -733 807 0
-635 -694 -734 807 0
-635 -694 -735 807 0
-635 -694 -736 807 0
-635 -694 -737 807 0
-635 -694 -738 807 0
-635 -694 -739 807 0
-635 -694 -740 807 0
-635 -694 -741 807 0
-635 -694 -742 807 0
-635 -694 -743 807 0
-635 -694 -744 807 0
-635 -694 -745 807 0
-635 -694 -746 807 0
-635 -694 -747 807 0
-635 -694 -748 807 0
-635 -694 -749 807 0
-635 -694 -750 807 0
-635 -694 -751 807 0
-635 -694 -752 807 0
-635 -694 -753 807 0
-635 -694 -754 807 0
-635 -694 -755 807 0
-635 -695 -730 807 0
-635 -695 -731 807 0
-635 -695 -732 807 0
-635 -695 -733 807 0
-635 -695 -734 807 0
-635 -695 -735 807 0
-635 -695 -736 807 0
-635 -695 -737 807 0
-635 -695 -738 807 0
-635 -695 -739 807 0
-635 -695 -740 807 0
-635 -695 -741 807 0
-635 -695 -742 807 0
-635 -695 -743 807 0
-635 -695 -744 807 0
-635 -695 -745 807 0
-635 -695 -746 807 0
-635 -695 -747 807 0
-635 -695 -748 807 0
-635 -695 -749 807 0
-635 -695 -750 807 0
-635 -695 -751 807 0
-635 -695 -752 807 0
-635 -695 -753 807 0
-635 -695 -754 807 0
-635 -695 -755 807 0
-635 -696 -730 807 0
-635 -696 -731 807 0
-635 -696 -732 807 0
-635 -696 -733 807 0
-635 -696 -734 807 0
-635 -696 -735 807 0
-635 -696 -736 807 0
-635 -696 -737 807 0
-635 -696 -738 807 0
-635 -696 -739 807 0
-635 -696 -740 807 0
-635 -696 -741 807 0
-635 -696 -742 807 0
-635 -696 -743 807 0
-635 -696 -744 807 0
-635 -696 -745 807 0
-635 -696 -746 807 0
-635 -696 -747 807 0
-635 -696 -748 807 0
-635 -696 -749 807 0
-635 -696 -750 807 0
-635 -696 -751 807 0
-635 -696 -752 807 0
-635 -696 -753 807 0
-635 -696 -754 807 0
-635 -696 -755 807 0
-635 -697 -730 807 0
-635 -697 -731 807 0
-635 -697 -732 807 0
-635 -697 -733 807 0
-635 -697 -734 807 0
-635 -697 -735 807 0
-635 -697 -736 807 0
-635 -697 -737 807 0
-635 -697 -738 807 0
-635 -697 -739 807 0
-635 -697 -740 807 0
-635 -697 -741 807 0
-635 -697 -742 807 0
-635 -697 -743 807 0
-635 -697 -744 807 0
-635 -697 -745 807 0
-635 -697 -746 807 0
-635 -697 -747 807 0
-635 -697 -748 807 0
-635 -697 -749 807 0
-635 -697 -750 807 0
-635 -697 -751 807 0
-635 -697 -752 807 0
-635 -697 -753 807 0
-635 -697 -754 807 0
-635 -697 -755 807 0
-635 -698 -730 807 0
-635 -698 -731 807 0
-635 -698 -732 807 0
-635 -698 -733 807 0
-635 -698 -734 807 0
-635 -698 -735 807 0
-635 -698 -736 807 0
-635 -698 -737 807 0
-635 -698 -738 807 0
-635 -698 -739 807 0
-635 -698 -740 807 0
-635 -698 -741 807 0
-635 -698 -742 807 0
-635 -698 -743 807 0
-635 -698 -744 807 0
-635 -698 -745 807 0
-635 -698 -746 807 0
-635 -698 -747 807 0
-635 -698 -748 807 0
-635 -698 -749 807 0
-635 -698 -750 807 0
-635 -698 -751 807 0
-635 -698 -752 807 0
-635 -698 -753 807 0
-635 -698 -754 807 0
-635 -698 -755 807 0
-635 -699 -730 807 0
-635 -699 -731 807 0
-635 -699 -732 807 0
-635 -699 -733 807 0
-635 -699 -734 807 0
-635 -699 -735 807 0
-635 -699 -736 807 0
-635 -699 -737 807 0
-635 -699 -738 807 0
-635 -699 -739 807 0
-635 -699 -740 807 0
-635 -699 -741 807 0
-635 -699 -742 807 0
-635 -699 -743 807 0
-635 -699 -744 807 0
-635 -699 -745 807 0
-635 -699 -746 807 0
-635 -699 -747 807 0
-635 -699 -748 807 0
-635 -699 -749 807 0
-635 -699 -750 807 0
-635 -699 -751 807 0
-635 -699 -752 807 0
-635 -699 -753 807 0
-635 -699 -754 807 0
-635 -699 -755 807 0
-635 -700 -730 807 0
-635 -700 -731 807 0
-635 -700 -732 807 0
-635 -700 -733 807 0
-635 -700 -734 807 0
-635 -700 -735 807 0
-635 -700 -736 807 0
-635 -700 -737 807 0
-635 -700 -738 807 0
-635 -700 -739 807 0
-635 -700 -740 807 0
-635 -700 -741 807 0
-635 -700 -742 807 0
-635 -700 -743 807 0
-635 -700 -744 807 0
-635 -700 -745 807 0
-635 -700 -746 807 0
-635 -700 -747 807 0
-635 -700 -748 807 0
-635 -700 -749 807 0
-635 -700 -750 807 0
-635 -700 -751 807 0
-635 -700 -752 807 0
-635 -700 -753 807 0
-635 -700 -754 807 0
-635 -700 -755 807 0
-635 -701 -730 807 0
-635 -701 -731 807 0
-635 -701 -732 807 0
-635 -701 -733 807 0
-635 -701 -734 807 0
-635 -701 -735 807 0
-635 -701 -736 807 0
-635 -701 -737 807 0
-635 -701 -738 807 0
-635 -701 -739 807 0
-635 -701 -740 807 0
-635 -701 -741 807 0
-635 -701 -742 807 0
-635 -701 -743 807 0
-635 -701 -744 807 0
-635 -701 -745 807 0
-635 -701 -746 807 0
-635 -701 -747 807 0
-635 -701 -748 807 0
-635 -701 -749 807 0
-635 -701 -750 807 0
-635 -701 -751 807 0
-635 -701 -752 807 0
-635 -701 -753 807 0
-635 -701 -754 807 0
-635 -701 -755 807 0
-635 -702 -730 807 0
-635 -702 -731 807 0
-635 -702 -732 807 0
-635 -702 -733 807 0
-635 -702 -734 807 0
-635 -702 -735 807 0
-635 -702 -736 807 0
-635 -702 -737 807 0
-635 -702 -738 807 0
-635 -702 -739 807 0
-635 -702 -740 807 0
-635 -702 -741 807 0
-635 -702 -742 807 0
-635 -702 -743 807 0
-635 -702 -744 807 0
-635 -702 -745 807 0
-635 -702 -746 807 0
-635 -702 -747 807 0
-635 -702 -748 807 0
-635 -702 -749 807 0
-635 -702 -750 807 0
-635 -702 -751 807 0
-635 -702 -752 807 0
-635 -702 -753 807 0
-635 -702 -754 807 0
-635 -702 -755 807 0
-635 -703 -730 807 0
-635 -703 -731 807 0
-635 -703 -732 807 0
-635 -703 -733 807 0
-635 -703 -734 807 0
-635 -703 -735 807 0
-635 -703 -736 807 0
-635 -703 -737 807 0
-635 -703 -738 807 0
-635 -703 -739 807 0
-635 -703 -740 807 0
-635 -703 -741 807 0
-635 -703 -742 807 0
-635 -703 -743 807 0
-635 -703 -744 807 0
-635 -703 -745 807 0
-635 -703 -746 807 0
-635 -703 -747 807 0
-635 -703 -748 807 0
-635 -703 -749 807 0
-635 -703 -750 807 0
-635 -703 -751 807 0
-635 -703 -752 807 0
-635 -703 -753 807 0
-635 -703 -754 807 0
-635 -703 -755 807 0
-636 -678 -730 795 0
-636 -678 -731 796 0
-636 -678 -732 797 0
-636 -678 -733 798 0
-636 -678 -734 799 0
-636 -678 -735 800 0
-636 -678 -736 801 0
-636 -678 -737 802 0
-636 -678 -738 803 0
-636 -678 -739 804 0
-636 -678 -740 805 0
-636 -678 -741 806 0
-636 -678 -742 807 0
-636 -678 -743 807 0
-636 -678 -744 807 0
-636 -678 -745 807 0
-636 -678 -746 807 0
-636 -678 -747 807 0
-636 -678 -748 807 0
-636 -678 -749 807 0
-636 -678 -750 807 0
-636 -678 -751 807 0
-636 -678 -752 807 0
-636 -678 -753 807 0
-636 -678 -754 807 0
-636 -678 -755 807 0
-636 -679 -730 796 0
-636 -679 -731 797 0
-636 -679 -732 798 0
-636 -679 -733 799 0
-636 -679 -734 800 0
-636 -679 -735 801 0
-636 -679 -736 802 0
-636 -679 -737 803 0
-636 -679 -738 804 0
-636 -679 -739 805 0
-636 -679 -740 806 0
-636 -679 -741 807 0
-636 -679 -742 807 0
-636 -679 -743 807 0
-636 -679 -744 807 0
-636 -679 -745 807 0
-636 -679 -746 807 0
-636 -679 -747 807 0
-636 -679 -748 807 0
-636 -679 -749 807 0
-636 -679 -750 807 0
-636 -679 -751 807 0
-636 -679 -752 807 0
-636 -679 -753 807 0
-636 -679 -754 807 0
-636 -679 -755 807 0
-636 -680 -730 797 0
-636 -680 -731 798 0
-636 -680 -732 799 0
-636 -680 -733 800 0
-636 -680 -734 801 0
-636 -680 -735 802 0
-636 -680 -736 803 0
-636 -680 -737 804 0
-636 -680 -738 805 0
-636 -680 -739 806 0
-636 -680 -740 807 0
-636 -680 -741 807 0
-636 -680 -742 807 0
-636 -680 -743 807 0
-636 -680 -744 807 0
-636 -680 -745 807 0
-636 -680 -746 807 0
-636 -680 -747 807 0
-636 -680 -748 807 0
-636 -680 -749 807 0
-636 -680 -750 807 0
-636 -680 -751 807 0
-636 -680 -752 807 0
-636 -680 -753 807 0
-636 -680 -754 807 0
-636 -680 -755 807 0
-636 -681 -730 798 0
-636 -681 -731 799 0
-636 -681 -732 800 0
-636 -681 -733 801 0
-636 -681 -734 802 0
-636 -681 -735 803 0
-636 -681 -736 804 0
-636 -681 -737 805 0
-636 -681 -738 806 0
-636 -681 -739 807 0
-636 -681 -740 807 0
-636 -681 -741 807 0
-636 -681 -742 807 0
-636 -681 -743 807 0
-636 -681 -744 807 0
-636 -681 -745 807 0
-636 -681 -746 807 0
-636 -681 -747 807 0
-636 -681 -748 807 0
-636 -681 -749 807 0
-636 -681 -750 807 0
-636 -681 -751 807 0
-636 -681 -752 807 0
-636 -681 -753 807 0
-636 -681 -754 807 0
-636 -681 -755 807 0
-636 -682 -730 799 0
-636 -682 -731 800 0
-636 -682 -732 801 0
-636 -682 -733 802 0
-636 -682 -734 803 0
-636 -682 -735 804 0
-636 -682 -736 805 0
-636 -682 -737 806 0
-636 -682 -738 807 0
-636 -682 -739 807 0
-636 -682 -740 807 0
-636 -682 -741 807 0
-636 -682 -742 807 0
-636 -682 -743 807 0
-636 -682 -744 807 0
-636 -682 -745 807 0
-636 -682 -746 807 0
-636 -682 -747 807 0
-636 -682 -748 807 0
-636 -682 -749 807 0
-636 -682 -750 807 0
-636 -682 -751 807 0
-636 -682 -752 807 0
-636 -682 -753 807 0
-636 -682 -754 807 0
-636 -682 -755 807 0
-636 -683 -730 800 0
-636 -683 -731 801 0
-636 -683 -732 802 0
-636 -683 -733 803 0
-636 -683 -734 804 0
-636 -683 -735 805 0
-636 -683 -736 806 0
-636 -683 -737 807 0
-636 -683 -738 807 0
-636 -683 -739 807 0
-636 -683 -740 807 0
-636 -683 -741 807 0
-636 -683 -742 807 0
-636 -683 -743 807 0
-636 -683 -744 807 0
-636 -683 -745 807 0
-636 -683 -746 807 0
-636 -683 -747 807 0
-636 -683 -748 807 0
-636 -683 -749 807 0
-636 -683 -750 807 0
-636 -683 -751 807 0
-636 -683 -752 807 0
-636 -683 -753 807 0
-636 -683 -754 807 0
-636 -683 -755 807 0
-636 -684 -730 801 0
-636 -684 -731 802 0
-636 -684 -732 803 0
-636 -684 -733 804 0
-636 -684 -734 805 0
-636 -684 -735 806 0
-636 -684 -736 807 0
-636 -684 -737 807 0
-636 -684 -738 807 0
-636 -684 -739 807 0
-636 -684 -740 807 0
-636 -684 -741 807 0
-636 -684 -742 807 0
-636 -684 -743 807 0
-636 -684 -744 807 0
-636 -684 -745 807 0
-636 -684 -746 807 0
-636 -684 -747 807 0
-636 -684 -748 807 0
-636 -684 -749 807 0
-636 -684 -750 807 0
-636 -684 -751 807 0
-636 -684 -752 807 0
-636 -684 -753 807 0
-636 -684 -754 807 0
-636 -684 -755 807 0
-636 -685 -730 802 0
-636 -685 -731 803 0
-636 -685 -732 804 0
-636 -685 -733 805 0
-636 -685 -734 806 0
-636 -685 -735 807 0
-636 -685 -736 807 0
-636 -685 -737 807 0
-636 -685 -738 807 0
-636 -685 -739 807 0
-636 -685 -740 807 0
-636 -685 -741 807 0
-636 -685 -742 807 0
-636 -685 -743 807 0
-636 -685 -744 807 0
-636 -685 -745 807 0
-636 -685 -746 807 0
-636 -685 -747 807 0
-636 -685 -748 807 0
-636 -685 -749 807 0
-636 -685 -750 807 0
-636 -685 -751 807 0
-636 -685 -752 807 0
-636 -685 -753 807 0
-636 -685 -754 807 0
-636 -685 -755 807 0
-636 -686 -730 803 0
-636 -686 -731 804 0
-636 -686 -732 805 0
-636 -686 -733 806 0
-636 -686 -734 807 0
-636 -686 -735 807 0
-636 -686 -736 807 0
-636 -686 -737 807 0
-636 -686 -738 807 0
-636 -686 -739 807 0
-636 -686 -740 807 0
-636 -686 -741 807 0
-636 -686 -742 807 0
-636 -686 -743 807 0
-636 -686 -744 807 0
-636 -686 -745 807 0
-636 -686 -746 807 0
-636 -686 -747 807 0
-636 -686 -748 807 0
-636 -686 -749 807 0
-636 -686 -750 807 0
-636 -686 -751 807 0
-636 -686 -752 807 0
-636 -686 -753 807 0
-636 -686 -754 807 0
-636 -686 -755 807 0
-636 -687 -730 804 0
-636 -687 -731 805 0
-636 -687 -732 806 0
-636 -687 -733 807 0
-636 -687 -734 807 0
-636 -687 -735 807 0
-636 -687 -736 807 0
-636 -687 -737 807 0
-636 -687 -738 807 0
-636 -687 -739 807 0
-636 -687 -740 807 0
-636 -687 -741 807 0
-636 -687 -742 807 0
-636 -687 -743 807 0
-636 -687 -744 807 0
-636 -687 -745 807 0
-636 -687 -746 807 0
-636 -687 -747 807 0
-636 -687 -748 807 0
-636 -687 -749 807 0
-636 -687 -750 807 0
-636 -687 -751 807 0
-636 -687 -752 807 0
-636 -687 -753 807 0
-636 -687 -754 807 0
-636 -687 -755 807 0
-636 -688 -730 805 0
-636 -688 -731 806 0
-636 -688 -732 807 0
-636 -688 -733 807 0
-636 -688 -734 807 0
-636 -688 -735 807 0
-636 -688 -736 807 0
-636 -688 -737 807 0
-636 -688 -738 807 0
-636 -688 -739 807 0
-636 -688 -740 807 0
-636 -688 -741 807 0
-636 -688 -742 807 0
-636 -688 -743 807 0
-636 -688 -744 807 0
-636 -688 -745 807 0
-636 -688 -746 807 0
-636 -688 -747 807 0
-636 -688 -748 807 0
-636 -688 -749 807 0
-636 -688 -750 807 0
-636 -688 -751 807 0
-636 -688 -752 807 0
-636 -688 -753 807 0
-636 -688 -754 807 0
-636 -688 -755 807 0
-636 -689 -730 806 0
-636 -689 -731 807 0
-636 -689 -732 807 0
-636 -689 -733 807 0
-636 -689 -734 807 0
-636 -689 -735 807 0
-636 -689 -736 807 0
-636 -689 -737 807 0
-636 -689 -738 807 0
-636 -689 -739 807 0
-636 -689 -740 807 0
-636 -689 -741 807 0
-636 -689 -742 807 0
-636 -689 -743 807 0
-636 -689 -744 807 0
-636 -689 -745 807 0
-636 -689 -746 807 0
-636 -689 -747 807 0
-636 -689 -748 807 0
-636 -689 -749 807 0
-636 -689 -750 807 0
-636 -689 -751 807 0
-636 -689 -752 807 0
-636 -689 -753 807 0
-636 -689 -754 807 0
-636 -689 -755 807 0
-636 -690 -730 807 0
-636 -690 -731 807 0
-636 -690 -732 807 0
-636 -690 -733 807 0
-636 -690 -734 807 0
-636 -690 -735 807 0
-636 -690 -736 807 0
-636 -690 -737 807 0
-636 -690 -738 807 0
-636 -690 -739 807 0
-636 -690 -740 807 0
-636 -690 -741 807 0
-636 -690 -742 807 0
-636 -690 -743 807 0
-636 -690 -744 807 0
-636 -690 -745 807 0
-636 -690 -746 807 0
-636 -690 -747 807 0
-636 -690 -748 807 0
-636 -690 -749 807 0
-636 -690 -750 807 0
-636 -690 -751 807 0
-636 -690 -752 807 0
-636 -690 -753 807 0
-636 -690 -754 807 0
-636 -690 -755 807 0
-636 -691 -730 807 0
-636 -691 -731 807 0
-636 -691 -732 807 0
-636 -691 -733 807 0
-636 -691 -734 807 0
-636 -691 -735 807 0
-636 -691 -736 807 0
-636 -691 -737 807 0
-636 -691 -738 807 0
-636 -691 -739 807 0
-636 -691 -740 807 0
-636 -691 -741 807 0
-636 -691 -742 807 0
-636 -691 -743 807 0
-636 -691 -744 807 0
-636 -691 -745 807 0
-636 -691 -746 807 0
-636 -691 -747 807 0
-636 -691 -748 807 0
-636 -691 -749 807 0
-636 -691 -750 807 0
-636 -691 -751 807 0
-636 -691 -752 807 0
-636 -691 -753 807 0
-636 -691 -754 807 0
-636 -691 -755 807 0
-636 -692 -730 807 0
-636 -692 -731 807 0
-636 -692 -732 807 0
-636 -692 -733 807 0
-636 -692 -734 807 0
-636 -692 -735 807 0
-636 -692 -736 807 0
-636 -692 -737 807 0
-636 -692 -738 807 0
-636 -692 -739 807 0
-636 -692 -740 807 0
-636 -692 -741 807 0
-636 -692 -742 807 0
-636 -692 -743 807 0
-636 -692 -744 807 0
-636 -692 -745 807 0
-636 -692 -746 807 0
-636 -692 -747 807 0
-636 -692 -748 807 0
-636 -692 -749 807 0
-636 -692 -750 807 0
-636 -692 -751 807 0
-636 -692 -752 807 0
-636 -692 -753 807 0
-636 -692 -754 807 0
-636 -692 -755 807 0
-636 -693 -730 807 0
-636 -693 -731 807 0
-636 -693 -732 807 0
-636 -693 -733 807 0
-636 -693 -734 807 0
-636 -693 -735 807 0
-636 -693 -736 807 0
-636 -693 -737 807 0
-636 -693 -738 807 0
-636 -693 -739 807 0
-636 -693 -740 807 0
-636 -693 -741 807 0
-636 -693 -742 807 0
-636 -693 -743 807 0
-636 -693 -744 807 0
-636 -693 -745 807 0
-636 -693 -746 807 0
-636 -693 -747 807 0
-636 -693 -748 807 0
-636 -693 -749 807 0
-636 -693 -750 807 0
-636 -693 -751 807 0
-636 -693 -752 807 0
-636 -693 -753 807 0
-636 -693 -754 807 0
-636 -693 -755 807 0
-636 -694 -730 807 0
-636 -694 -731 807 0
-636 -694 -732 807 0
-636 -694 -733 807 0
-636 -694 -734 807 0
-636 -694 -735 807 0
-636 -694 -736 807 0
-636 -694 -737 807 0
-636 -694 -738 807 0
-636 -694 -739 807 0
-636 -694 -740 807 0
-636 -694 -741 807 0
-636 -694 -742 807 0
-636 -694 -743 807 0
-636 -694 -744 807 0
-636 -694 -745 807 0
-636 -694 -746 807 0
-636 -694 -747 807 0
-636 -694 -748 807 0
-636 -694 -749 807 0
-636 -694 -750 807 0
-636 -694 -751 807 0
-636 -694 -752 807 0
-636 -694 -753 807 0
-636 -694 -754 807 0
-636 -694 -755 807 0
-636 -695 -730 807 0
-636 -695 -731 807 0
-636 -695 -732 807 0
-636 -695 -733 807 0
-636 -695 -734 807 0
-636 -695 -735 807 0
-636 -695 -736 807 0
-636 -695 -737 807 0
-636 -695 -738 807 0
-636 -695 -739 807 0
-636 -695 -740 807 0
-636 -695 -741 807 0
-636 -695 -742 807 0
-636 -695 -743 807 0
-636 -695 -744 807 0
-636 -695 -745 807 0
-636 -695 -746 807 0
-636 -695 -747 807 0
-636 -695 -748 807 0
-636 -695 -749 807 0
-636 -695 -750 807 0
-636 -695 -751 807 0
-636 -695 -752 807 0
-636 -695 -753 807 0
-636 -695 -754 807 0
-636 -695 -755 807 0
-636 -696 -730 807 0
-636 -696 -731 807 0
-636 -696 -732 807 0
-636 -696 -733 807 0
-636 -696 -734 807 0
-636 -696 -735 807 0
-636 -696 -736 807 0
-636 -696 -737 807 0
-636 -696 -738 807 0
-636 -696 -739 807 0
-636 -696 -740 807 0
-636 -696 -741 807 0
-636 -696 -742 807 0
-636 -696 -743 807 0
-636 -696 -744 807 0
-636 -696 -745 807 0
-636 -696 -746 807 0
-636 -696 -747 807 0
-636 -696 -748 807 0
-636 -696 -749 807 0
-636 -696 -750 807 0
-636 -696 -751 807 0
-636 -696 -752 807 0
-636 -696 -753 807 0
-636 -696 -754 807 0
-636 -696 -755 807 0
-636 -697 -730 807 0
-636 -697 -731 807 0
-636 -697 -732 807 0
-636 -697 -733 807 0
-636 -697 -734 807 0
-636 -697 -735 807 0
-636 -697 -736 807 0
-636 -697 -737 807 0
-636 -697 -738 807 0
-636 -697 -739 807 0
-636 -697 -740 807 0
-636 -697 -741 807 0
-636 -697 -742 807 0
-636 -697 -743 807 0
-636 -697 -744 807 0
-636 -697 -745 807 0
-636 -697 -746 807 0
-636 -697 -747 807 0
-636 -697 -748 807 0
-636 -697 -749 807 0
-636 -697 -750 807 0
-636 -697 -751 807 0
-636 -697 -752 807 0
-636 -697 -753 807 0
-636 -697 -754 807 0
-636 -697 -755 807 0
-636 -698 -730 807 0
-636 -698 -731 807 0
-636 -698 -732 807 0
-636 -698 -733 807 0
-636 -698 -734 807 0
-636 -698 -735 807 0
-636 -698 -736 807 0
-636 -698 -737 807 0
-636 -698 -738 807 0
-636 -698 -739 807 0
-636 -698 -740 807 0
-636 -698 -741 807 0
-636 -698 -742 807 0
-636 -698 -743 807 0
-636 -698 -744 807 0
-636 -698 -745 807 0
-636 -698 -746 807 0
-636 -698 -747 807 0
-636 -698 -748 807 0
-636 -698 -749 807 0
-636 -698 -750 807 0
-636 -698 -751 807 0
-636 -698 -752 807 0
-636 -698 -753 807 0
-636 -698 -754 807 0
-636 -698 -755 807 0
-636 -699 -730 807 0
-636 -699 -731 807 0
-636 -699 -732 807 0
-636 -699 -733 807 0
-636 -699 -734 807 0
-636 -699 -735 807 0
-636 -699 -736 807 0
-636 -699 -737 807 0
-636 -699 -738 807 0
-636 -699 -739 807 0
-636 -699 -740 807 0
-636 -699 -741 807 0
-636 -699 -742 807 0
-636 -699 -743 807 0
-636 -699 -744 807 0
-636 -699 -745 807 0
-636 -699 -746 807 0
-636 -699 -747 807 0
-636 -699 -748 807 0
-636 -699 -749 807 0
-636 -699 -750 807 0
-636 -699 -751 807 0
-636 -699 -752 807 0
-636 -699 -753 807 0
-636 -699 -754 807 0
-636 -699 -755 807 0
-636 -700 -730 807 0
-636 -700 -731 807 0
-636 -700 -732 807 0
-636 -700 -733 807 0
-636 -700 -734 807 0
-636 -700 -735 807 0
-636 -700 -736 807 0
-636 -700 -737 807 0
-636 -700 -738 807 0
-636 -700 -739 807 0
-636 -700 -740 807 0
-636 -700 -741 807 0
-636 -700 -742 807 0
-636 -700 -743 807 0
-636 -700 -744 807 0
-636 -700 -745 807 0
-636 -700 -746 807 0
-636 -700 -747 807 0
-636 -700 -748 807 0
-636 -700 -749 807 0
-636 -700 -750 807 0
-636 -700 -751 807 0
-636 -700 -752 807 0
-636 -700 -753 807 0
-636 -700 -754 807 0
-636 -700 -755 807 0
-636 -701 -730 807 0
-636 -701 -731 807 0
-636 -701 -732 807 0
-636 -701 -733 807 0
-636 -701 -734 807 0
-636 -701 -735 807 0
-636 -701 -736 807 0
-636 -701 -737 807 0
-636 -701 -738 807 0
-636 -701 -739 807 0
-636 -701 -740 807 0
-636 -701 -741 807 0
-636 -701 -742 807 0
-636 -701 -743 807 0
-636 -701 -744 807 0
-636 -701 -745 807 0
-636 -701 -746 807 0
-636 -701 -747 807 0
-636 -701 -748 807 0
-636 -701 -749 807 0
-636 -701 -750 807 0
-636 -701 -751 807 0
-636 -701 -752 807 0
-636 -701 -753 807 0
-636 -701 -754 807 0
-636 -701 -755 807 0
-636 -702 -730 807 0
-636 -702 -731 807 0
-636 -702 -732 807 0
-636 -702 -733 807 0
-636 -702 -734 807 0
-636 -702 -735 807 0
-636 -702 -736 807 0
-636 -702 -737 807 0
-636 -702 -738 807 0
-636 -702 -739 807 0
-636 -702 -740 807 0
-636 -702 -741 807 0
-636 -702 -742 807 0
-636 -702 -743 807 0
-636 -702 -744 807 0
-636 -702 -745 807 0
-636 -702 -746 807 0
-636 -702 -747 807 0
-636 -702 -748 807 0
-636 -702 -749 807 0
-636 -702 -750 807 0
-636 -702 -751 807 0
-636 -702 -752 807 0
-636 -702 -753 807 0
-636 -702 -754 807 0
-636 -702 -755 807 0
-636 -703 -730 807 0
-636 -703 -731 807 0
-636 -703 -732 807 0
-636 -703 -733 807 0
-636 -703 -734 807 0
-636 -703 -735 807 0
-636 -703 -736 807 0
-636 -703 -737 807 0
-636 -703 -738 807 0
-636 -703 -739 807 0
-636 -703 -740 807 0
-636 -703 -741 807 0
-636 -703 -742 807 0
-636 -703 -743 807 0
-636 -703 -744 807 0
-636 -703 -745 807 0
-636 -703 -746 807 0
-636 -703 -747 807 0
-636 -703 -748 807 0
-636 -703 -749 807 0
-636 -703 -750 807 0
-636 -703 -751 807 0
-636 -703 -752 807 0
-636 -703 -753 807 0
-636 -703 -754 807 0
-636 -703 -755 807 0
-637 -678 -730 796 0
-637 -678 -731 797 0
-637 -678 -732 798 0
-637 -678 -733 799 0
-637 -678 -734 800 0
-637 -678 -735 801 0
-637 -678 -736 802 0
-637 -678 -737 803 0
-637 -678 -738 804 0
-637 -678 -739 805 0
-637 -678 -740 806 0
-637 -678 -741 807 0
-637 -678 -742 807 0
-637 -678 -743 807 0
-637 -678 -744 807 0
-637 -678 -745 807 0
-637 -678 -746 807 0
-637 -678 -747 807 0
-637 -678 -748 807 0
-637 -678 -749 807 0
-637 -678 -750 807 0
-637 -678 -751 807 0
-637 -678 -752 807 0
-637 -678 -753 807 0
-637 -678 -754 807 0
-637 -678 -755 807 0
-637 -679 -730 797 0
-637 -679 -731 798 0
-637 -679 -732 799 0
-637 -679 -733 800 0
-637 -679 -734 801 0
-637 -679 -735 802 0
-637 -679 -736 803 0
-637 -679 -737 804 0
-637 -679 -738 805 0
-637 -679 -739 806 0
-637 -679 -740 807 0
-637 -679 -741 807 0
-637 -679 -742 807 0
-637 -679 -743 807 0
-637 -679 -744 807 0
-637 -679 -745 807 0
-637 -679 -746 807 0
-637 -679 -747 807 0
-637 -679 -748 807 0
-637 -679 -749 807 0
-637 -679 -750 807 0
-637 -679 -751 807 0
-637 -679 -752 807 0
-637 -679 -753 807 0
-637 -679 -754 807 0
-637 -679 -755 807 0
-637 -680 -730 798 0
-637 -680 -731 799 0
-637 -680 -732 800 0
-637 -680 -733 801 0
-637 -680 -734 802 0
-637 -680 -735 803 0
-637 -680 -736 804 0
-637 -680 -737 805 0
-637 -680 -738 806 0
-637 -680 -739 807 0
-637 -680 -740 807 0
-637 -680 -741 807 0
-637 -680 -742 807 0
-637 -680 -743 807 0
-637 -680 -744 807 0
-637 -680 -745 807 0
-637 -680 -746 807 0
-637 -680 -747 807 0
-637 -680 -748 807 0
-637 -680 -749 807 0
-637 -680 -750 807 0
-637 -680 -751 807 0
-637 -680 -752 807 0
-637 -680 -753 807 0
-637 -680 -754 807 0
-637 -680 -755 807 0
-637 -681 -730 799 0
-637 -681 -731 800 0
-637 -681 -732 801 0
-637 -681 -733 802 0
-637 -681 -734 803 0
-637 -681 -735 804 0
-637 -681 -736 805 0
-637 -681 -737 806 0
-637 -681 -738 807 0
-637 -681 -739 807 0
-637 -681 -740 807 0
-637 -681 -741 807 0
-637 -681 -742 807 0
-637 -681 -743 807 0
-637 -681 -744 807 0
-637 -681 -745 807 0
-637 -681 -746 807 0
-637 -681 -747 807 0
-637 -681 -748 807 0
-637 -681 -749 807 0
-637 -681 -750 807 0
-637 -681 -751 807 0
-637 -681 -752 807 0
-637 -681 -753 807 0
-637 -681 -754 807 0
-637 -681 -755 807 0
-637 -682 -730 800 0
-637 -682 -731 801 0
-637 -682 -732 802 0
-637 -682 -733 803 0
-637 -682 -734 804 0
-637 -682 -735 805 0
-637 -682 -736 806 0
-637 -682 -737 807 0
-637 -682 -738 807 0
-637 -682 -739 807 0
-637 -682 -740 807 0
-637 -682 -741 807 0
-637 -682 -742 807 0
-637 -682 -743 807 0
-637 -682 -744 807 0
-637 -682 -745 807 0
-637 -682 -746 807 0
-637 -682 -747 807 0
-637 -682 -748 807 0
-637 -682 -749 807 0
-637 -682 -750 807 0
-637 -682 -751 807 0
-637 -682 -752 807 0
-637 -682 -753 807 0
-637 -682 -754 807 0
-637 -682 -755 807 0
-637 -683 -730 801 0
-637 -683 -731 802 0
-637 -683 -732 803 0
-637 -683 -733 804 0
-637 -683 -734 805 0
-637 -683 -735 806 0
-637 -683 -736 807 0
-637 -683 -737 807 0
-637 -683 -738 807 0
-637 -683 -739 807 0
-637 -683 -740 807 0
-637 -683 -741 807 0
-637 -683 -742 807 0
-637 -683 -743 807 0
-637 -683 -744 807 0
-637 -683 -745 807 0
-637 -683 -746 807 0
-637 -683 -747 807 0
-637 -683 -748 807 0
-637 -683 -749 807 0
-637 -683 -750 807 0
-637 -683 -751 807 0
-637 -683 -752 807 0
-637 -683 -753 807 0
-637 -683 -754 807 0
-637 -683 -755 807 0
-637 -684 -730 802 0
-637 -684 -731 803 0
-637 -684 -732 804 0
-637 -684 -733 805 0
-637 -684 -734 806 0
-637 -684 -735 807 0
-637 -684 -736 807 0
-637 -684 -737 807 0
-637 -684 -738 807 0
-637 -684 -739 807 0
-637 -684 -740 807 0
-637 -684 -741 807 0
-637 -684 -742 807 0
-637 -684 -743 807 0
-637 -684 -744 807 0
-637 -684 -745 807 0
-637 -684 -746 807 0
-637 -684 -747 807 0
-637 -684 -748 807 0
-637 -684 -749 807 0
-637 -684 -750 807 0
-637 -684 -751 807 0
-637 -684 -752 807 0
-637 -684 -753 807 0
-637 -684 -754 807 0
-637 -684 -755 807 0
-637 -685 -730 803 0
-637 -685 -731 804 0
-637 -685 -732 805 0
-637 -685 -733 806 0
-637 -685 -734 807 0
-637 -685 -735 807 0
-637 -685 -736 807 0
-637 -685 -737 807 0
-637 -685 -738 807 0
-637 -685 -739 807 0
-637 -685 -740 807 0
-637 -685 -741 807 0
-637 -685 -742 807 0
-637 -685 -743 807 0
-637 -685 -744 807 0
-637 -685 -745 807 0
-637 -685 -746 807 0
-637 -685 -747 807 0
-637 -685 -748 807 0
-637 -685 -749 807 0
-637 -685 -750 807 0
-637 -685 -751 807 0
-637 -685 -752 807 0
-637 -685 -753 807 0
-637 -685 -754 807 0
-637 -685 -755 807 0
-637 -686 -730 804 0
-637 -686 -731 805 0
-637 -686 -732 806 0
-637 -686 -733 807 0
-637 -686 -734 807 0
-637 -686 -735 807 0
-637 -686 -736 807 0
-637 -686 -737 807 0
-637 -686 -738 807 0
-637 -686 -739 807 0
-637 -686 -740 807 0
-637 -686 -741 807 0
-637 -686 -742 807 0
-637 -686 -743 807 0
-637 -686 -744 807 0
-637 -686 -745 807 0
-637 -686 -746 807 0
-637 -686 -747 807 0
-637 -686 -748 807 0
-637 -686 -749 807 0
-637 -686 -750 807 0
-637 -686 -751 807 0
-637 -686 -752 807 0
-637 -686 -753 807 0
-637 -686 -754 807 0
-637 -686 -755 807 0
-637 -687 -730 805 0
-637 -687 -731 806 0
-637 -687 -732 807 0
-637 -687 -733 807 0
-637 -687 -734 807 0
-637 -687 -735 807 0
-637 -687 -736 807 0
-637 -687 -737 807 0
-637 -687 -738 807 0
-637 -687 -739 807 0
-637 -687 -740 807 0
-637 -687 -741 807 0
-637 -687 -742 807 0
-637 -687 -743 807 0
-637 -687 -744 807 0
-637 -687 -745 807 0
-637 -687 -746 807 0
-637 -687 -747 807 0
-637 -687 -748 807 0
-637 -687 -749 807 0
-637 -687 -750 807 0
-637 -687 -751 807 0
-637 -687 -752 807 0
-637 -687 -753 807 0
-637 -687 -754 807 0
-637 -687 -755 807 0
-637 -688 -730 806 0
-637 -688 -731 807 0
-637 -688 -732 807 0
-637 -688 -733 807 0
-637 -688 -734 807 0
-637 -688 -735 807 0
-637 -688 -736 807 0
-637 -688 -737 807 0
-637 -688 -738 807 0
-637 -688 -739 807 0
-637 -688 -740 807 0
-637 -688 -741 807 0
-637 -688 -742 807 0
-637 -688 -743 807 0
-637 -688 -744 807 0
-637 -688 -745 807 0
-637 -688 -746 807 0
-637 -688 -747 807 0
-637 -688 -748 807 0
-637 -688 -749 807 0
-637 -688 -750 807 0
-637 -688 -751 807 0
-637 -688 -752 807 0
-637 -688 -753 807 0
-637 -688 -754 807 0
-637 -688 -755 807 0
-637 -689 -730 807 0
-637 -689 -731 807 0
-637 -689 -732 807 0
-637 -689 -733 807 0
-637 -689 -734 807 0
-637 -689 -735 807 0
-637 -689 -736 807 0
-637 -689 -737 807 0
-637 -689 -738 807 0
-637 -689 -739 807 0
-637 -689 -740 807 0
-637 -689 -741 807 0
-637 -689 -742 807 0
-637 -689 -743 807 0
-637 -689 -744 807 0
-637 -689 -745 807 0
-637 -689 -746 807 0
-637 -689 -747 807 0
-637 -689 -748 807 0
-637 -689 -749 807 0
-637 -689 -750 807 0
-637 -689 -751 807 0
-637 -689 -752 807 0
-637 -689 -753 807 0
-637 -689 -754 807 0
-637 -689 -755 807 0
-637 -690 -730 807 0
-637 -690 -731 807 0
-637 -690 -732 807 0
-637 -690 -733 807 0
-637 -690 -734 807 0
-637 -690 -735 807 0
-637 -690 -736 807 0
-637 -690 -737 807 0
-637 -690 -738 807 0
-637 -690 -739 807 0
-637 -690 -740 807 0
-637 -690 -741 807 0
-637 -690 -742 807 0
-637 -690 -743 807 0
-637 -690 -744 807 0
-637 -690 -745 807 0
-637 -690 -746 807 0
-637 -690 -747 807 0
-637 -690 -748 807 0
-637 -690 -749 807 0
-637 -690 -750 807 0
-637 -690 -751 807 0
-637 -690 -752 807 0
-637 -690 -753 807 0
-637 -690 -754 807 0
-637 -690 -755 807 0
-637 -691 -730 807 0
-637 -691 -731 807 0
-637 -691 -732 807 0
-637 -691 -733 807 0
-637 -691 -734 807 0
-637 -691 -735 807 0
-637 -691 -736 807 0
-637 -691 -737 807 0
-637 -691 -738 807 0
-637 -691 -739 807 0
-637 -691 -740 807 0
-637 -691 -741 807 0
-637 -691 -742 807 0
-637 -691 -743 807 0
-637 -691 -744 807 0
-637 -691 -745 807 0
-637 -691 -746 807 0
-637 -691 -747 807 0
-637 -691 -748 807 0
-637 -691 -749 807 0
-637 -691 -750 807 0
-637 -691 -751 807 0
-637 -691 -752 807 0
-637 -691 -753 807 0
-637 -691 -754 807 0
-637 -691 -755 807 0
-637 -692 -730 807 0
-637 -692 -731 807 0
-637 -692 -732 807 0
-637 -692 -733 807 0
-637 -692 -734 807 0
-637 -692 -735 807 0
-637 -692 -736 807 0
-637 -692 -737 807 0
-637 -692 -738 807 0
-637 -692 -739 807 0
-637 -692 -740 807 0
-637 -692 -741 807 0
-637 -692 -742 807 0
-637 -692 -743 807 0
-637 -692 -744 807 0
-637 -692 -745 807 0
-637 -692 -746 807 0
-637 -692 -747 807 0
-637 -692 -748 807 0
-637 -692 -749 807 0
-637 -692 -750 807 0
-637 -692 -751 807 0
-637 -692 -752 807 0
-637 -692 -753 807 0
-637 -692 -754 807 0
-637 -692 -755 807 0
-637 -693 -730 807 0
-637 -693 -731 807 0
-637 -693 -732 807 0
-637 -693 -733 807 0
-637 -693 -734 807 0
-637 -693 -735 807 0
-637 -693 -736 807 0
-637 -693 -737 807 0
-637 -693 -738 807 0
-637 -693 -739 807 0
-637 -693 -740 807 0
-637 -693 -741 807 0
-637 -693 -742 807 0
-637 -693 -743 807 0
-637 -693 -744 807 0
-637 -693 -745 807 0
-637 -693 -746 807 0
-637 -693 -747 807 0
-637 -693 -748 807 0
-637 -693 -749 807 0
-637 -693 -750 807 0
-637 -693 -751 807 0
-637 -693 -752 807 0
-637 -693 -753 807 0
-637 -693 -754 807 0
-637 -693 -755 807 0
-637 -694 -730 807 0
-637 -694 -731 807 0
-637 -694 -732 807 0
-637 -694 -733 807 0
-637 -694 -734 807 0
-637 -694 -735 807 0
-637 -694 -736 807 0
-637 -694 -737 807 0
-637 -694 -738 807 0
-637 -694 -739 807 0
-637 -694 -740 807 0
-637 -694 -741 807 0
-637 -694 -742 807 0
-637 -694 -743 807 0
-637 -694 -744 807 0
-637 -694 -745 807 0
-637 -694 -746 807 0
-637 -694 -747 807 0
-637 -694 -748 807 0
-637 -694 -749 807 0
-637 -694 -750 807 0
-637 -694 -751 807 0
-637 -694 -752 807 0
-637 -694 -753 807 0
-637 -694 -754 807 0
-637 -694 -755 807 0
-637 -695 -730 807 0
-637 -695 -731 807 0
-637 -695 -732 807 0
-637 -695 -733 807 0
-637 -695 -734 807 0
-637 -695 -735 807 0
-637 -695 -736 807 0
-637 -695 -737 807 0
-637 -695 -738 807 0
-637 -695 -739 807 0
-637 -695 -740 807 0
-637 -695 -741 807 0
-637 -695 -742 807 0
-637 -695 -743 807 0
-637 -695 -744 807 0
-637 -695 -745 807 0
-637 -695 -746 807 0
-637 -695 -747 807 0
-637 -695 -748 807 0
-637 -695 -749 807 0
-637 -695 -750 807 0
-637 -695 -751 807 0
-637 -695 -752 807 0
-637 -695 -753 807 0
-637 -695 -754 807 0
-637 -695 -755 807 0
-637 -696 -730 807 0
-637 -696 -731 807 0
-637 -696 -732 807 0
-637 -696 -733 807 0
-637 -696 -734 807 0
-637 -696 -735 807 0
-637 -696 -736 807 0
-637 -696 -737 807 0
-637 -696 -738 807 0
-637 -696 -739 807 0
-637 -696 -740 807 0
-637 -696 -741 807 0
-637 -696 -742 807 0
-637 -696 -743 807 0
-637 -696 -744 807 0
-637 -696 -745 807 0
-637 -696 -746 807 0
-637 -696 -747 807 0
-637 -696 -748 807 0
-637 -696 -749 807 0
-637 -696 -750 807 0
-637 -696 -751 807 0
-637 -696 -752 807 0
-637 -696 -753 807 0
-637 -696 -754 807 0
-637 -696 -755 807 0
-637 -697 -730 807 0
-637 -697 -731 807 0
-637 -697 -732 807 0
-637 -697 -733 807 0
-637 -697 -734 807 0
-637 -697 -735 807 0
-637 -697 -736 807 0
-637 -697 -737 807 0
-637 -697 -738 807 0
-637 -697 -739 807 0
-637 -697 -740 807 0
-637 -697 -741 807 0
-637 -697 -742 807 0
-637 -697 -743 807 0
-637 -697 -744 807 0
-637 -697 -745 807 0
-637 -697 -746 807 0
-637 -697 -747 807 0
-637 -697 -748 807 0
-637 -697 -749 807 0
-637 -697 -750 807 0
-637 -697 -751 807 0
-637 -697 -752 807 0
-637 -697 -753 807 0
-637 -697 -754 807 0
-637 -697 -755 807 0
-637 -698 -730 807 0
-637 -698 -731 807 0
-637 -698 -732 807 0
-637 -698 -733 807 0
-637 -698 -734 807 0
-637 -698 -735 807 0
-637 -698 -736 807 0
-637 -698 -737 807 0
-637 -698 -738 807 0
-637 -698 -739 807 0
-637 -698 -740 807 0
-637 -698 -741 807 0
-637 -698 -742 807 0
-637 -698 -743 807 0
-637 -698 -744 807 0
-637 -698 -745 807 0
-637 -698 -746 807 0
-637 -698 -747 807 0
-637 -698 -748 807 0
-637 -698 -749 807 0
-637 -698 -750 807 0
-637 -698 -751 807 0
-637 -698 -752 807 0
-637 -698 -753 807 0
-637 -698 -754 807 0
-637 -698 -755 807 0
-637 -699 -730 807 0
-637 -699 -731 807 0
-637 -699 -732 807 0
-637 -699 -733 807 0
-637 -699 -734 807 0
-637 -699 -735 807 0
-637 -699 -736 807 0
-637 -699 -737 807 0
-637 -699 -738 807 0
-637 -699 -739 807 0
-637 -699 -740 807 0
-637 -699 -741 807 0
-637 -699 -742 807 0
-637 -699 -743 807 0
-637 -699 -744 807 0
-637 -699 -745 807 0
-637 -699 -746 807 0
-637 -699 -747 807 0
-637 -699 -748 807 0
-637 -699 -749 807 0
-637 -699 -750 807 0
-637 -699 -751 807 0
-637 -699 -752 807 0
-637 -699 -753 807 0
-637 -699 -754 807 0
-637 -699 -755 807 0
-637 -700 -730 807 0
-637 -700 -731 807 0
-637 -700 -732 807 0
-637 -700 -733 807 0
-637 -700 -734 807 0
-637 -700 -735 807 0
-637 -700 -736 807 0
-637 -700 -737 807 0
-637 -700 -738 807 0
-637 -700 -739 807 0
-637 -700 -740 807 0
-637 -700 -741 807 0
-637 -700 -742 807 0
-637 -700 -743 807 0
-637 -700 -744 807 0
-637 -700 -745 807 0
-637 -700 -746 807 0
-637 -700 -747 807 0
-637 -700 -748 807 0
-637 -700 -749 807 0
-637 -700 -750 807 0
-637 -700 -751 807 0
-637 -700 -752 807 0
-637 -700 -753 807 0
-637 -700 -754 807 0
-637 -700 -755 807 0
-637 -701 -730 807 0
-637 -701 -731 807 0
-637 -701 -732 807 0
-637 -701 -733 807 0
-637 -701 -734 807 0
-637 -701 -735 807 0
-637 -701 -736 807 0
-637 -701 -737 807 0
-637 -701 -738 807 0
-637 -701 -739 807 0
-637 -701 -740 807 0
-637 -701 -741 807 0
-637 -701 -742 807 0
-637 -701 -743 807 0
-637 -701 -744 807 0
-637 -701 -745 807 0
-637 -701 -746 807 0
-637 -701 -747 807 0
-637 -701 -748 807 0
-637 -701 -749 807 0
-637 -701 -750 807 0
-637 -701 -751 807 0
-637 -701 -752 807 0
-637 -701 -753 807 0
-637 -701 -754 807 0
-637 -701 -755 807 0
-637 -702 -730 807 0
-637 -702 -731 807 0
-637 -702 -732 807 0
-637 -702 -733 807 0
-637 -702 -734 807 0
-637 -702 -735 807 0
-637 -702 -736 807 0
-637 -702 -737 807 0
-637 -702 -738 807 0
-637 -702 -739 807 0
-637 -702 -740 807 0
-637 -702 -741 807 0
-637 -702 -742 807 0
-637 -702 -743 807 0
-637 -702 -744 807 0
-637 -702 -745 807 0
-637 -702 -746 807 0
-637 -702 -747 807 0
-637 -702 -748 807 0
-637 -702 -749 807 0
-637 -702 -750 807 0
-637 -702 -751 807 0
-637 -702 -752 807 0
-637 -702 -753 807 0
-637 -702 -754 807 0
-637 -702 -755 807 0
-637 -703 -730 807 0
-637 -703 -731 807 0
-637 -703 -732 807 0
-637 -703 -733 807 0
-637 -703 -734 807 0
-637 -703 -735 807 0
-637 -703 -736 807 0
-637 -703 -737 807 0
-637 -703 -738 807 0
-637 -703 -739 807 0
-637 -703 -740 807 0
-637 -703 -741 807 0
-637 -703 -742 807 0
-637 -703 -743 807 0
-637 -703 -744 807 0
-637 -703 -745 807 0
-637 -703 -746 807 0
-637 -703 -747 807 0
-637 -703 -748 807 0
-637 -703 -749 807 0
-637 -703 -750 807 0
-637 -703 -751 807 0
-637 -703 -752 807 0
-637 -703 -753 807 0
-637 -703 -754 807 0
-637 -703 -755 807 0
-638 -678 -730 797 0
-638 -678 -731 798 0
-638 -678 -732 799 0
-638 -678 -733 800 0
-638 -678 -734 801 0
-638 -678 -735 802 0
-638 -678 -736 803 0
-638 -678 -737 804 0
-638 -678 -738 805 0
-638 -678 -739 806 0
-638 -678 -740 807 0
-638 -678 -741 807 0
-638 -678 -742 807 0
-638 -678 -743 807 0
-638 -678 -744 807 0
-638 -678 -745 807 0
-638 -678 -746 807 0
-638 -678 -747 807 0
-638 -678 -748 807 0
-638 -678 -749 807 0
-638 -678 -750 807 0
-638 -678 -751 807 0
-638 -678 -752 807 0
-638 -678 -753 807 0
-638 -678 -754 807 0
-638 -678 -755 807 0
-638 -679 -730 798 0
-638 -679 -731 799 0
-638 -679 -732 800 0
-638 -679 -733 801 0
-638 -679 -734 802 0
-638 -679 -735 803 0
-638 -679 -736 804 0
-638 -679 -737 805 0
-638 -679 -738 806 0
-638 -679 -739 807 0
-638 -679 -740 807 0
-638 -679 -741 807 0
-638 -679 -742 807 0
-638 -679 -743 807 0
-638 -679 -744 807 0
-638 -679 -745 807 0
-638 -679 -746 807 0
-638 -679 -747 807 0
-638 -679 -748 807 0
-638 -679 -749 807 0
-638 -679 -750 807 0
-638 -679 -751 807 0
-638 -679 -752 807 0
-638 -679 -753 807 0
-638 -679 -754 807 0
-638 -679 -755 807 0
-638 -680 -730 799 0
-638 -680 -731 800 0
-638 -680 -732 801 0
-638 -680 -733 802 0
-638 -680 -734 803 0
-638 -680 -735 804 0
-638 -680 -736 805 0
-638 -680 -737 806 0
-638 -680 -738 807 0
-638 -680 -739 807 0
-638 -680 -740 807 0
-638 -680 -741 807 0
-638 -680 -742 807 0
-638 -680 -743 807 0
-638 -680 -744 807 0
-638 -680 -745 807 0
-638 -680 -746 807 0
-638 -680 -747 807 0
-638 -680 -748 807 0
-638 -680 -749 807 0
-638 -680 -750 807 0
-638 -680 -751 807 0
-638 -680 -752 807 0
-638 -680 -753 807 0
-638 -680 -754 807 0
-638 -680 -755 807 0
-638 -681 -730 800 0
-638 -681 -731 801 0
-638 -681 -732 802 0
-638 -681 -733 803 0
-638 -681 -734 804 0
-638 -681 -735 805 0
-638 -681 -736 806 0
-638 -681 -737 807 0
-638 -681 -738 807 0
-638 -681 -739 807 0
-638 -681 -740 807 0
-638 -681 -741 807 0
-638 -681 -742 807 0
-638 -681 -743 807 0
-638 -681 -744 807 0
-638 -681 -745 807 0
-638 -681 -746 807 0
-638 -681 -747 807 0
-638 -681 -748 807 0
-638 -681 -749 807 0
-638 -681 -750 807 0
-638 -681 -751 807 0
-638 -681 -752 807 0
-638 -681 -753 807 0
-638 -681 -754 807 0
-638 -681 -755 807 0
-638 -682 -730 801 0
-638 -682 -731 802 0
-638 -682 -732 803 0
-638 -682 -733 804 0
-638 -682 -734 805 0
-638 -682 -735 806 0
-638 -682 -736 807 0
-638 -682 -737 807 0
-638 -682 -738 807 0
-638 -682 -739 807 0
-638 -682 -740 807 0
-638 -682 -741 807 0
-638 -682 -742 807 0
-638 -682 -743 807 0
-638 -682 -744 807 0
-638 -682 -745 807 0
-638 -682 -746 807 0
-638 -682 -747 807 0
-638 -682 -748 807 0
-638 -682 -749 807 0
-638 -682 -750 807 0
-638 -682 -751 807 0
-638 -682 -752 807 0
-638 -682 -753 807 0
-638 -682 -754 807 0
-638 -682 -755 807 0
-638 -683 -730 802 0
-638 -683 -731 803 0
-638 -683 -732 804 0
-638 -683 -733 805 0
-638 -683 -734 806 0
-638 -683 -735 807 0
-638 -683 -736 807 0
-638 -683 -737 807 0
-638 -683 -738 807 0
-638 -683 -739 807 0
-638 -683 -740 807 0
-638 -683 -741 807 0
-638 -683 -742 807 0
-638 -683 -743 807 0
-638 -683 -744 807 0
-638 -683 -745 807 0
-638 -683 -746 807 0
-638 -683 -747 807 0
-638 -683 -748 807 0
-638 -683 -749 807 0
-638 -683 -750 807 0
-638 -683 -751 807 0
-638 -683 -752 807 0
-638 -683 -753 807 0
-638 -683 -754 807 0
-638 -683 -755 807 0
-638 -684 -730 803 0
-638 -684 -731 804 0
-638 -684 -732 805 0
-638 -684 -733 806 0
-638 -684 -734 807 0
-638 -684 -735 807 0
-638 -684 -736 807 0
-638 -684 -737 807 0
-638 -684 -738 807 0
-638 -684 -739 807 0
-638 -684 -740 807 0
-638 -684 -741 807 0
-638 -684 -742 807 0
-638 -684 -743 807 0
-638 -684 -744 807 0
-638 -684 -745 807 0
-638 -684 -746 807 0
-638 -684 -747 807 0
-638 -684 -748 807 0
-638 -684 -749 807 0
-638 -684 -750 807 0
-638 -684 -751 807 0
-638 -684 -752 807 0
-638 -684 -753 807 0
-638 -684 -754 807 0
-638 -684 -755 807 0
-638 -685 -730 804 0
-638 -685 -731 805 0
-638 -685 -732 806 0
-638 -685 -733 807 0
-638 -685 -734 807 0
-638 -685 -735 807 0
-638 -685 -736 807 0
-638 -685 -737 807 0
-638 -685 -738 807 0
-638 -685 -739 807 0
-638 -685 -740 807 0
-638 -685 -741 807 0
-638 -685 -742 807 0
-638 -685 -743 807 0
-638 -685 -744 807 0
-638 -685 -745 807 0
-638 -685 -746 807 0
-638 -685 -747 807 0
-638 -685 -748 807 0
-638 -685 -749 807 0
-638 -685 -750 807 0
-638 -685 -751 807 0
-638 -685 -752 807 0
-638 -685 -753 807 0
-638 -685 -754 807 0
-638 -685 -755 807 0
-638 -686 -730 805 0
-638 -686 -731 806 0
-638 -686 -732 807 0
-638 -686 -733 807 0
-638 -686 -734 807 0
-638 -686 -735 807 0
-638 -686 -736 807 0
-638 -686 -737 807 0
-638 -686 -738 807 0
-638 -686 -739 807 0
-638 -686 -740 807 0
-638 -686 -741 807 0
-638 -686 -742 807 0
-638 -686 -743 807 0
-638 -686 -744 807 0
-638 -686 -745 807 0
-638 -686 -746 807 0
-638 -686 -747 807 0
-638 -686 -748 807 0
-638 -686 -749 807 0
-638 -686 -750 807 0
-638 -686 -751 807 0
-638 -686 -752 807 0
-638 -686 -753 807 0
-638 -686 -754 807 0
-638 -686 -755 807 0
-638 -687 -730 806 0
-638 -687 -731 807 0
-638 -687 -732 807 0
-638 -687 -733 807 0
-638 -687 -734 807 0
-638 -687 -735 807 0
-638 -687 -736 807 0
-638 -687 -737 807 0
-638 -687 -738 807 0
-638 -687 -739 807 0
-638 -687 -740 807 0
-638 -687 -741 807 0
-638 -687 -742 807 0
-638 -687 -743 807 0
-638 -687 -744 807 0
-638 -687 -745 807 0
-638 -687 -746 807 0
-638 -687 -747 807 0
-638 -687 -748 807 0
-638 -687 -749 807 0
-638 -687 -750 807 0
-638 -687 -751 807 0
-638 -687 -752 807 0
-638 -687 -753 807 0
-638 -687 -754 807 0
-638 -687 -755 807 0
-638 -688 -730 807 0
-638 -688 -731 807 0
-638 -688 -732 807 0
-638 -688 -733 807 0
-638 -688 -734 807 0
-638 -688 -735 807 0
-638 -688 -736 807 0
-638 -688 -737 807 0
-638 -688 -738 807 0
-638 -688 -739 807 0
-638 -688 -740 807 0
-638 -688 -741 807 0
-638 -688 -742 807 0
-638 -688 -743 807 0
-638 -688 -744 807 0
-638 -688 -745 807 0
-638 -688 -746 807 0
-638 -688 -747 807 0
-638 -688 -748 807 0
-638 -688 -749 807 0
-638 -688 -750 807 0
-638 -688 -751 807 0
-638 -688 -752 807 0
-638 -688 -753 807 0
-638 -688 -754 807 0
-638 -688 -755 807 0
-638 -689 -730 807 0
-638 -689 -731 807 0
-638 -689 -732 807 0
-638 -689 -733 807 0
-638 -689 -734 807 0
-638 -689 -735 807 0
-638 -689 -736 807 0
-638 -689 -737 807 0
-638 -689 -738 807 0
-638 -689 -739 807 0
-638 -689 -740 807 0
-638 -689 -741 807 0
-638 -689 -742 807 0
-638 -689 -743 807 0
-638 -689 -744 807 0
-638 -689 -745 807 0
-638 -689 -746 807 0
-638 -689 -747 807 0
-638 -689 -748 807 0
-638 -689 -749 807 0
-638 -689 -750 807 0
-638 -689 -751 807 0
-638 -689 -752 807 0
-638 -689 -753 807 0
-638 -689 -754 807 0
-638 -689 -755 807 0
-638 -690 -730 807 0
-638 -690 -731 807 0
-638 -690 -732 807 0
-638 -690 -733 807 0
-638 -690 -734 807 0
-638 -690 -735 807 0
-638 -690 -736 807 0
-638 -690 -737 807 0
-638 -690 -738 807 0
-638 -690 -739 807 0
-638 -690 -740 807 0
-638 -690 -741 807 0
-638 -690 -742 807 0
-638 -690 -743 807 0
-638 -690 -744 807 0
-638 -690 -745 807 0
-638 -690 -746 807 0
-638 -690 -747 807 0
-638 -690 -748 807 0
-638 -690 -749 807 0
-638 -690 -750 807 0
-638 -690 -751 807 0
-638 -690 -752 807 0
-638 -690 -753 807 0
-638 -690 -754 807 0
-638 -690 -755 807 0
-638 -691 -730 807 0
-638 -691 -731 807 0
-638 -691 -732 807 0
-638 -691 -733 807 0
-638 -691 -734 807 0
-638 -691 -735 807 0
-638 -691 -736 807 0
-638 -691 -737 807 0
-638 -691 -738 807 0
-638 -691 -739 807 0
-638 -691 -740 807 0
-638 -691 -741 807 0
-638 -691 -742 807 0
-638 -691 -743 807 0
-638 -691 -744 807 0
-638 -691 -745 807 0
-638 -691 -746 807 0
-638 -691 -747 807 0
-638 -691 -748 807 0
-638 -691 -749 807 0
-638 -691 -750 807 0
-638 -691 -751 807 0
-638 -691 -752 807 0
-638 -691 -753 807 0
-638 -691 -754 807 0
-638 -691 -755 807 0
-638 -692 -730 807 0
-638 -692 -731 807 0
-638 -692 -732 807 0
-638 -692 -733 807 0
-638 -692 -734 807 0
-638 -692 -735 807 0
-638 -692 -736 807 0
-638 -692 -737 807 0
-638 -692 -738 807 0
-638 -692 -739 807 0
-638 -692 -740 807 0
-638 -692 -741 807 0
-638 -692 -742 807 0
-638 -692 -743 807 0
-638 -692 -744 807 0
-638 -692 -745 807 0
-638 -692 -746 807 0
-638 -692 -747 807 0
-638 -692 -748 807 0
-638 -692 -749 807 0
-638 -692 -750 807 0
-638 -692 -751 807 0
-638 -692 -752 807 0
-638 -692 -753 807 0
-638 -692 -754 807 0
-638 -692 -755 807 0
-638 -693 -730 807 0
-638 -693 -731 807 0
-638 -693 -732 807 0
-638 -693 -733 807 0
-638 -693 -734 807 0
-638 -693 -735 807 0
-638 -693 -736 807 0
-638 -693 -737 807 0
-638 -693 -738 807 0
-638 -693 -739 807 0
-638 -693 -740 807 0
-638 -693 -741 807 0
-638 -693 -742 807 0
-638 -693 -743 807 0
-638 -693 -744 807 0
-638 -693 -745 807 0
-638 -693 -746 807 0
-638 -693 -747 807 0
-638 -693 -748 807 0
-638 -693 -749 807 0
-638 -693 -750 807 0
-638 -693 -751 807 0
-638 -693 -752 807 0
-638 -693 -753 807 0
-638 -693 -754 807 0
-638 -693 -755 807 0
-638 -694 -730 807 0
-638 -694 -731 807 0
-638 -694 -732 807 0
-638 -694 -733 807 0
-638 -694 -734 807 0
-638 -694 -735 807 0
-638 -694 -736 807 0
-638 -694 -737 807 0
-638 -694 -738 807 0
-638 -694 -739 807 0
-638 -694 -740 807 0
-638 -694 -741 807 0
-638 -694 -742 807 0
-638 -694 -743 807 0
-638 -694 -744 807 0
-638 -694 -745 807 0
-638 -694 -746 807 0
-638 -694 -747 807 0
-638 -694 -748 807 0
-638 -694 -749 807 0
-638 -694 -750 807 0
-638 -694 -751 807 0
-638 -694 -752 807 0
-638 -694 -753 807 0
-638 -694 -754 807 0
-638 -694 -755 807 0
-638 -695 -730 807 0
-638 -695 -731 807 0
-638 -695 -732 807 0
-638 -695 -733 807 0
-638 -695 -734 807 0
-638 -695 -735 807 0
-638 -695 -736 807 0
-638 -695 -737 807 0
-638 -695 -738 807 0
-638 -695 -739 807 0
-638 -695 -740 807 0
-638 -695 -741 807 0
-638 -695 -742 807 0
-638 -695 -743 807 0
-638 -695 -744 807 0
-638 -695 -745 807 0
-638 -695 -746 807 0
-638 -695 -747 807 0
-638 -695 -748 807 0
-638 -695 -749 807 0
-638 -695 -750 807 0
-638 -695 -751 807 0
-638 -695 -752 807 0
-638 -695 -753 807 0
-638 -695 -754 807 0
-638 -695 -755 807 0
-638 -696 -730 807 0
-638 -696 -731 807 0
-638 -696 -732 807 0
-638 -696 -733 807 0
-638 -696 -734 807 0
-638 -696 -735 807 0
-638 -696 -736 807 0
-638 -696 -737 807 0
-638 -696 -738 807 0
-638 -696 -739 807 0
-638 -696 -740 807 0
-638 -696 -741 807 0
-638 -696 -742 807 0
-638 -696 -743 807 0
-638 -696 -744 807 0
-638 -696 -745 807 0
-638 -696 -746 807 0
-638 -696 -747 807 0
-638 -696 -748 807 0
-638 -696 -749 807 0
-638 -696 -750 807 0
-638 -696 -751 807 0
-638 -696 -752 807 0
-638 -696 -753 807 0
-638 -696 -754 807 0
-638 -696 -755 807 0
-638 -697 -730 807 0
-638 -697 -731 807 0
-638 -697 -732 807 0
-638 -697 -733 807 0
-638 -697 -734 807 0
-638 -697 -735 807 0
-638 -697 -736 807 0
-638 -697 -737 807 0
-638 -697 -738 807 0
-638 -697 -739 807 0
-638 -697 -740 807 0
-638 -697 -741 807 0
-638 -697 -742 807 0
-638 -697 -743 807 0
-638 -697 -744 807 0
-638 -697 -745 807 0
-638 -697 -746 807 0
-638 -697 -747 807 0
-638 -697 -748 807 0
-638 -697 -749 807 0
-638 -697 -750 807 0
-638 -697 -751 807 0
-638 -697 -752 807 0
-638 -697 -753 807 0
-638 -697 -754 807 0
-638 -697 -755 807 0
-638 -698 -730 807 0
-638 -698 -731 807 0
-638 -698 -732 807 0
-638 -698 -733 807 0
-638 -698 -734 807 0
-638 -698 -735 807 0
-638 -698 -736 807 0
-638 -698 -737 807 0
-638 -698 -738 807 0
-638 -698 -739 807 0
-638 -698 -740 807 0
-638 -698 -741 807 0
-638 -698 -742 807 0
-638 -698 -743 807 0
-638 -698 -744 807 0
-638 -698 -745 807 0
-638 -698 -746 807 0
-638 -698 -747 807 0
-638 -698 -748 807 0
-638 -698 -749 807 0
-638 -698 -750 807 0
-638 -698 -751 807 0
-638 -698 -752 807 0
-638 -698 -753 807 0
-638 -698 -754 807 0
-638 -698 -755 807 0
-638 -699 -730 807 0
-638 -699 -731 807 0
-638 -699 -732 807 0
-638 -699 -733 807 0
-638 -699 -734 807 0
-638 -699 -735 807 0
-638 -699 -736 807 0
-638 -699 -737 807 0
-638 -699 -738 807 0
-638 -699 -739 807 0
-638 -699 -740 807 0
-638 -699 -741 807 0
-638 -699 -742 807 0
-638 -699 -743 807 0
-638 -699 -744 807 0
-638 -699 -745 807 0
-638 -699 -746 807 0
-638 -699 -747 807 0
-638 -699 -748 807 0
-638 -699 -749 807 0
-638 -699 -750 807 0
-638 -699 -751 807 0
-638 -699 -752 807 0
-638 -699 -753 807 0
-638 -699 -754 807 0
-638 -699 -755 807 0
-638 -700 -730 807 0
-638 -700 -731 807 0
-638 -700 -732 807 0
-638 -700 -733 807 0
-638 -700 -734 807 0
-638 -700 -735 807 0
-638 -700 -736 807 0
-638 -700 -737 807 0
-638 -700 -738 807 0
-638 -700 -739 807 0
-638 -700 -740 807 0
-638 -700 -741 807 0
-638 -700 -742 807 0
-638 -700 -743 807 0
-638 -700 -744 807 0
-638 -700 -745 807 0
-638 -700 -746 807 0
-638 -700 -747 807 0
-638 -700 -748 807 0
-638 -700 -749 807 0
-638 -700 -750 807 0
-638 -700 -751 807 0
-638 -700 -752 807 0
-638 -700 -753 807 0
-638 -700 -754 807 0
-638 -700 -755 807 0
-638 -701 -730 807 0
-638 -701 -731 807 0
-638 -701 -732 807 0
-638 -701 -733 807 0
-638 -701 -734 807 0
-638 -701 -735 807 0
-638 -701 -736 807 0
-638 -701 -737 807 0
-638 -701 -738 807 0
-638 -701 -739 807 0
-638 -701 -740 807 0
-638 -701 -741 807 0
-638 -701 -742 807 0
-638 -701 -743 807 0
-638 -701 -744 807 0
-638 -701 -745 807 0
-638 -701 -746 807 0
-638 -701 -747 807 0
-638 -701 -748 807 0
-638 -701 -749 807 0
-638 -701 -750 807 0
-638 -701 -751 807 0
-638 -701 -752 807 0
-638 -701 -753 807 0
-638 -701 -754 807 0
-638 -701 -755 807 0
-638 -702 -730 807 0
-638 -702 -731 807 0
-638 -702 -732 807 0
-638 -702 -733 807 0
-638 -702 -734 807 0
-638 -702 -735 807 0
-638 -702 -736 807 0
-638 -702 -737 807 0
-638 -702 -738 807 0
-638 -702 -739 807 0
-638 -702 -740 807 0
-638 -702 -741 807 0
-638 -702 -742 807 0
-638 -702 -743 807 0
-638 -702 -744 807 0
-638 -702 -745 807 0
-638 -702 -746 807 0
-638 -702 -747 807 0
-638 -702 -748 807 0
-638 -702 -749 807 0
-638 -702 -750 807 0
-638 -702 -751 807 0
-638 -702 -752 807 0
-638 -702 -753 807 0
-638 -702 -754 807 0
-638 -702 -755 807 0
-638 -703 -730 807 0
-638 -703 -731 807 0
-638 -703 -732 807 0
-638 -703 -733 807 0
-638 -703 -734 807 0
-638 -703 -735 807 0
-638 -703 -736 807 0
-638 -703 -737 807 0
-638 -703 -738 807 0
-638 -703 -739 807 0
-638 -703 -740 807 0
-638 -703 -741 807 0
-638 -703 -742 807 0
-638 -703 -743 807 0
-638 -703 -744 807 0
-638 -703 -745 807 0
-638 -703 -746 807 0
-638 -703 -747 807 0
-638 -703 -748 807 0
-638 -703 -749 807 0
-638 -703 -750 807 0
-638 -703 -751 807 0
-638 -703 -752 807 0
-638 -703 -753 807 0
-638 -703 -754 807 0
-638 -703 -755 807 0
-639 -678 -730 798 0
-639 -678 -731 799 0
-639 -678 -732 800 0
-639 -678 -733 801 0
-639 -678 -734 802 0
-639 -678 -735 803 0
-639 -678 -736 804 0
-639 -678 -737 805 0
-639 -678 -738 806 0
-639 -678 -739 807 0
-639 -678 -740 807 0
-639 -678 -741 807 0
-639 -678 -742 807 0
-639 -678 -743 807 0
-639 -678 -744 807 0
-639 -678 -745 807 0
-639 -678 -746 807 0
-639 -678 -747 807 0
-639 -678 -748 807 0
-639 -678 -749 807 0
-639 -678 -750 807 0
-639 -678 -751 807 0
-639 -678 -752 807 0
-639 -678 -753 807 0
-639 -678 -754 807 0
-639 -678 -755 807 0
-639 -679 -730 799 0
-639 -679 -731 800 0
-639 -679 -732 801 0
-639 -679 -733 802 0
-639 -679 -734 803 0
-639 -679 -735 804 0
-639 -679 -736 805 0
-639 -679 -737 806 0
-639 -679 -738 807 0
-639 -679 -739 807 0
-639 -679 -740 807 0
-639 -679 -741 807 0
-639 -679 -742 807 0
-639 -679 -743 807 0
-639 -679 -744 807 0
-639 -679 -745 807 0
-639 -679 -746 807 0
-639 -679 -747 807 0
-639 -679 -748 807 0
-639 -679 -749 807 0
-639 -679 -750 807 0
-639 -679 -751 807 0
-639 -679 -752 807 0
-639 -679 -753 807 0
-639 -679 -754 807 0
-639 -679 -755 807 0
-639 -680 -730 800 0
-639 -680 -731 801 0
-639 -680 -732 802 0
-639 -680 -733 803 0
-639 -680 -734 804 0
-639 -680 -735 805 0
-639 -680 -736 806 0
-639 -680 -737 807 0
-639 -680 -738 807 0
-639 -680 -739 807 0
-639 -680 -740 807 0
-639 -680 -741 807 0
-639 -680 -742 807 0
-639 -680 -743 807 0
-639 -680 -744 807 0
-639 -680 -745 807 0
-639 -680 -746 807 0
-639 -680 -747 807 0
-639 -680 -748 807 0
-639 -680 -749 807 0
-639 -680 -750 807 0
-639 -680 -751 807 0
-639 -680 -752 807 0
-639 -680 -753 807 0
-639 -680 -754 807 0
-639 -680 -755 807 0
-639 -681 -730 801 0
-639 -681 -731 802 0
-639 -681 -732 803 0
-639 -681 -733 804 0
-639 -681 -734 805 0
-639 -681 -735 806 0
-639 -681 -736 807 0
-639 -681 -737 807 0
-639 -681 -738 807 0
-639 -681 -739 807 0
-639 -681 -740 807 0
-639 -681 -741 807 0
-639 -681 -742 807 0
-639 -681 -743 807 0
-639 -681 -744 807 0
-639 -681 -745 807 0
-639 -681 -746 807 0
-639 -681 -747 807 0
-639 -681 -748 807 0
-639 -681 -749 807 0
-639 -681 -750 807 0
-639 -681 -751 807 0
-639 -681 -752 807 0
-639 -681 -753 807 0
-639 -681 -754 807 0
-639 -681 -755 807 0
-639 -682 -730 802 0
-639 -682 -731 803 0
-639 -682 -732 804 0
-639 -682 -733 805 0
-639 -682 -734 806 0
-639 -682 -735 807 0
-639 -682 -736 807 0
-639 -682 -737 807 0
-639 -682 -738 807 0
-639 -682 -739 807 0
-639 -682 -740 807 0
-639 -682 -741 807 0
-639 -682 -742 807 0
-639 -682 -743 807 0
-639 -682 -744 807 0
-639 -682 -745 807 0
-639 -682 -746 807 0
-639 -682 -747 807 0
-639 -682 -748 807 0
-639 -682 -749 807 0
-639 -682 -750 807 0
-639 -682 -751 807 0
-639 -682 -752 807 0
-639 -682 -753 807 0
-639 -682 -754 807 0
-639 -682 -755 807 0
-639 -683 -730 803 0
-639 -683 -731 804 0
-639 -683 -732 805 0
-639 -683 -733 806 0
-639 -683 -734 807 0
-639 -683 -735 807 0
-639 -683 -736 807 0
-639 -683 -737 807 0
-639 -683 -738 807 0
-639 -683 -739 807 0
-639 -683 -740 807 0
-639 -683 -741 807 0
-639 -683 -742 807 0
-639 -683 -743 807 0
-639 -683 -744 807 0
-639 -683 -745 807 0
-639 -683 -746 807 0
-639 -683 -747 807 0
-639 -683 -748 807 0
-639 -683 -749 807 0
-639 -683 -750 807 0
-639 -683 -751 807 0
-639 -683 -752 807 0
-639 -683 -753 807 0
-639 -683 -754 807 0
-639 -683 -755 807 0
-639 -684 -730 804 0
-639 -684 -731 805 0
-639 -684 -732 806 0
-639 -684 -733 807 0
-639 -684 -734 807 0
-639 -684 -735 807 0
-639 -684 -736 807 0
-639 -684 -737 807 0
-639 -684 -738 807 0
-639 -684 -739 807 0
-639 -684 -740 807 0
-639 -684 -741 807 0
-639 -684 -742 807 0
-639 -684 -743 807 0
-639 -684 -744 807 0
-639 -684 -745 807 0
-639 -684 -746 807 0
-639 -684 -747 807 0
-639 -684 -748 807 0
-639 -684 -749 807 0
-639 -684 -750 807 0
-639 -684 -751 807 0
-639 -684 -752 807 0
-639 -684 -753 807 0
-639 -684 -754 807 0
-639 -684 -755 807 0
-639 -685 -730 805 0
-639 -685 -731 806 0
-639 -685 -732 807 0
-639 -685 -733 807 0
-639 -685 -734 807 0
-639 -685 -735 807 0
-639 -685 -736 807 0
-639 -685 -737 807 0
-639 -685 -738 807 0
-639 -685 -739 807 0
-639 -685 -740 807 0
-639 -685 -741 807 0
-639 -685 -742 807 0
-639 -685 -743 807 0
-639 -685 -744 807 0
-639 -685 -745 807 0
-639 -685 -746 807 0
-639 -685 -747 807 0
-639 -685 -748 807 0
-639 -685 -749 807 0
-639 -685 -750 807 0
-639 -685 -751 807 0
-639 -685 -752 807 0
-639 -685 -753 807 0
-639 -685 -754 807 0
-639 -685 -755 807 0
-639 -686 -730 806 0
-639 -686 -731 807 0
-639 -686 -732 807 0
-639 -686 -733 807 0
-639 -686 -734 807 0
-639 -686 -735 807 0
-639 -686 -736 807 0
-639 -686 -737 807 0
-639 -686 -738 807 0
-639 -686 -739 807 0
-639 -686 -740 807 0
-639 -686 -741 807 0
-639 -686 -742 807 0
-639 -686 -743 807 0
-639 -686 -744 807 0
-639 -686 -745 807 0
-639 -686 -746 807 0
-639 -686 -747 807 0
-639 -686 -748 807 0
-639 -686 -749 807 0
-639 -686 -750 807 0
-639 -686 -751 807 0
-639 -686 -752 807 0
-639 -686 -753 807 0
-639 -686 -754 807 0
-639 -686 -755 807 0
-639 -687 -730 807 0
-639 -687 -731 807 0
-639 -687 -732 807 0
-639 -687 -733 807 0
-639 -687 -734 807 0
-639 -687 -735 807 0
-639 -687 -736 807 0
-639 -687 -737 807 0
-639 -687 -738 807 0
-639 -687 -739 807 0
-639 -687 -740 807 0
-639 -687 -741 807 0
-639 -687 -742 807 0
-639 -687 -743 807 0
-639 -687 -744 807 0
-639 -687 -745 807 0
-639 -687 -746 807 0
-639 -687 -747 807 0
-639 -687 -748 807 0
-639 -687 -749 807 0
-639 -687 -750 807 0
-639 -687 -751 807 0
-639 -687 -752 807 0
-639 -687 -753 807 0
-639 -687 -754 807 0
-639 -687 -755 807 0
-639 -688 -730 807 0
-639 -688 -731 807 0
-639 -688 -732 807 0
-639 -688 -733 807 0
-639 -688 -734 807 0
-639 -688 -735 807 0
-639 -688 -736 807 0
-639 -688 -737 807 0
-639 -688 -738 807 0
-639 -688 -739 807 0
-639 -688 -740 807 0
-639 -688 -741 807 0
-639 -688 -742 807 0
-639 -688 -743 807 0
-639 -688 -744 807 0
-639 -688 -745 807 0
-639 -688 -746 807 0
-639 -688 -747 807 0
-639 -688 -748 807 0
-639 -688 -749 807 0
-639 -688 -750 807 0
-639 -688 -751 807 0
-639 -688 -752 807 0
-639 -688 -753 807 0
-639 -688 -754 807 0
-639 -688 -755 807 0
-639 -689 -730 807 0
-639 -689 -731 807 0
-639 -689 -732 807 0
-639 -689 -733 807 0
-639 -689 -734 807 0
-639 -689 -735 807 0
-639 -689 -736 807 0
-639 -689 -737 807 0
-639 -689 -738 807 0
-639 -689 -739 807 0
-639 -689 -740 807 0
-639 -689 -741 807 0
-639 -689 -742 807 0
-639 -689 -743 807 0
-639 -689 -744 807 0
-639 -689 -745 807 0
-639 -689 -746 807 0
-639 -689 -747 807 0
-639 -689 -748 807 0
-639 -689 -749 807 0
-639 -689 -750 807 0
-639 -689 -751 807 0
-639 -689 -752 807 0
-639 -689 -753 807 0
-639 -689 -754 807 0
-639 -689 -755 807 0
-639 -690 -730 807 0
-639 -690 -731 807 0
-639 -690 -732 807 0
-639 -690 -733 807 0
-639 -690 -734 807 0
-639 -690 -735 807 0
-639 -690 -736 807 0
-639 -690 -737 807 0
-639 -690 -738 807 0
-639 -690 -739 807 0
-639 -690 -740 807 0
-639 -690 -741 807 0
-639 -690 -742 807 0
-639 -690 -743 807 0
-639 -690 -744 807 0
-639 -690 -745 807 0
-639 -690 -746 807 0
-639 -690 -747 807 0
-639 -690 -748 807 0
-639 -690 -749 807 0
-639 -690 -750 807 0
-639 -690 -751 807 0
-639 -690 -752 807 0
-639 -690 -753 807 0
-639 -690 -754 807 0
-639 -690 -755 807 0
-639 -691 -730 807 0
-639 -691 -731 807 0
-639 -691 -732 807 0
-639 -691 -733 807 0
-639 -691 -734 807 0
-639 -691 -735 807 0
-639 -691 -736 807 0
-639 -691 -737 807 0
-639 -691 -738 807 0
-639 -691 -739 807 0
-639 -691 -740 807 0
-639 -691 -741 807 0
-639 -691 -742 807 0
-639 -691 -743 807 0
-639 -691 -744 807 0
-639 -691 -745 807 0
-639 -691 -746 807 0
-639 -691 -747 807 0
-639 -691 -748 807 0
-639 -691 -749 807 0
-639 -691 -750 807 0
-639 -691 -751 807 0
-639 -691 -752 807 0
-639 -691 -753 807 0
-639 -691 -754 807 0
-639 -691 -755 807 0
-639 -692 -730 807 0
-639 -692 -731 807 0
-639 -692 -732 807 0
-639 -692 -733 807 0
-639 -692 -734 807 0
-639 -692 -735 807 0
-639 -692 -736 807 0
-639 -692 -737 807 0
-639 -692 -738 807 0
-639 -692 -739 807 0
-639 -692 -740 807 0
-639 -692 -741 807 0
-639 -692 -742 807 0
-639 -692 -743 807 0
-639 -692 -744 807 0
-639 -692 -745 807 0
-639 -692 -746 807 0
-639 -692 -747 807 0
-639 -692 -748 807 0
-639 -692 -749 807 0
-639 -692 -750 807 0
-639 -692 -751 807 0
-639 -692 -752 807 0
-639 -692 -753 807 0
-639 -692 -754 807 0
-639 -692 -755 807 0
-639 -693 -730 807 0
-639 -693 -731 807 0
-639 -693 -732 807 0
-639 -693 -733 807 0
-639 -693 -734 807 0
-639 -693 -735 807 0
-639 -693 -736 807 0
-639 -693 -737 807 0
-639 -693 -738 807 0
-639 -693 -739 807 0
-639 -693 -740 807 0
-639 -693 -741 807 0
-639 -693 -742 807 0
-639 -693 -743 807 0
-639 -693 -744 807 0
-639 -693 -745 807 0
-639 -693 -746 807 0
-639 -693 -747 807 0
-639 -693 -748 807 0
-639 -693 -749 807 0
-639 -693 -750 807 0
-639 -693 -751 807 0
-639 -693 -752 807 0
-639 -693 -753 807 0
-639 -693 -754 807 0
-639 -693 -755 807 0
-639 -694 -730 807 0
-639 -694 -731 807 0
-639 -694 -732 807 0
-639 -694 -733 807 0
-639 -694 -734 807 0
-639 -694 -735 807 0
-639 -694 -736 807 0
-639 -694 -737 807 0
-639 -694 -738 807 0
-639 -694 -739 807 0
-639 -694 -740 807 0
-639 -694 -741 807 0
-639 -694 -742 807 0
-639 -694 -743 807 0
-639 -694 -744 807 0
-639 -694 -745 807 0
-639 -694 -746 807 0
-639 -694 -747 807 0
-639 -694 -748 807 0
-639 -694 -749 807 0
-639 -694 -750 807 0
-639 -694 -751 807 0
-639 -694 -752 807 0
-639 -694 -753 807 0
-639 -694 -754 807 0
-639 -694 -755 807 0
-639 -695 -730 807 0
-639 -695 -731 807 0
-639 -695 -732 807 0
-639 -695 -733 807 0
-639 -695 -734 807 0
-639 -695 -735 807 0
-639 -695 -736 807 0
-639 -695 -737 807 0
-639 -695 -738 807 0
-639 -695 -739 807 0
-639 -695 -740 807 0
-639 -695 -741 807 0
-639 -695 -742 807 0
-639 -695 -743 807 0
-639 -695 -744 807 0
-639 -695 -745 807 0
-639 -695 -746 807 0
-639 -695 -747 807 0
-639 -695 -748 807 0
-639 -695 -749 807 0
-639 -695 -750 807 0
-639 -695 -751 807 0
-639 -695 -752 807 0
-639 -695 -753 807 0
-639 -695 -754 807 0
-639 -695 -755 807 0
-639 -696 -730 807 0
-639 -696 -731 807 0
-639 -696 -732 807 0
-639 -696 -733 807 0
-639 -696 -734 807 0
-639 -696 -735 807 0
-639 -696 -736 807 0
-639 -696 -737 807 0
-639 -696 -738 807 0
-639 -696 -739 807 0
-639 -696 -740 807 0
-639 -696 -741 807 0
-639 -696 -742 807 0
-639 -696 -743 807 0
-639 -696 -744 807 0
-639 -696 -745 807 0
-639 -696 -746 807 0
-639 -696 -747 807 0
-639 -696 -748 807 0
-639 -696 -749 807 0
-639 -696 -750 807 0
-639 -696 -751 807 0
-639 -696 -752 807 0
-639 -696 -753 807 0
-639 -696 -754 807 0
-639 -696 -755 807 0
-639 -697 -730 807 0
-639 -697 -731 807 0
-639 -697 -732 807 0
-639 -697 -733 807 0
-639 -697 -734 807 0
-639 -697 -735 807 0
-639 -697 -736 807 0
-639 -697 -737 807 0
-639 -697 -738 807 0
-639 -697 -739 807 0
-639 -697 -740 807 0
-639 -697 -741 807 0
-639 -697 -742 807 0
-639 -697 -743 807 0
-639 -697 -744 807 0
-639 -697 -745 807 0
-639 -697 -746 807 0
-639 -697 -747 807 0
-639 -697 -748 807 0
-639 -697 -749 807 0
-639 -697 -750 807 0
-639 -697 -751 807 0
-639 -697 -752 807 0
-639 -697 -753 807 0
-639 -697 -754 807 0
-639 -697 -755 807 0
-639 -698 -730 807 0
-639 -698 -731 807 0
-639 -698 -732 807 0
-639 -698 -733 807 0
-639 -698 -734 807 0
-639 -698 -735 807 0
-639 -698 -736 807 0
-639 -698 -737 807 0
-639 -698 -738 807 0
-639 -698 -739 807 0
-639 -698 -740 807 0
-639 -698 -741 807 0
-639 -698 -742 807 0
-639 -698 -743 807 0
-639 -698 -744 807 0
-639 -698 -745 807 0
-639 -698 -746 807 0
-639 -698 -747 807 0
-639 -698 -748 807 0
-639 -698 -749 807 0
-639 -698 -750 807 0
-639 -698 -751 807 0
-639 -698 -752 807 0
-639 -698 -753 807 0
-639 -698 -754 807 0
-639 -698 -755 807 0
-639 -699 -730 807 0
-639 -699 -731 807 0
-639 -699 -732 807 0
-639 -699 -733 807 0
-639 -699 -734 807 0
-639 -699 -735 807 0
-639 -699 -736 807 0
-639 -699 -737 807 0
-639 -699 -738 807 0
-639 -699 -739 807 0
-639 -699 -740 807 0
-639 -699 -741 807 0
-639 -699 -742 807 0
-639 -699 -743 807 0
-639 -699 -744 807 0
-639 -699 -745 807 0
-639 -699 -746 807 0
-639 -699 -747 807 0
-639 -699 -748 807 0
-639 -699 -749 807 0
-639 -699 -750 807 0
-639 -699 -751 807 0
-639 -699 -752 807 0
-639 -699 -753 807 0
-639 -699 -754 807 0
-639 -699 -755 807 0
-639 -700 -730 807 0
-639 -700 -731 807 0
-639 -700 -732 807 0
-639 -700 -733 807 0
-639 -700 -734 807 0
-639 -700 -735 807 0
-639 -700 -736 807 0
-639 -700 -737 807 0
-639 -700 -738 807 0
-639 -700 -739 807 0
-639 -700 -740 807 0
-639 -700 -741 807 0
-639 -700 -742 807 0
-639 -700 -743 807 0
-639 -700 -744 807 0
-639 -700 -745 807 0
-639 -700 -746 807 0
-639 -700 -747 807 0
-639 -700 -748 807 0
-639 -700 -749 807 0
-639 -700 -750 807 0
-639 -700 -751 807 0
-639 -700 -752 807 0
-639 -700 -753 807 0
-639 -700 -754 807 0
-639 -700 -755 807 0
-639 -701 -730 807 0
-639 -701 -731 807 0
-639 -701 -732 807 0
-639 -701 -733 807 0
-639 -701 -734 807 0
-639 -701 -735 807 0
-639 -701 -736 807 0
-639 -701 -737 807 0
-639 -701 -738 807 0
-639 -701 -739 807 0
-639 -701 -740 807 0
-639 -701 -741 807 0
-639 -701 -742 807 0
-639 -701 -743 807 0
-639 -701 -744 807 0
-639 -701 -745 807 0
-639 -701 -746 807 0
-639 -701 -747 807 0
-639 -701 -748 807 0
-639 -701 -749 807 0
-639 -701 -750 807 0
-639 -701 -751 807 0
-639 -701 -752 807 0
-639 -701 -753 807 0
-639 -701 -754 807 0
-639 -701 -755 807 0
-639 -702 -730 807 0
-639 -702 -731 807 0
-639 -702 -732 807 0
-639 -702 -733 807 0
-639 -702 -734 807 0
-639 -702 -735 807 0
-639 -702 -736 807 0
-639 -702 -737 807 0
-639 -702 -738 807 0
-639 -702 -739 807 0
-639 -702 -740 807 0
-639 -702 -741 807 0
-639 -702 -742 807 0
-639 -702 -743 807 0
-639 -702 -744 807 0
-639 -702 -745 807 0
-639 -702 -746 807 0
-639 -702 -747 807 0
-639 -702 -748 807 0
-639 -702 -749 807 0
-639 -702 -750 807 0
-639 -702 -751 807 0
-639 -702 -752 807 0
-639 -702 -753 807 0
-639 -702 -754 807 0
-639 -702 -755 807 0
-639 -703 -730 807 0
-639 -703 -731 807 0
-639 -703 -732 807 0
-639 -703 -733 807 0
-639 -703 -734 807 0
-639 -703 -735 807 0
-639 -703 -736 807 0
-639 -703 -737 807 0
-639 -703 -738 807 0
-639 -703 -739 807 0
-639 -703 -740 807 0
-639 -703 -741 807 0
-639 -703 -742 807 0
-639 -703 -743 807 0
-639 -703 -744 807 0
-639 -703 -745 807 0
-639 -703 -746 807 0
-639 -703 -747 807 0
-639 -703 -748 807 0
-639 -703 -749 807 0
-639 -703 -750 807 0
-639 -703 -751 807 0
-639 -703 -752 807 0
-639 -703 -753 807 0
-639 -703 -754 807 0
-639 -703 -755 807 0
-640 -678 -730 799 0
-640 -678 -731 800 0
-640 -678 -732 801 0
-640 -678 -733 802 0
-640 -678 -734 803 0
-640 -678 -735 804 0
-640 -678 -736 805 0
-640 -678 -737 806 0
-640 -678 -738 807 0
-640 -678 -739 807 0
-640 -678 -740 807 0
-640 -678 -741 807 0
-640 -678 -742 807 0
-640 -678 -743 807 0
-640 -678 -744 807 0
-640 -678 -745 807 0
-640 -678 -746 807 0
-640 -678 -747 807 0
-640 -678 -748 807 0
-640 -678 -749 807 0
-640 -678 -750 807 0
-640 -678 -751 807 0
-640 -678 -752 807 0
-640 -678 -753 807 0
-640 -678 -754 807 0
-640 -678 -755 807 0
-640 -679 -730 800 0
-640 -679 -731 801 0
-640 -679 -732 802 0
-640 -679 -733 803 0
-640 -679 -734 804 0
-640 -679 -735 805 0
-640 -679 -736 806 0
-640 -679 -737 807 0
-640 -679 -738 807 0
-640 -679 -739 807 0
-640 -679 -740 807 0
-640 -679 -741 807 0
-640 -679 -742 807 0
-640 -679 -743 807 0
-640 -679 -744 807 0
-640 -679 -745 807 0
-640 -679 -746 807 0
-640 -679 -747 807 0
-640 -679 -748 807 0
-640 -679 -749 807 0
-640 -679 -750 807 0
-640 -679 -751 807 0
-640 -679 -752 807 0
-640 -679 -753 807 0
-640 -679 -754 807 0
-640 -679 -755 807 0
-640 -680 -730 801 0
-640 -680 -731 802 0
-640 -680 -732 803 0
-640 -680 -733 804 0
-640 -680 -734 805 0
-640 -680 -735 806 0
-640 -680 -736 807 0
-640 -680 -737 807 0
-640 -680 -738 807 0
-640 -680 -739 807 0
-640 -680 -740 807 0
-640 -680 -741 807 0
-640 -680 -742 807 0
-640 -680 -743 807 0
-640 -680 -744 807 0
-640 -680 -745 807 0
-640 -680 -746 807 0
-640 -680 -747 807 0
-640 -680 -748 807 0
-640 -680 -749 807 0
-640 -680 -750 807 0
-640 -680 -751 807 0
-640 -680 -752 807 0
-640 -680 -753 807 0
-640 -680 -754 807 0
-640 -680 -755 807 0
-640 -681 -730 802 0
-640 -681 -731 803 0
-640 -681 -732 804 0
-640 -681 -733 805 0
-640 -681 -734 806 0
-640 -681 -735 807 0
-640 -681 -736 807 0
-640 -681 -737 807 0
-640 -681 -738 807 0
-640 -681 -739 807 0
-640 -681 -740 807 0
-640 -681 -741 807 0
-640 -681 -742 807 0
-640 -681 -743 807 0
-640 -681 -744 807 0
-640 -681 -745 807 0
-640 -681 -746 807 0
-640 -681 -747 807 0
-640 -681 -748 807 0
-640 -681 -749 807 0
-640 -681 -750 807 0
-640 -681 -751 807 0
-640 -681 -752 807 0
-640 -681 -753 807 0
-640 -681 -754 807 0
-640 -681 -755 807 0
-640 -682 -730 803 0
-640 -682 -731 804 0
-640 -682 -732 805 0
-640 -682 -733 806 0
-640 -682 -734 807 0
-640 -682 -735 807 0
-640 -682 -736 807 0
-640 -682 -737 807 0
-640 -682 -738 807 0
-640 -682 -739 807 0
-640 -682 -740 807 0
-640 -682 -741 807 0
-640 -682 -742 807 0
-640 -682 -743 807 0
-640 -682 -744 807 0
-640 -682 -745 807 0
-640 -682 -746 807 0
-640 -682 -747 807 0
-640 -682 -748 807 0
-640 -682 -749 807 0
-640 -682 -750 807 0
-640 -682 -751 807 0
-640 -682 -752 807 0
-640 -682 -753 807 0
-640 -682 -754 807 0
-640 -682 -755 807 0
-640 -683 -730 804 0
-640 -683 -731 805 0
-640 -683 -732 806 0
-640 -683 -733 807 0
-640 -683 -734 807 0
-640 -683 -735 807 0
-640 -683 -736 807 0
-640 -683 -737 807 0
-640 -683 -738 807 0
-640 -683 -739 807 0
-640 -683 -740 807 0
-640 -683 -741 807 0
-640 -683 -742 807 0
-640 -683 -743 807 0
-640 -683 -744 807 0
-640 -683 -745 807 0
-640 -683 -746 807 0
-640 -683 -747 807 0
-640 -683 -748 807 0
-640 -683 -749 807 0
-640 -683 -750 807 0
-640 -683 -751 807 0
-640 -683 -752 807 0
-640 -683 -753 807 0
-640 -683 -754 807 0
-640 -683 -755 807 0
-640 -684 -730 805 0
-640 -684 -731 806 0
-640 -684 -732 807 0
-640 -684 -733 807 0
-640 -684 -734 807 0
-640 -684 -735 807 0
-640 -684 -736 807 0
-640 -684 -737 807 0
-640 -684 -738 807 0
-640 -684 -739 807 0
-640 -684 -740 807 0
-640 -684 -741 807 0
-640 -684 -742 807 0
-640 -684 -743 807 0
-640 -684 -744 807 0
-640 -684 -745 807 0
-640 -684 -746 807 0
-640 -684 -747 807 0
-640 -684 -748 807 0
-640 -684 -749 807 0
-640 -684 -750 807 0
-640 -684 -751 807 0
-640 -684 -752 807 0
-640 -684 -753 807 0
-640 -684 -754 807 0
-640 -684 -755 807 0
-640 -685 -730 806 0
-640 -685 -731 807 0
-640 -685 -732 807 0
-640 -685 -733 807 0
-640 -685 -734 807 0
-640 -685 -735 807 0
-640 -685 -736 807 0
-640 -685 -737 807 0
-640 -685 -738 807 0
-640 -685 -739 807 0
-640 -685 -740 807 0
-640 -685 -741 807 0
-640 -685 -742 807 0
-640 -685 -743 807 0
-640 -685 -744 807 0
-640 -685 -745 807 0
-640 -685 -746 807 0
-640 -685 -747 807 0
-640 -685 -748 807 0
-640 -685 -749 807 0
-640 -685 -750 807 0
-640 -685 -751 807 0
-640 -685 -752 807 0
-640 -685 -753 807 0
-640 -685 -754 807 0
-640 -685 -755 807 0
-640 -686 -730 807 0
-640 -686 -731 807 0
-640 -686 -732 807 0
-640 -686 -733 807 0
-640 -686 -734 807 0
-640 -686 -735 807 0
-640 -686 -736 807 0
-640 -686 -737 807 0
-640 -686 -738 807 0
-640 -686 -739 807 0
-640 -686 -740 807 0
-640 -686 -741 807 0
-640 -686 -742 807 0
-640 -686 -743 807 0
-640 -686 -744 807 0
-640 -686 -745 807 0
-640 -686 -746 807 0
-640 -686 -747 807 0
-640 -686 -748 807 0
-640 -686 -749 807 0
-640 -686 -750 807 0
-640 -686 -751 807 0
-640 -686 -752 807 0
-640 -686 -753 807 0
-640 -686 -754 807 0
-640 -686 -755 807 0
-640 -687 -730 807 0
-640 -687 -731 807 0
-640 -687 -732 807 0
-640 -687 -733 807 0
-640 -687 -734 807 0
-640 -687 -735 807 0
-640 -687 -736 807 0
-640 -687 -737 807 0
-640 -687 -738 807 0
-640 -687 -739 807 0
-640 -687 -740 807 0
-640 -687 -741 807 0
-640 -687 -742 807 0
-640 -687 -743 807 0
-640 -687 -744 807 0
-640 -687 -745 807 0
-640 -687 -746 807 0
-640 -687 -747 807 0
-640 -687 -748 807 0
-640 -687 -749 807 0
-640 -687 -750 807 0
-640 -687 -751 807 0
-640 -687 -752 807 0
-640 -687 -753 807 0
-640 -687 -754 807 0
-640 -687 -755 807 0
-640 -688 -730 807 0
-640 -688 -731 807 0
-640 -688 -732 807 0
-640 -688 -733 807 0
-640 -688 -734 807 0
-640 -688 -735 807 0
-640 -688 -736 807 0
-640 -688 -737 807 0
-640 -688 -738 807 0
-640 -688 -739 807 0
-640 -688 -740 807 0
-640 -688 -741 807 0
-640 -688 -742 807 0
-640 -688 -743 807 0
-640 -688 -744 807 0
-640 -688 -745 807 0
-640 -688 -746 807 0
-640 -688 -747 807 0
-640 -688 -748 807 0
-640 -688 -749 807 0
-640 -688 -750 807 0
-640 -688 -751 807 0
-640 -688 -752 807 0
-640 -688 -753 807 0
-640 -688 -754 807 0
-640 -688 -755 807 0
-640 -689 -730 807 0
-640 -689 -731 807 0
-640 -689 -732 807 0
-640 -689 -733 807 0
-640 -689 -734 807 0
-640 -689 -735 807 0
-640 -689 -736 807 0
-640 -689 -737 807 0
-640 -689 -738 807 0
-640 -689 -739 807 0
-640 -689 -740 807 0
-640 -689 -741 807 0
-640 -689 -742 807 0
-640 -689 -743 807 0
-640 -689 -744 807 0
-640 -689 -745 807 0
-640 -689 -746 807 0
-640 -689 -747 807 0
-640 -689 -748 807 0
-640 -689 -749 807 0
-640 -689 -750 807 0
-640 -689 -751 807 0
-640 -689 -752 807 0
-640 -689 -753 807 0
-640 -689 -754 807 0
-640 -689 -755 807 0
-640 -690 -730 807 0
-640 -690 -731 807 0
-640 -690 -732 807 0
-640 -690 -733 807 0
-640 -690 -734 807 0
-640 -690 -735 807 0
-640 -690 -736 807 0
-640 -690 -737 807 0
-640 -690 -738 807 0
-640 -690 -739 807 0
-640 -690 -740 807 0
-640 -690 -741 807 0
-640 -690 -742 807 0
-640 -690 -743 807 0
-640 -690 -744 807 0
-640 -690 -745 807 0
-640 -690 -746 807 0
-640 -690 -747 807 0
-640 -690 -748 807 0
-640 -690 -749 807 0
-640 -690 -750 807 0
-640 -690 -751 807 0
-640 -690 -752 807 0
-640 -690 -753 807 0
-640 -690 -754 807 0
-640 -690 -755 807 0
-640 -691 -730 807 0
-640 -691 -731 807 0
-640 -691 -732 807 0
-640 -691 -733 807 0
-640 -691 -734 807 0
-640 -691 -735 807 0
-640 -691 -736 807 0
-640 -691 -737 807 0
-640 -691 -738 807 0
-640 -691 -739 807 0
-640 -691 -740 807 0
-640 -691 -741 807 0
-640 -691 -742 807 0
-640 -691 -743 807 0
-640 -691 -744 807 0
-640 -691 -745 807 0
-640 -691 -746 807 0
-640 -691 -747 807 0
-640 -691 -748 807 0
-640 -691 -749 807 0
-640 -691 -750 807 0
-640 -691 -751 807 0
-640 -691 -752 807 0
-640 -691 -753 807 0
-640 -691 -754 807 0
-640 -691 -755 807 0
-640 -692 -730 807 0
-640 -692 -731 807 0
-640 -692 -732 807 0
-640 -692 -733 807 0
-640 -692 -734 807 0
-640 -692 -735 807 0
-640 -692 -736 807 0
-640 -692 -737 807 0
-640 -692 -738 807 0
-640 -692 -739 807 0
-640 -692 -740 807 0
-640 -692 -741 807 0
-640 -692 -742 807 0
-640 -692 -743 807 0
-640 -692 -744 807 0
-640 -692 -745 807 0
-640 -692 -746 807 0
-640 -692 -747 807 0
-640 -692 -748 807 0
-640 -692 -749 807 0
-640 -692 -750 807 0
-640 -692 -751 807 0
-640 -692 -752 807 0
-640 -692 -753 807 0
-640 -692 -754 807 0
-640 -692 -755 807 0
-640 -693 -730 807 0
-640 -693 -731 807 0
-640 -693 -732 807 0
-640 -693 -733 807 0
-640 -693 -734 807 0
-640 -693 -735 807 0
-640 -693 -736 807 0
-640 -693 -737 807 0
-640 -693 -738 807 0
-640 -693 -739 807 0
-640 -693 -740 807 0
-640 -693 -741 807 0
-640 -693 -742 807 0
-640 -693 -743 807 0
-640 -693 -744 807 0
-640 -693 -745 807 0
-640 -693 -746 807 0
-640 -693 -747 807 0
-640 -693 -748 807 0
-640 -693 -749 807 0
-640 -693 -750 807 0
-640 -693 -751 807 0
-640 -693 -752 807 0
-640 -693 -753 807 0
-640 -693 -754 807 0
-640 -693 -755 807 0
-640 -694 -730 807 0
-640 -694 -731 807 0
-640 -694 -732 807 0
-640 -694 -733 807 0
-640 -694 -734 807 0
-640 -694 -735 807 0
-640 -694 -736 807 0
-640 -694 -737 807 0
-640 -694 -738 807 0
-640 -694 -739 807 0
-640 -694 -740 807 0
-640 -694 -741 807 0
-640 -694 -742 807 0
-640 -694 -743 807 0
-640 -694 -744 807 0
-640 -694 -745 807 0
-640 -694 -746 807 0
-640 -694 -747 807 0
-640 -694 -748 807 0
-640 -694 -749 807 0
-640 -694 -750 807 0
-640 -694 -751 807 0
-640 -694 -752 807 0
-640 -694 -753 807 0
-640 -694 -754 807 0
-640 -694 -755 807 0
-640 -695 -730 807 0
-640 -695 -731 807 0
-640 -695 -732 807 0
-640 -695 -733 807 0
-640 -695 -734 807 0
-640 -695 -735 807 0
-640 -695 -736 807 0
-640 -695 -737 807 0
-640 -695 -738 807 0
-640 -695 -739 807 0
-640 -695 -740 807 0
-640 -695 -741 807 0
-640 -695 -742 807 0
-640 -695 -743 807 0
-640 -695 -744 807 0
-640 -695 -745 807 0
-640 -695 -746 807 0
-640 -695 -747 807 0
-640 -695 -748 807 0
-640 -695 -749 807 0
-640 -695 -750 807 0
-640 -695 -751 807 0
-640 -695 -752 807 0
-640 -695 -753 807 0
-640 -695 -754 807 0
-640 -695 -755 807 0
-640 -696 -730 807 0
-640 -696 -731 807 0
-640 -696 -732 807 0
-640 -696 -733 807 0
-640 -696 -734 807 0
-640 -696 -735 807 0
-640 -696 -736 807 0
-640 -696 -737 807 0
-640 -696 -738 807 0
-640 -696 -739 807 0
-640 -696 -740 807 0
-640 -696 -741 807 0
-640 -696 -742 807 0
-640 -696 -743 807 0
-640 -696 -744 807 0
-640 -696 -745 807 0
-640 -696 -746 807 0
-640 -696 -747 807 0
-640 -696 -748 807 0
-640 -696 -749 807 0
-640 -696 -750 807 0
-640 -696 -751 807 0
-640 -696 -752 807 0
-640 -696 -753 807 0
-640 -696 -754 807 0
-640 -696 -755 807 0
-640 -697 -730 807 0
-640 -697 -731 807 0
-640 -697 -732 807 0
-640 -697 -733 807 0
-640 -697 -734 807 0
-640 -697 -735 807 0
-640 -697 -736 807 0
-640 -697 -737 807 0
-640 -697 -738 807 0
-640 -697 -739 807 0
-640 -697 -740 807 0
-640 -697 -741 807 0
-640 -697 -742 807 0
-640 -697 -743 807 0
-640 -697 -744 807 0
-640 -697 -745 807 0
-640 -697 -746 807 0
-640 -697 -747 807 0
-640 -697 -748 807 0
-640 -697 -749 807 0
-640 -697 -750 807 0
-640 -697 -751 807 0
-640 -697 -752 807 0
-640 -697 -753 807 0
-640 -697 -754 807 0
-640 -697 -755 807 0
-640 -698 -730 807 0
-640 -698 -731 807 0
-640 -698 -732 807 0
-640 -698 -733 807 0
-640 -698 -734 807 0
-640 -698 -735 807 0
-640 -698 -736 807 0
-640 -698 -737 807 0
-640 -698 -738 807 0
-640 -698 -739 807 0
-640 -698 -740 807 0
-640 -698 -741 807 0
-640 -698 -742 807 0
-640 -698 -743 807 0
-640 -698 -744 807 0
-640 -698 -745 807 0
-640 -698 -746 807 0
-640 -698 -747 807 0
-640 -698 -748 807 0
-640 -698 -749 807 0
-640 -698 -750 807 0
-640 -698 -751 807 0
-640 -698 -752 807 0
-640 -698 -753 807 0
-640 -698 -754 807 0
-640 -698 -755 807 0
-640 -699 -730 807 0
-640 -699 -731 807 0
-640 -699 -732 807 0
-640 -699 -733 807 0
-640 -699 -734 807 0
-640 -699 -735 807 0
-640 -699 -736 807 0
-640 -699 -737 807 0
-640 -699 -738 807 0
-640 -699 -739 807 0
-640 -699 -740 807 0
-640 -699 -741 807 0
-640 -699 -742 807 0
-640 -699 -743 807 0
-640 -699 -744 807 0
-640 -699 -745 807 0
-640 -699 -746 807 0
-640 -699 -747 807 0
-640 -699 -748 807 0
-640 -699 -749 807 0
-640 -699 -750 807 0
-640 -699 -751 807 0
-640 -699 -752 807 0
-640 -699 -753 807 0
-640 -699 -754 807 0
-640 -699 -755 807 0
-640 -700 -730 807 0
-640 -700 -731 807 0
-640 -700 -732 807 0
-640 -700 -733 807 0
-640 -700 -734 807 0
-640 -700 -735 807 0
-640 -700 -736 807 0
-640 -700 -737 807 0
-640 -700 -738 807 0
-640 -700 -739 807 0
-640 -700 -740 807 0
-640 -700 -741 807 0
-640 -700 -742 807 0
-640 -700 -743 807 0
-640 -700 -744 807 0
-640 -700 -745 807 0
-640 -700 -746 807 0
-640 -700 -747 807 0
-640 -700 -748 807 0
-640 -700 -749 807 0
-640 -700 -750 807 0
-640 -700 -751 807 0
-640 -700 -752 807 0
-640 -700 -753 807 0
-640 -700 -754 807 0
-640 -700 -755 807 0
-640 -701 -730 807 0
-640 -701 -731 807 0
-640 -701 -732 807 0
-640 -701 -733 807 0
-640 -701 -734 807 0
-640 -701 -735 807 0
-640 -701 -736 807 0
-640 -701 -737 807 0
-640 -701 -738 807 0
-640 -701 -739 807 0
-640 -701 -740 807 0
-640 -701 -741 807 0
-640 -701 -742 807 0
-640 -701 -743 807 0
-640 -701 -744 807 0
-640 -701 -745 807 0
-640 -701 -746 807 0
-640 -701 -747 807 0
-640 -701 -748 807 0
-640 -701 -749 807 0
-640 -701 -750 807 0
-640 -701 -751 807 0
-640 -701 -752 807 0
-640 -701 -753 807 0
-640 -701 -754 807 0
-640 -701 -755 807 0
-640 -702 -730 807 0
-640 -702 -731 807 0
-640 -702 -732 807 0
-640 -702 -733 807 0
-640 -702 -734 807 0
-640 -702 -735 807 0
-640 -702 -736 807 0
-640 -702 -737 807 0
-640 -702 -738 807 0
-640 -702 -739 807 0
-640 -702 -740 807 0
-640 -702 -741 807 0
-640 -702 -742 807 0
-640 -702 -743 807 0
-640 -702 -744 807 0
-640 -702 -745 807 0
-640 -702 -746 807 0
-640 -702 -747 807 0
-640 -702 -748 807 0
-640 -702 -749 807 0
-640 -702 -750 807 0
-640 -702 -751 807 0
-640 -702 -752 807 0
-640 -702 -753 807 0
-640 -702 -754 807 0
-640 -702 -755 807 0
-640 -703 -730 807 0
-640 -703 -731 807 0
-640 -703 -732 807 0
-640 -703 -733 807 0
-640 -703 -734 807 0
-640 -703 -735 807 0
-640 -703 -736 807 0
-640 -703 -737 807 0
-640 -703 -738 807 0
-640 -703 -739 807 0
-640 -703 -740 807 0
-640 -703 -741 807 0
-640 -703 -742 807 0
-640 -703 -743 807 0
-640 -703 -744 807 0
-640 -703 -745 807 0
-640 -703 -746 807 0
-640 -703 -747 807 0
-640 -703 -748 807 0
-640 -703 -749 807 0
-640 -703 -750 807 0
-640 -703 -751 807 0
-640 -703 -752 807 0
-640 -703 -753 807 0
-640 -703 -754 807 0
-640 -703 -755 807 0
-641 -678 -730 800 0
-641 -678 -731 801 0
-641 -678 -732 802 0
-641 -678 -733 803 0
-641 -678 -734 804 0
-641 -678 -735 805 0
-641 -678 -736 806 0
-641 -678 -737 807 0
-641 -678 -738 807 0
-641 -678 -739 807 0
-641 -678 -740 807 0
-641 -678 -741 807 0
-641 -678 -742 807 0
-641 -678 -743 807 0
-641 -678 -744 807 0
-641 -678 -745 807 0
-641 -678 -746 807 0
-641 -678 -747 807 0
-641 -678 -748 807 0
-641 -678 -749 807 0
-641 -678 -750 807 0
-641 -678 -751 807 0
-641 -678 -752 807 0
-641 -678 -753 807 0
-641 -678 -754 807 0
-641 -678 -755 807 0
-641 -679 -730 801 0
-641 -679 -731 802 0
-641 -679 -732 803 0
-641 -679 -733 804 0
-641 -679 -734 805 0
-641 -679 -735 806 0
-641 -679 -736 807 0
-641 -679 -737 807 0
-641 -679 -738 807 0
-641 -679 -739 807 0
-641 -679 -740 807 0
-641 -679 -741 807 0
-641 -679 -742 807 0
-641 -679 -743 807 0
-641 -679 -744 807 0
-641 -679 -745 807 0
-641 -679 -746 807 0
-641 -679 -747 807 0
-641 -679 -748 807 0
-641 -679 -749 807 0
-641 -679 -750 807 0
-641 -679 -751 807 0
-641 -679 -752 807 0
-641 -679 -753 807 0
-641 -679 -754 807 0
-641 -679 -755 807 0
-641 -680 -730 802 0
-641 -680 -731 803 0
-641 -680 -732 804 0
-641 -680 -733 805 0
-641 -680 -734 806 0
-641 -680 -735 807 0
-641 -680 -736 807 0
-641 -680 -737 807 0
-641 -680 -738 807 0
-641 -680 -739 807 0
-641 -680 -740 807 0
-641 -680 -741 807 0
-641 -680 -742 807 0
-641 -680 -743 807 0
-641 -680 -744 807 0
-641 -680 -745 807 0
-641 -680 -746 807 0
-641 -680 -747 807 0
-641 -680 -748 807 0
-641 -680 -749 807 0
-641 -680 -750 807 0
-641 -680 -751 807 0
-641 -680 -752 807 0
-641 -680 -753 807 0
-641 -680 -754 807 0
-641 -680 -755 807 0
-641 -681 -730 803 0
-641 -681 -731 804 0
-641 -681 -732 805 0
-641 -681 -733 806 0
-641 -681 -734 807 0
-641 -681 -735 807 0
-641 -681 -736 807 0
-641 -681 -737 807 0
-641 -681 -738 807 0
-641 -681 -739 807 0
-641 -681 -740 807 0
-641 -681 -741 807 0
-641 -681 -742 807 0
-641 -681 -743 807 0
-641 -681 -744 807 0
-641 -681 -745 807 0
-641 -681 -746 807 0
-641 -681 -747 807 0
-641 -681 -748 807 0
-641 -681 -749 807 0
-641 -681 -750 807 0
-641 -681 -751 807 0
-641 -681 -752 807 0
-641 -681 -753 807 0
-641 -681 -754 807 0
-641 -681 -755 807 0
-641 -682 -730 804 0
-641 -682 -731 805 0
-641 -682 -732 806 0
-641 -682 -733 807 0
-641 -682 -734 807 0
-641 -682 -735 807 0
-641 -682 -736 807 0
-641 -682 -737 807 0
-641 -682 -738 807 0
-641 -682 -739 807 0
-641 -682 -740 807 0
-641 -682 -741 807 0
-641 -682 -742 807 0
-641 -682 -743 807 0
-641 -682 -744 807 0
-641 -682 -745 807 0
-641 -682 -746 807 0
-641 -682 -747 807 0
-641 -682 -748 807 0
-641 -682 -749 807 0
-641 -682 -750 807 0
-641 -682 -751 807 0
-641 -682 -752 807 0
-641 -682 -753 807 0
-641 -682 -754 807 0
-641 -682 -755 807 0
-641 -683 -730 805 0
-641 -683 -731 806 0
-641 -683 -732 807 0
-641 -683 -733 807 0
-641 -683 -734 807 0
-641 -683 -735 807 0
-641 -683 -736 807 0
-641 -683 -737 807 0
-641 -683 -738 807 0
-641 -683 -739 807 0
-641 -683 -740 807 0
-641 -683 -741 807 0
-641 -683 -742 807 0
-641 -683 -743 807 0
-641 -683 -744 807 0
-641 -683 -745 807 0
-641 -683 -746 807 0
-641 -683 -747 807 0
-641 -683 -748 807 0
-641 -683 -749 807 0
-641 -683 -750 807 0
-641 -683 -751 807 0
-641 -683 -752 807 0
-641 -683 -753 807 0
-641 -683 -754 807 0
-641 -683 -755 807 0
-641 -684 -730 806 0
-641 -684 -731 807 0
-641 -684 -732 807 0
-641 -684 -733 807 0
-641 -684 -734 807 0
-641 -684 -735 807 0
-641 -684 -736 807 0
-641 -684 -737 807 0
-641 -684 -738 807 0
-641 -684 -739 807 0
-641 -684 -740 807 0
-641 -684 -741 807 0
-641 -684 -742 807 0
-641 -684 -743 807 0
-641 -684 -744 807 0
-641 -684 -745 807 0
-641 -684 -746 807 0
-641 -684 -747 807 0
-641 -684 -748 807 0
-641 -684 -749 807 0
-641 -684 -750 807 0
-641 -684 -751 807 0
-641 -684 -752 807 0
-641 -684 -753 807 0
-641 -684 -754 807 0
-641 -684 -755 807 0
-641 -685 -730 807 0
-641 -685 -731 807 0
-641 -685 -732 807 0
-641 -685 -733 807 0
-641 -685 -734 807 0
-641 -685 -735 807 0
-641 -685 -736 807 0
-641 -685 -737 807 0
-641 -685 -738 807 0
-641 -685 -739 807 0
-641 -685 -740 807 0
-641 -685 -741 807 0
-641 -685 -742 807 0
-641 -685 -743 807 0
-641 -685 -744 807 0
-641 -685 -745 807 0
-641 -685 -746 807 0
-641 -685 -747 807 0
-641 -685 -748 807 0
-641 -685 -749 807 0
-641 -685 -750 807 0
-641 -685 -751 807 0
-641 -685 -752 807 0
-641 -685 -753 807 0
-641 -685 -754 807 0
-641 -685 -755 807 0
-641 -686 -730 807 0
-641 -686 -731 807 0
-641 -686 -732 807 0
-641 -686 -733 807 0
-641 -686 -734 807 0
-641 -686 -735 807 0
-641 -686 -736 807 0
-641 -686 -737 807 0
-641 -686 -738 807 0
-641 -686 -739 807 0
-641 -686 -740 807 0
-641 -686 -741 807 0
-641 -686 -742 807 0
-641 -686 -743 807 0
-641 -686 -744 807 0
-641 -686 -745 807 0
-641 -686 -746 807 0
-641 -686 -747 807 0
-641 -686 -748 807 0
-641 -686 -749 807 0
-641 -686 -750 807 0
-641 -686 -751 807 0
-641 -686 -752 807 0
-641 -686 -753 807 0
-641 -686 -754 807 0
-641 -686 -755 807 0
-641 -687 -730 807 0
-641 -687 -731 807 0
-641 -687 -732 807 0
-641 -687 -733 807 0
-641 -687 -734 807 0
-641 -687 -735 807 0
-641 -687 -736 807 0
-641 -687 -737 807 0
-641 -687 -738 807 0
-641 -687 -739 807 0
-641 -687 -740 807 0
-641 -687 -741 807 0
-641 -687 -742 807 0
-641 -687 -743 807 0
-641 -687 -744 807 0
-641 -687 -745 807 0
-641 -687 -746 807 0
-641 -687 -747 807 0
-641 -687 -748 807 0
-641 -687 -749 807 0
-641 -687 -750 807 0
-641 -687 -751 807 0
-641 -687 -752 807 0
-641 -687 -753 807 0
-641 -687 -754 807 0
-641 -687 -755 807 0
-641 -688 -730 807 0
-641 -688 -731 807 0
-641 -688 -732 807 0
-641 -688 -733 807 0
-641 -688 -734 807 0
-641 -688 -735 807 0
-641 -688 -736 807 0
-641 -688 -737 807 0
-641 -688 -738 807 0
-641 -688 -739 807 0
-641 -688 -740 807 0
-641 -688 -741 807 0
-641 -688 -742 807 0
-641 -688 -743 807 0
-641 -688 -744 807 0
-641 -688 -745 807 0
-641 -688 -746 807 0
-641 -688 -747 807 0
-641 -688 -748 807 0
-641 -688 -749 807 0
-641 -688 -750 807 0
-641 -688 -751 807 0
-641 -688 -752 807 0
-641 -688 -753 807 0
-641 -688 -754 807 0
-641 -688 -755 807 0
-641 -689 -730 807 0
-641 -689 -731 807 0
-641 -689 -732 807 0
-641 -689 -733 807 0
-641 -689 -734 807 0
-641 -689 -735 807 0
-641 -689 -736 807 0
-641 -689 -737 807 0
-641 -689 -738 807 0
-641 -689 -739 807 0
-641 -689 -740 807 0
-641 -689 -741 807 0
-641 -689 -742 807 0
-641 -689 -743 807 0
-641 -689 -744 807 0
-641 -689 -745 807 0
-641 -689 -746 807 0
-641 -689 -747 807 0
-641 -689 -748 807 0
-641 -689 -749 807 0
-641 -689 -750 807 0
-641 -689 -751 807 0
-641 -689 -752 807 0
-641 -689 -753 807 0
-641 -689 -754 807 0
-641 -689 -755 807 0
-641 -690 -730 807 0
-641 -690 -731 807 0
-641 -690 -732 807 0
-641 -690 -733 807 0
-641 -690 -734 807 0
-641 -690 -735 807 0
-641 -690 -736 807 0
-641 -690 -737 807 0
-641 -690 -738 807 0
-641 -690 -739 807 0
-641 -690 -740 807 0
-641 -690 -741 807 0
-641 -690 -742 807 0
-641 -690 -743 807 0
-641 -690 -744 807 0
-641 -690 -745 807 0
-641 -690 -746 807 0
-641 -690 -747 807 0
-641 -690 -748 807 0
-641 -690 -749 807 0
-641 -690 -750 807 0
-641 -690 -751 807 0
-641 -690 -752 807 0
-641 -690 -753 807 0
-641 -690 -754 807 0
-641 -690 -755 807 0
-641 -691 -730 807 0
-641 -691 -731 807 0
-641 -691 -732 807 0
-641 -691 -733 807 0
-641 -691 -734 807 0
-641 -691 -735 807 0
-641 -691 -736 807 0
-641 -691 -737 807 0
-641 -691 -738 807 0
-641 -691 -739 807 0
-641 -691 -740 807 0
-641 -691 -741 807 0
-641 -691 -742 807 0
-641 -691 -743 807 0
-641 -691 -744 807 0
-641 -691 -745 807 0
-641 -691 -746 807 0
-641 -691 -747 807 0
-641 -691 -748 807 0
-641 -691 -749 807 0
-641 -691 -750 807 0
-641 -691 -751 807 0
-641 -691 -752 807 0
-641 -691 -753 807 0
-641 -691 -754 807 0
-641 -691 -755 807 0
-641 -692 -730 807 0
-641 -692 -731 807 0
-641 -692 -732 807 0
-641 -692 -733 807 0
-641 -692 -734 807 0
-641 -692 -735 807 0
-641 -692 -736 807 0
-641 -692 -737 807 0
-641 -692 -738 807 0
-641 -692 -739 807 0
-641 -692 -740 807 0
-641 -692 -741 807 0
-641 -692 -742 807 0
-641 -692 -743 807 0
-641 -692 -744 807 0
-641 -692 -745 807 0
-641 -692 -746 807 0
-641 -692 -747 807 0
-641 -692 -748 807 0
-641 -692 -749 807 0
-641 -692 -750 807 0
-641 -692 -751 807 0
-641 -692 -752 807 0
-641 -692 -753 807 0
-641 -692 -754 807 0
-641 -692 -755 807 0
-641 -693 -730 807 0
-641 -693 -731 807 0
-641 -693 -732 807 0
-641 -693 -733 807 0
-641 -693 -734 807 0
-641 -693 -735 807 0
-641 -693 -736 807 0
-641 -693 -737 807 0
-641 -693 -738 807 0
-641 -693 -739 807 0
-641 -693 -740 807 0
-641 -693 -741 807 0
-641 -693 -742 807 0
-641 -693 -743 807 0
-641 -693 -744 807 0
-641 -693 -745 807 0
-641 -693 -746 807 0
-641 -693 -747 807 0
-641 -693 -748 807 0
-641 -693 -749 807 0
-641 -693 -750 807 0
-641 -693 -751 807 0
-641 -693 -752 807 0
-641 -693 -753 807 0
-641 -693 -754 807 0
-641 -693 -755 807 0
-641 -694 -730 807 0
-641 -694 -731 807 0
-641 -694 -732 807 0
-641 -694 -733 807 0
-641 -694 -734 807 0
-641 -694 -735 807 0
-641 -694 -736 807 0
-641 -694 -737 807 0
-641 -694 -738 807 0
-641 -694 -739 807 0
-641 -694 -740 807 0
-641 -694 -741 807 0
-641 -694 -742 807 0
-641 -694 -743 807 0
-641 -694 -744 807 0
-641 -694 -745 807 0
-641 -694 -746 807 0
-641 -694 -747 807 0
-641 -694 -748 807 0
-641 -694 -749 807 0
-641 -694 -750 807 0
-641 -694 -751 807 0
-641 -694 -752 807 0
-641 -694 -753 807 0
-641 -694 -754 807 0
-641 -694 -755 807 0
-641 -695 -730 807 0
-641 -695 -731 807 0
-641 -695 -732 807 0
-641 -695 -733 807 0
-641 -695 -734 807 0
-641 -695 -735 807 0
-641 -695 -736 807 0
-641 -695 -737 807 0
-641 -695 -738 807 0
-641 -695 -739 807 0
-641 -695 -740 807 0
-641 -695 -741 807 0
-641 -695 -742 807 0
-641 -695 -743 807 0
-641 -695 -744 807 0
-641 -695 -745 807 0
-641 -695 -746 807 0
-641 -695 -747 807 0
-641 -695 -748 807 0
-641 -695 -749 807 0
-641 -695 -750 807 0
-641 -695 -751 807 0
-641 -695 -752 807 0
-641 -695 -753 807 0
-641 -695 -754 807 0
-641 -695 -755 807 0
-641 -696 -730 807 0
-641 -696 -731 807 0
-641 -696 -732 807 0
-641 -696 -733 807 0
-641 -696 -734 807 0
-641 -696 -735 807 0
-641 -696 -736 807 0
-641 -696 -737 807 0
-641 -696 -738 807 0
-641 -696 -739 807 0
-641 -696 -740 807 0
-641 -696 -741 807 0
-641 -696 -742 807 0
-641 -696 -743 807 0
-641 -696 -744 807 0
-641 -696 -745 807 0
-641 -696 -746 807 0
-641 -696 -747 807 0
-641 -696 -748 807 0
-641 -696 -749 807 0
-641 -696 -750 807 0
-641 -696 -751 807 0
-641 -696 -752 807 0
-641 -696 -753 807 0
-641 -696 -754 807 0
-641 -696 -755 807 0
-641 -697 -730 807 0
-641 -697 -731 807 0
-641 -697 -732 807 0
-641 -697 -733 807 0
-641 -697 -734 807 0
-641 -697 -735 807 0
-641 -697 -736 807 0
-641 -697 -737 807 0
-641 -697 -738 807 0
-641 -697 -739 807 0
-641 -697 -740 807 0
-641 -697 -741 807 0
-641 -697 -742 807 0
-641 -697 -743 807 0
-641 -697 -744 807 0
-641 -697 -745 807 0
-641 -697 -746 807 0
-641 -697 -747 807 0
-641 -697 -748 807 0
-641 -697 -749 807 0
-641 -697 -750 807 0
-641 -697 -751 807 0
-641 -697 -752 807 0
-641 -697 -753 807 0
-641 -697 -754 807 0
-641 -697 -755 807 0
-641 -698 -730 807 0
-641 -698 -731 807 0
-641 -698 -732 807 0
-641 -698 -733 807 0
-641 -698 -734 807 0
-641 -698 -735 807 0
-641 -698 -736 807 0
-641 -698 -737 807 0
-641 -698 -738 807 0
-641 -698 -739 807 0
-641 -698 -740 807 0
-641 -698 -741 807 0
-641 -698 -742 807 0
-641 -698 -743 807 0
-641 -698 -744 807 0
-641 -698 -745 807 0
-641 -698 -746 807 0
-641 -698 -747 807 0
-641 -698 -748 807 0
-641 -698 -749 807 0
-641 -698 -750 807 0
-641 -698 -751 807 0
-641 -698 -752 807 0
-641 -698 -753 807 0
-641 -698 -754 807 0
-641 -698 -755 807 0
-641 -699 -730 807 0
-641 -699 -731 807 0
-641 -699 -732 807 0
-641 -699 -733 807 0
-641 -699 -734 807 0
-641 -699 -735 807 0
-641 -699 -736 807 0
-641 -699 -737 807 0
-641 -699 -738 807 0
-641 -699 -739 807 0
-641 -699 -740 807 0
-641 -699 -741 807 0
-641 -699 -742 807 0
-641 -699 -743 807 0
-641 -699 -744 807 0
-641 -699 -745 807 0
-641 -699 -746 807 0
-641 -699 -747 807 0
-641 -699 -748 807 0
-641 -699 -749 807 0
-641 -699 -750 807 0
-641 -699 -751 807 0
-641 -699 -752 807 0
-641 -699 -753 807 0
-641 -699 -754 807 0
-641 -699 -755 807 0
-641 -700 -730 807 0
-641 -700 -731 807 0
-641 -700 -732 807 0
-641 -700 -733 807 0
-641 -700 -734 807 0
-641 -700 -735 807 0
-641 -700 -736 807 0
-641 -700 -737 807 0
-641 -700 -738 807 0
-641 -700 -739 807 0
-641 -700 -740 807 0
-641 -700 -741 807 0
-641 -700 -742 807 0
-641 -700 -743 807 0
-641 -700 -744 807 0
-641 -700 -745 807 0
-641 -700 -746 807 0
-641 -700 -747 807 0
-641 -700 -748 807 0
-641 -700 -749 807 0
-641 -700 -750 807 0
-641 -700 -751 807 0
-641 -700 -752 807 0
-641 -700 -753 807 0
-641 -700 -754 807 0
-641 -700 -755 807 0
-641 -701 -730 807 0
-641 -701 -731 807 0
-641 -701 -732 807 0
-641 -701 -733 807 0
-641 -701 -734 807 0
-641 -701 -735 807 0
-641 -701 -736 807 0
-641 -701 -737 807 0
-641 -701 -738 807 0
-641 -701 -739 807 0
-641 -701 -740 807 0
-641 -701 -741 807 0
-641 -701 -742 807 0
-641 -701 -743 807 0
-641 -701 -744 807 0
-641 -701 -745 807 0
-641 -701 -746 807 0
-641 -701 -747 807 0
-641 -701 -748 807 0
-641 -701 -749 807 0
-641 -701 -750 807 0
-641 -701 -751 807 0
-641 -701 -752 807 0
-641 -701 -753 807 0
-641 -701 -754 807 0
-641 -701 -755 807 0
-641 -702 -730 807 0
-641 -702 -731 807 0
-641 -702 -732 807 0
-641 -702 -733 807 0
-641 -702 -734 807 0
-641 -702 -735 807 0
-641 -702 -736 807 0
-641 -702 -737 807 0
-641 -702 -738 807 0
-641 -702 -739 807 0
-641 -702 -740 807 0
-641 -702 -741 807 0
-641 -702 -742 807 0
-641 -702 -743 807 0
-641 -702 -744 807 0
-641 -702 -745 807 0
-641 -702 -746 807 0
-641 -702 -747 807 0
-641 -702 -748 807 0
-641 -702 -749 807 0
-641 -702 -750 807 0
-641 -702 -751 807 0
-641 -702 -752 807 0
-641 -702 -753 807 0
-641 -702 -754 807 0
-641 -702 -755 807 0
-641 -703 -730 807 0
-641 -703 -731 807 0
-641 -703 -732 807 0
-641 -703 -733 807 0
-641 -703 -734 807 0
-641 -703 -735 807 0
-641 -703 -736 807 0
-641 -703 -737 807 0
-641 -703 -738 807 0
-641 -703 -739 807 0
-641 -703 -740 807 0
-641 -703 -741 807 0
-641 -703 -742 807 0
-641 -703 -743 807 0
-641 -703 -744 807 0
-641 -703 -745 807 0
-641 -703 -746 807 0
-641 -703 -747 807 0
-641 -703 -748 807 0
-641 -703 -749 807 0
-641 -703 -750 807 0
-641 -703 -751 807 0
-641 -703 -752 807 0
-641 -703 -753 807 0
-641 -703 -754 807 0
-641 -703 -755 807 0
-642 -678 -730 801 0
-642 -678 -731 802 0
-642 -678 -732 803 0
-642 -678 -733 804 0
-642 -678 -734 805 0
-642 -678 -735 806 0
-642 -678 -736 807 0
-642 -678 -737 807 0
-642 -678 -738 807 0
-642 -678 -739 807 0
-642 -678 -740 807 0
-642 -678 -741 807 0
-642 -678 -742 807 0
-642 -678 -743 807 0
-642 -678 -744 807 0
-642 -678 -745 807 0
-642 -678 -746 807 0
-642 -678 -747 807 0
-642 -678 -748 807 0
-642 -678 -749 807 0
-642 -678 -750 807 0
-642 -678 -751 807 0
-642 -678 -752 807 0
-642 -678 -753 807 0
-642 -678 -754 807 0
-642 -678 -755 807 0
-642 -679 -730 802 0
-642 -679 -731 803 0
-642 -679 -732 804 0
-642 -679 -733 805 0
-642 -679 -734 806 0
-642 -679 -735 807 0
-642 -679 -736 807 0
-642 -679 -737 807 0
-642 -679 -738 807 0
-642 -679 -739 807 0
-642 -679 -740 807 0
-642 -679 -741 807 0
-642 -679 -742 807 0
-642 -679 -743 807 0
-642 -679 -744 807 0
-642 -679 -745 807 0
-642 -679 -746 807 0
-642 -679 -747 807 0
-642 -679 -748 807 0
-642 -679 -749 807 0
-642 -679 -750 807 0
-642 -679 -751 807 0
-642 -679 -752 807 0
-642 -679 -753 807 0
-642 -679 -754 807 0
-642 -679 -755 807 0
-642 -680 -730 803 0
-642 -680 -731 804 0
-642 -680 -732 805 0
-642 -680 -733 806 0
-642 -680 -734 807 0
-642 -680 -735 807 0
-642 -680 -736 807 0
-642 -680 -737 807 0
-642 -680 -738 807 0
-642 -680 -739 807 0
-642 -680 -740 807 0
-642 -680 -741 807 0
-642 -680 -742 807 0
-642 -680 -743 807 0
-642 -680 -744 807 0
-642 -680 -745 807 0
-642 -680 -746 807 0
-642 -680 -747 807 0
-642 -680 -748 807 0
-642 -680 -749 807 0
-642 -680 -750 807 0
-642 -680 -751 807 0
-642 -680 -752 807 0
-642 -680 -753 807 0
-642 -680 -754 807 0
-642 -680 -755 807 0
-642 -681 -730 804 0
-642 -681 -731 805 0
-642 -681 -732 806 0
-642 -681 -733 807 0
-642 -681 -734 807 0
-642 -681 -735 807 0
-642 -681 -736 807 0
-642 -681 -737 807 0
-642 -681 -738 807 0
-642 -681 -739 807 0
-642 -681 -740 807 0
-642 -681 -741 807 0
-642 -681 -742 807 0
-642 -681 -743 807 0
-642 -681 -744 807 0
-642 -681 -745 807 0
-642 -681 -746 807 0
-642 -681 -747 807 0
-642 -681 -748 807 0
-642 -681 -749 807 0
-642 -681 -750 807 0
-642 -681 -751 807 0
-642 -681 -752 807 0
-642 -681 -753 807 0
-642 -681 -754 807 0
-642 -681 -755 807 0
-642 -682 -730 805 0
-642 -682 -731 806 0
-642 -682 -732 807 0
-642 -682 -733 807 0
-642 -682 -734 807 0
-642 -682 -735 807 0
-642 -682 -736 807 0
-642 -682 -737 807 0
-642 -682 -738 807 0
-642 -682 -739 807 0
-642 -682 -740 807 0
-642 -682 -741 807 0
-642 -682 -742 807 0
-642 -682 -743 807 0
-642 -682 -744 807 0
-642 -682 -745 807 0
-642 -682 -746 807 0
-642 -682 -747 807 0
-642 -682 -748 807 0
-642 -682 -749 807 0
-642 -682 -750 807 0
-642 -682 -751 807 0
-642 -682 -752 807 0
-642 -682 -753 807 0
-642 -682 -754 807 0
-642 -682 -755 807 0
-642 -683 -730 806 0
-642 -683 -731 807 0
-642 -683 -732 807 0
-642 -683 -733 807 0
-642 -683 -734 807 0
-642 -683 -735 807 0
-642 -683 -736 807 0
-642 -683 -737 807 0
-642 -683 -738 807 0
-642 -683 -739 807 0
-642 -683 -740 807 0
-642 -683 -741 807 0
-642 -683 -742 807 0
-642 -683 -743 807 0
-642 -683 -744 807 0
-642 -683 -745 807 0
-642 -683 -746 807 0
-642 -683 -747 807 0
-642 -683 -748 807 0
-642 -683 -749 807 0
-642 -683 -750 807 0
-642 -683 -751 807 0
-642 -683 -752 807 0
-642 -683 -753 807 0
-642 -683 -754 807 0
-642 -683 -755 807 0
-642 -684 -730 807 0
-642 -684 -731 807 0
-642 -684 -732 807 0
-642 -684 -733 807 0
-642 -684 -734 807 0
-642 -684 -735 807 0
-642 -684 -736 807 0
-642 -684 -737 807 0
-642 -684 -738 807 0
-642 -684 -739 807 0
-642 -684 -740 807 0
-642 -684 -741 807 0
-642 -684 -742 807 0
-642 -684 -743 807 0
-642 -684 -744 807 0
-642 -684 -745 807 0
-642 -684 -746 807 0
-642 -684 -747 807 0
-642 -684 -748 807 0
-642 -684 -749 807 0
-642 -684 -750 807 0
-642 -684 -751 807 0
-642 -684 -752 807 0
-642 -684 -753 807 0
-642 -684 -754 807 0
-642 -684 -755 807 0
-642 -685 -730 807 0
-642 -685 -731 807 0
-642 -685 -732 807 0
-642 -685 -733 807 0
-642 -685 -734 807 0
-642 -685 -735 807 0
-642 -685 -736 807 0
-642 -685 -737 807 0
-642 -685 -738 807 0
-642 -685 -739 807 0
-642 -685 -740 807 0
-642 -685 -741 807 0
-642 -685 -742 807 0
-642 -685 -743 807 0
-642 -685 -744 807 0
-642 -685 -745 807 0
-642 -685 -746 807 0
-642 -685 -747 807 0
-642 -685 -748 807 0
-642 -685 -749 807 0
-642 -685 -750 807 0
-642 -685 -751 807 0
-642 -685 -752 807 0
-642 -685 -753 807 0
-642 -685 -754 807 0
-642 -685 -755 807 0
-642 -686 -730 807 0
-642 -686 -731 807 0
-642 -686 -732 807 0
-642 -686 -733 807 0
-642 -686 -734 807 0
-642 -686 -735 807 0
-642 -686 -736 807 0
-642 -686 -737 807 0
-642 -686 -738 807 0
-642 -686 -739 807 0
-642 -686 -740 807 0
-642 -686 -741 807 0
-642 -686 -742 807 0
-642 -686 -743 807 0
-642 -686 -744 807 0
-642 -686 -745 807 0
-642 -686 -746 807 0
-642 -686 -747 807 0
-642 -686 -748 807 0
-642 -686 -749 807 0
-642 -686 -750 807 0
-642 -686 -751 807 0
-642 -686 -752 807 0
-642 -686 -753 807 0
-642 -686 -754 807 0
-642 -686 -755 807 0
-642 -687 -730 807 0
-642 -687 -731 807 0
-642 -687 -732 807 0
-642 -687 -733 807 0
-642 -687 -734 807 0
-642 -687 -735 807 0
-642 -687 -736 807 0
-642 -687 -737 807 0
-642 -687 -738 807 0
-642 -687 -739 807 0
-642 -687 -740 807 0
-642 -687 -741 807 0
-642 -687 -742 807 0
-642 -687 -743 807 0
-642 -687 -744 807 0
-642 -687 -745 807 0
-642 -687 -746 807 0
-642 -687 -747 807 0
-642 -687 -748 807 0
-642 -687 -749 807 0
-642 -687 -750 807 0
-642 -687 -751 807 0
-642 -687 -752 807 0
-642 -687 -753 807 0
-642 -687 -754 807 0
-642 -687 -755 807 0
-642 -688 -730 807 0
-642 -688 -731 807 0
-642 -688 -732 807 0
-642 -688 -733 807 0
-642 -688 -734 807 0
-642 -688 -735 807 0
-642 -688 -736 807 0
-642 -688 -737 807 0
-642 -688 -738 807 0
-642 -688 -739 807 0
-642 -688 -740 807 0
-642 -688 -741 807 0
-642 -688 -742 807 0
-642 -688 -743 807 0
-642 -688 -744 807 0
-642 -688 -745 807 0
-642 -688 -746 807 0
-642 -688 -747 807 0
-642 -688 -748 807 0
-642 -688 -749 807 0
-642 -688 -750 807 0
-642 -688 -751 807 0
-642 -688 -752 807 0
-642 -688 -753 807 0
-642 -688 -754 807 0
-642 -688 -755 807 0
-642 -689 -730 807 0
-642 -689 -731 807 0
-642 -689 -732 807 0
-642 -689 -733 807 0
-642 -689 -734 807 0
-642 -689 -735 807 0
-642 -689 -736 807 0
-642 -689 -737 807 0
-642 -689 -738 807 0
-642 -689 -739 807 0
-642 -689 -740 807 0
-642 -689 -741 807 0
-642 -689 -742 807 0
-642 -689 -743 807 0
-642 -689 -744 807 0
-642 -689 -745 807 0
-642 -689 -746 807 0
-642 -689 -747 807 0
-642 -689 -748 807 0
-642 -689 -749 807 0
-642 -689 -750 807 0
-642 -689 -751 807 0
-642 -689 -752 807 0
-642 -689 -753 807 0
-642 -689 -754 807 0
-642 -689 -755 807 0
-642 -690 -730 807 0
-642 -690 -731 807 0
-642 -690 -732 807 0
-642 -690 -733 807 0
-642 -690 -734 807 0
-642 -690 -735 807 0
-642 -690 -736 807 0
-642 -690 -737 807 0
-642 -690 -738 807 0
-642 -690 -739 807 0
-642 -690 -740 807 0
-642 -690 -741 807 0
-642 -690 -742 807 0
-642 -690 -743 807 0
-642 -690 -744 807 0
-642 -690 -745 807 0
-642 -690 -746 807 0
-642 -690 -747 807 0
-642 -690 -748 807 0
-642 -690 -749 807 0
-642 -690 -750 807 0
-642 -690 -751 807 0
-642 -690 -752 807 0
-642 -690 -753 807 0
-642 -690 -754 807 0
-642 -690 -755 807 0
-642 -691 -730 807 0
-642 -691 -731 807 0
-642 -691 -732 807 0
-642 -691 -733 807 0
-642 -691 -734 807 0
-642 -691 -735 807 0
-642 -691 -736 807 0
-642 -691 -737 807 0
-642 -691 -738 807 0
-642 -691 -739 807 0
-642 -691 -740 807 0
-642 -691 -741 807 0
-642 -691 -742 807 0
-642 -691 -743 807 0
-642 -691 -744 807 0
-642 -691 -745 807 0
-642 -691 -746 807 0
-642 -691 -747 807 0
-642 -691 -748 807 0
-642 -691 -749 807 0
-642 -691 -750 807 0
-642 -691 -751 807 0
-642 -691 -752 807 0
-642 -691 -753 807 0
-642 -691 -754 807 0
-642 -691 -755 807 0
-642 -692 -730 807 0
-642 -692 -731 807 0
-642 -692 -732 807 0
-642 -692 -733 807 0
-642 -692 -734 807 0
-642 -692 -735 807 0
-642 -692 -736 807 0
-642 -692 -737 807 0
-642 -692 -738 807 0
-642 -692 -739 807 0
-642 -692 -740 807 0
-642 -692 -741 807 0
-642 -692 -742 807 0
-642 -692 -743 807 0
-642 -692 -744 807 0
-642 -692 -745 807 0
-642 -692 -746 807 0
-642 -692 -747 807 0
-642 -692 -748 807 0
-642 -692 -749 807 0
-642 -692 -750 807 0
-642 -692 -751 807 0
-642 -692 -752 807 0
-642 -692 -753 807 0
-642 -692 -754 807 0
-642 -692 -755 807 0
-642 -693 -730 807 0
-642 -693 -731 807 0
-642 -693 -732 807 0
-642 -693 -733 807 0
-642 -693 -734 807 0
-642 -693 -735 807 0
-642 -693 -736 807 0
-642 -693 -737 807 0
-642 -693 -738 807 0
-642 -693 -739 807 0
-642 -693 -740 807 0
-642 -693 -741 807 0
-642 -693 -742 807 0
-642 -693 -743 807 0
-642 -693 -744 807 0
-642 -693 -745 807 0
-642 -693 -746 807 0
-642 -693 -747 807 0
-642 -693 -748 807 0
-642 -693 -749 807 0
-642 -693 -750 807 0
-642 -693 -751 807 0
-642 -693 -752 807 0
-642 -693 -753 807 0
-642 -693 -754 807 0
-642 -693 -755 807 0
-642 -694 -730 807 0
-642 -694 -731 807 0
-642 -694 -732 807 0
-642 -694 -733 807 0
-642 -694 -734 807 0
-642 -694 -735 807 0
-642 -694 -736 807 0
-642 -694 -737 807 0
-642 -694 -738 807 0
-642 -694 -739 807 0
-642 -694 -740 807 0
-642 -694 -741 807 0
-642 -694 -742 807 0
-642 -694 -743 807 0
-642 -694 -744 807 0
-642 -694 -745 807 0
-642 -694 -746 807 0
-642 -694 -747 807 0
-642 -694 -748 807 0
-642 -694 -749 807 0
-642 -694 -750 807 0
-642 -694 -751 807 0
-642 -694 -752 807 0
-642 -694 -753 807 0
-642 -694 -754 807 0
-642 -694 -755 807 0
-642 -695 -730 807 0
-642 -695 -731 807 0
-642 -695 -732 807 0
-642 -695 -733 807 0
-642 -695 -734 807 0
-642 -695 -735 807 0
-642 -695 -736 807 0
-642 -695 -737 807 0
-642 -695 -738 807 0
-642 -695 -739 807 0
-642 -695 -740 807 0
-642 -695 -741 807 0
-642 -695 -742 807 0
-642 -695 -743 807 0
-642 -695 -744 807 0
-642 -695 -745 807 0
-642 -695 -746 807 0
-642 -695 -747 807 0
-642 -695 -748 807 0
-642 -695 -749 807 0
-642 -695 -750 807 0
-642 -695 -751 807 0
-642 -695 -752 807 0
-642 -695 -753 807 0
-642 -695 -754 807 0
-642 -695 -755 807 0
-642 -696 -730 807 0
-642 -696 -731 807 0
-642 -696 -732 807 0
-642 -696 -733 807 0
-642 -696 -734 807 0
-642 -696 -735 807 0
-642 -696 -736 807 0
-642 -696 -737 807 0
-642 -696 -738 807 0
-642 -696 -739 807 0
-642 -696 -740 807 0
-642 -696 -741 807 0
-642 -696 -742 807 0
-642 -696 -743 807 0
-642 -696 -744 807 0
-642 -696 -745 807 0
-642 -696 -746 807 0
-642 -696 -747 807 0
-642 -696 -748 807 0
-642 -696 -749 807 0
-642 -696 -750 807 0
-642 -696 -751 807 0
-642 -696 -752 807 0
-642 -696 -753 807 0
-642 -696 -754 807 0
-642 -696 -755 807 0
-642 -697 -730 807 0
-642 -697 -731 807 0
-642 -697 -732 807 0
-642 -697 -733 807 0
-642 -697 -734 807 0
-642 -697 -735 807 0
-642 -697 -736 807 0
-642 -697 -737 807 0
-642 -697 -738 807 0
-642 -697 -739 807 0
-642 -697 -740 807 0
-642 -697 -741 807 0
-642 -697 -742 807 0
-642 -697 -743 807 0
-642 -697 -744 807 0
-642 -697 -745 807 0
-642 -697 -746 807 0
-642 -697 -747 807 0
-642 -697 -748 807 0
-642 -697 -749 807 0
-642 -697 -750 807 0
-642 -697 -751 807 0
-642 -697 -752 807 0
-642 -697 -753 807 0
-642 -697 -754 807 0
-642 -697 -755 807 0
-642 -698 -730 807 0
-642 -698 -731 807 0
-642 -698 -732 807 0
-642 -698 -733 807 0
-642 -698 -734 807 0
-642 -698 -735 807 0
-642 -698 -736 807 0
-642 -698 -737 807 0
-642 -698 -738 807 0
-642 -698 -739 807 0
-642 -698 -740 807 0
-642 -698 -741 807 0
-642 -698 -742 807 0
-642 -698 -743 807 0
-642 -698 -744 807 0
-642 -698 -745 807 0
-642 -698 -746 807 0
-642 -698 -747 807 0
-642 -698 -748 807 0
-642 -698 -749 807 0
-642 -698 -750 807 0
-642 -698 -751 807 0
-642 -698 -752 807 0
-642 -698 -753 807 0
-642 -698 -754 807 0
-642 -698 -755 807 0
-642 -699 -730 807 0
-642 -699 -731 807 0
-642 -699 -732 807 0
-642 -699 -733 807 0
-642 -699 -734 807 0
-642 -699 -735 807 0
-642 -699 -736 807 0
-642 -699 -737 807 0
-642 -699 -738 807 0
-642 -699 -739 807 0
-642 -699 -740 807 0
-642 -699 -741 807 0
-642 -699 -742 807 0
-642 -699 -743 807 0
-642 -699 -744 807 0
-642 -699 -745 807 0
-642 -699 -746 807 0
-642 -699 -747 807 0
-642 -699 -748 807 0
-642 -699 -749 807 0
-642 -699 -750 807 0
-642 -699 -751 807 0
-642 -699 -752 807 0
-642 -699 -753 807 0
-642 -699 -754 807 0
-642 -699 -755 807 0
-642 -700 -730 807 0
-642 -700 -731 807 0
-642 -700 -732 807 0
-642 -700 -733 807 0
-642 -700 -734 807 0
-642 -700 -735 807 0
-642 -700 -736 807 0
-642 -700 -737 807 0
-642 -700 -738 807 0
-642 -700 -739 807 0
-642 -700 -740 807 0
-642 -700 -741 807 0
-642 -700 -742 807 0
-642 -700 -743 807 0
-642 -700 -744 807 0
-642 -700 -745 807 0
-642 -700 -746 807 0
-642 -700 -747 807 0
-642 -700 -748 807 0
-642 -700 -749 807 0
-642 -700 -750 807 0
-642 -700 -751 807 0
-642 -700 -752 807 0
-642 -700 -753 807 0
-642 -700 -754 807 0
-642 -700 -755 807 0
-642 -701 -730 807 0
-642 -701 -731 807 0
-642 -701 -732 807 0
-642 -701 -733 807 0
-642 -701 -734 807 0
-642 -701 -735 807 0
-642 -701 -736 807 0
-642 -701 -737 807 0
-642 -701 -738 807 0
-642 -701 -739 807 0
-642 -701 -740 807 0
-642 -701 -741 807 0
-642 -701 -742 807 0
-642 -701 -743 807 0
-642 -701 -744 807 0
-642 -701 -745 807 0
-642 -701 -746 807 0
-642 -701 -747 807 0
-642 -701 -748 807 0
-642 -701 -749 807 0
-642 -701 -750 807 0
-642 -701 -751 807 0
-642 -701 -752 807 0
-642 -701 -753 807 0
-642 -701 -754 807 0
-642 -701 -755 807 0
-642 -702 -730 807 0
-642 -702 -731 807 0
-642 -702 -732 807 0
-642 -702 -733 807 0
-642 -702 -734 807 0
-642 -702 -735 807 0
-642 -702 -736 807 0
-642 -702 -737 807 0
-642 -702 -738 807 0
-642 -702 -739 807 0
-642 -702 -740 807 0
-642 -702 -741 807 0
-642 -702 -742 807 0
-642 -702 -743 807 0
-642 -702 -744 807 0
-642 -702 -745 807 0
-642 -702 -746 807 0
-642 -702 -747 807 0
-642 -702 -748 807 0
-642 -702 -749 807 0
-642 -702 -750 807 0
-642 -702 -751 807 0
-642 -702 -752 807 0
-642 -702 -753 807 0
-642 -702 -754 807 0
-642 -702 -755 807 0
-642 -703 -730 807 0
-642 -703 -731 807 0
-642 -703 -732 807 0
-642 -703 -733 807 0
-642 -703 -734 807 0
-642 -703 -735 807 0
-642 -703 -736 807 0
-642 -703 -737 807 0
-642 -703 -738 807 0
-642 -703 -739 807 0
-642 -703 -740 807 0
-642 -703 -741 807 0
-642 -703 -742 807 0
-642 -703 -743 807 0
-642 -703 -744 807 0
-642 -703 -745 807 0
-642 -703 -746 807 0
-642 -703 -747 807 0
-642 -703 -748 807 0
-642 -703 -749 807 0
-642 -703 -750 807 0
-642 -703 -751 807 0
-642 -703 -752 807 0
-642 -703 -753 807 0
-642 -703 -754 807 0
-642 -703 -755 807 0
-643 -678 -730 802 0
-643 -678 -731 803 0
-643 -678 -732 804 0
-643 -678 -733 805 0
-643 -678 -734 806 0
-643 -678 -735 807 0
-643 -678 -736 807 0
-643 -678 -737 807 0
-643 -678 -738 807 0
-643 -678 -739 807 0
-643 -678 -740 807 0
-643 -678 -741 807 0
-643 -678 -742 807 0
-643 -678 -743 807 0
-643 -678 -744 807 0
-643 -678 -745 807 0
-643 -678 -746 807 0
-643 -678 -747 807 0
-643 -678 -748 807 0
-643 -678 -749 807 0
-643 -678 -750 807 0
-643 -678 -751 807 0
-643 -678 -752 807 0
-643 -678 -753 807 0
-643 -678 -754 807 0
-643 -678 -755 807 0
-643 -679 -730 803 0
-643 -679 -731 804 0
-643 -679 -732 805 0
-643 -679 -733 806 0
-643 -679 -734 807 0
-643 -679 -735 807 0
-643 -679 -736 807 0
-643 -679 -737 807 0
-643 -679 -738 807 0
-643 -679 -739 807 0
-643 -679 -740 807 0
-643 -679 -741 807 0
-643 -679 -742 807 0
-643 -679 -743 807 0
-643 -679 -744 807 0
-643 -679 -745 807 0
-643 -679 -746 807 0
-643 -679 -747 807 0
-643 -679 -748 807 0
-643 -679 -749 807 0
-643 -679 -750 807 0
-643 -679 -751 807 0
-643 -679 -752 807 0
-643 -679 -753 807 0
-643 -679 -754 807 0
-643 -679 -755 807 0
-643 -680 -730 804 0
-643 -680 -731 805 0
-643 -680 -732 806 0
-643 -680 -733 807 0
-643 -680 -734 807 0
-643 -680 -735 807 0
-643 -680 -736 807 0
-643 -680 -737 807 0
-643 -680 -738 807 0
-643 -680 -739 807 0
-643 -680 -740 807 0
-643 -680 -741 807 0
-643 -680 -742 807 0
-643 -680 -743 807 0
-643 -680 -744 807 0
-643 -680 -745 807 0
-643 -680 -746 807 0
-643 -680 -747 807 0
-643 -680 -748 807 0
-643 -680 -749 807 0
-643 -680 -750 807 0
-643 -680 -751 807 0
-643 -680 -752 807 0
-643 -680 -753 807 0
-643 -680 -754 807 0
-643 -680 -755 807 0
-643 -681 -730 805 0
-643 -681 -731 806 0
-643 -681 -732 807 0
-643 -681 -733 807 0
-643 -681 -734 807 0
-643 -681 -735 807 0
-643 -681 -736 807 0
-643 -681 -737 807 0
-643 -681 -738 807 0
-643 -681 -739 807 0
-643 -681 -740 807 0
-643 -681 -741 807 0
-643 -681 -742 807 0
-643 -681 -743 807 0
-643 -681 -744 807 0
-643 -681 -745 807 0
-643 -681 -746 807 0
-643 -681 -747 807 0
-643 -681 -748 807 0
-643 -681 -749 807 0
-643 -681 -750 807 0
-643 -681 -751 807 0
-643 -681 -752 807 0
-643 -681 -753 807 0
-643 -681 -754 807 0
-643 -681 -755 807 0
-643 -682 -730 806 0
-643 -682 -731 807 0
-643 -682 -732 807 0
-643 -682 -733 807 0
-643 -682 -734 807 0
-643 -682 -735 807 0
-643 -682 -736 807 0
-643 -682 -737 807 0
-643 -682 -738 807 0
-643 -682 -739 807 0
-643 -682 -740 807 0
-643 -682 -741 807 0
-643 -682 -742 807 0
-643 -682 -743 807 0
-643 -682 -744 807 0
-643 -682 -745 807 0
-643 -682 -746 807 0
-643 -682 -747 807 0
-643 -682 -748 807 0
-643 -682 -749 807 0
-643 -682 -750 807 0
-643 -682 -751 807 0
-643 -682 -752 807 0
-643 -682 -753 807 0
-643 -682 -754 807 0
-643 -682 -755 807 0
-643 -683 -730 807 0
-643 -683 -731 807 0
-643 -683 -732 807 0
-643 -683 -733 807 0
-643 -683 -734 807 0
-643 -683 -735 807 0
-643 -683 -736 807 0
-643 -683 -737 807 0
-643 -683 -738 807 0
-643 -683 -739 807 0
-643 -683 -740 807 0
-643 -683 -741 807 0
-643 -683 -742 807 0
-643 -683 -743 807 0
-643 -683 -744 807 0
-643 -683 -745 807 0
-643 -683 -746 807 0
-643 -683 -747 807 0
-643 -683 -748 807 0
-643 -683 -749 807 0
-643 -683 -750 807 0
-643 -683 -751 807 0
-643 -683 -752 807 0
-643 -683 -753 807 0
-643 -683 -754 807 0
-643 -683 -755 807 0
-643 -684 -730 807 0
-643 -684 -731 807 0
-643 -684 -732 807 0
-643 -684 -733 807 0
-643 -684 -734 807 0
-643 -684 -735 807 0
-643 -684 -736 807 0
-643 -684 -737 807 0
-643 -684 -738 807 0
-643 -684 -739 807 0
-643 -684 -740 807 0
-643 -684 -741 807 0
-643 -684 -742 807 0
-643 -684 -743 807 0
-643 -684 -744 807 0
-643 -684 -745 807 0
-643 -684 -746 807 0
-643 -684 -747 807 0
-643 -684 -748 807 0
-643 -684 -749 807 0
-643 -684 -750 807 0
-643 -684 -751 807 0
-643 -684 -752 807 0
-643 -684 -753 807 0
-643 -684 -754 807 0
-643 -684 -755 807 0
-643 -685 -730 807 0
-643 -685 -731 807 0
-643 -685 -732 807 0
-643 -685 -733 807 0
-643 -685 -734 807 0
-643 -685 -735 807 0
-643 -685 -736 807 0
-643 -685 -737 807 0
-643 -685 -738 807 0
-643 -685 -739 807 0
-643 -685 -740 807 0
-643 -685 -741 807 0
-643 -685 -742 807 0
-643 -685 -743 807 0
-643 -685 -744 807 0
-643 -685 -745 807 0
-643 -685 -746 807 0
-643 -685 -747 807 0
-643 -685 -748 807 0
-643 -685 -749 807 0
-643 -685 -750 807 0
-643 -685 -751 807 0
-643 -685 -752 807 0
-643 -685 -753 807 0
-643 -685 -754 807 0
-643 -685 -755 807 0
-643 -686 -730 807 0
-643 -686 -731 807 0
-643 -686 -732 807 0
-643 -686 -733 807 0
-643 -686 -734 807 0
-643 -686 -735 807 0
-643 -686 -736 807 0
-643 -686 -737 807 0
-643 -686 -738 807 0
-643 -686 -739 807 0
-643 -686 -740 807 0
-643 -686 -741 807 0
-643 -686 -742 807 0
-643 -686 -743 807 0
-643 -686 -744 807 0
-643 -686 -745 807 0
-643 -686 -746 807 0
-643 -686 -747 807 0
-643 -686 -748 807 0
-643 -686 -749 807 0
-643 -686 -750 807 0
-643 -686 -751 807 0
-643 -686 -752 807 0
-643 -686 -753 807 0
-643 -686 -754 807 0
-643 -686 -755 807 0
-643 -687 -730 807 0
-643 -687 -731 807 0
-643 -687 -732 807 0
-643 -687 -733 807 0
-643 -687 -734 807 0
-643 -687 -735 807 0
-643 -687 -736 807 0
-643 -687 -737 807 0
-643 -687 -738 807 0
-643 -687 -739 807 0
-643 -687 -740 807 0
-643 -687 -741 807 0
-643 -687 -742 807 0
-643 -687 -743 807 0
-643 -687 -744 807 0
-643 -687 -745 807 0
-643 -687 -746 807 0
-643 -687 -747 807 0
-643 -687 -748 807 0
-643 -687 -749 807 0
-643 -687 -750 807 0
-643 -687 -751 807 0
-643 -687 -752 807 0
-643 -687 -753 807 0
-643 -687 -754 807 0
-643 -687 -755 807 0
-643 -688 -730 807 0
-643 -688 -731 807 0
-643 -688 -732 807 0
-643 -688 -733 807 0
-643 -688 -734 807 0
-643 -688 -735 807 0
-643 -688 -736 807 0
-643 -688 -737 807 0
-643 -688 -738 807 0
-643 -688 -739 807 0
-643 -688 -740 807 0
-643 -688 -741 807 0
-643 -688 -742 807 0
-643 -688 -743 807 0
-643 -688 -744 807 0
-643 -688 -745 807 0
-643 -688 -746 807 0
-643 -688 -747 807 0
-643 -688 -748 807 0
-643 -688 -749 807 0
-643 -688 -750 807 0
-643 -688 -751 807 0
-643 -688 -752 807 0
-643 -688 -753 807 0
-643 -688 -754 807 0
-643 -688 -755 807 0
-643 -689 -730 807 0
-643 -689 -731 807 0
-643 -689 -732 807 0
-643 -689 -733 807 0
-643 -689 -734 807 0
-643 -689 -735 807 0
-643 -689 -736 807 0
-643 -689 -737 807 0
-643 -689 -738 807 0
-643 -689 -739 807 0
-643 -689 -740 807 0
-643 -689 -741 807 0
-643 -689 -742 807 0
-643 -689 -743 807 0
-643 -689 -744 807 0
-643 -689 -745 807 0
-643 -689 -746 807 0
-643 -689 -747 807 0
-643 -689 -748 807 0
-643 -689 -749 807 0
-643 -689 -750 807 0
-643 -689 -751 807 0
-643 -689 -752 807 0
-643 -689 -753 807 0
-643 -689 -754 807 0
-643 -689 -755 807 0
-643 -690 -730 807 0
-643 -690 -731 807 0
-643 -690 -732 807 0
-643 -690 -733 807 0
-643 -690 -734 807 0
-643 -690 -735 807 0
-643 -690 -736 807 0
-643 -690 -737 807 0
-643 -690 -738 807 0
-643 -690 -739 807 0
-643 -690 -740 807 0
-643 -690 -741 807 0
-643 -690 -742 807 0
-643 -690 -743 807 0
-643 -690 -744 807 0
-643 -690 -745 807 0
-643 -690 -746 807 0
-643 -690 -747 807 0
-643 -690 -748 807 0
-643 -690 -749 807 0
-643 -690 -750 807 0
-643 -690 -751 807 0
-643 -690 -752 807 0
-643 -690 -753 807 0
-643 -690 -754 807 0
-643 -690 -755 807 0
-643 -691 -730 807 0
-643 -691 -731 807 0
-643 -691 -732 807 0
-643 -691 -733 807 0
-643 -691 -734 807 0
-643 -691 -735 807 0
-643 -691 -736 807 0
-643 -691 -737 807 0
-643 -691 -738 807 0
-643 -691 -739 807 0
-643 -691 -740 807 0
-643 -691 -741 807 0
-643 -691 -742 807 0
-643 -691 -743 807 0
-643 -691 -744 807 0
-643 -691 -745 807 0
-643 -691 -746 807 0
-643 -691 -747 807 0
-643 -691 -748 807 0
-643 -691 -749 807 0
-643 -691 -750 807 0
-643 -691 -751 807 0
-643 -691 -752 807 0
-643 -691 -753 807 0
-643 -691 -754 807 0
-643 -691 -755 807 0
-643 -692 -730 807 0
-643 -692 -731 807 0
-643 -692 -732 807 0
-643 -692 -733 807 0
-643 -692 -734 807 0
-643 -692 -735 807 0
-643 -692 -736 807 0
-643 -692 -737 807 0
-643 -692 -738 807 0
-643 -692 -739 807 0
-643 -692 -740 807 0
-643 -692 -741 807 0
-643 -692 -742 807 0
-643 -692 -743 807 0
-643 -692 -744 807 0
-643 -692 -745 807 0
-643 -692 -746 807 0
-643 -692 -747 807 0
-643 -692 -748 807 0
-643 -692 -749 807 0
-643 -692 -750 807 0
-643 -692 -751 807 0
-643 -692 -752 807 0
-643 -692 -753 807 0
-643 -692 -754 807 0
-643 -692 -755 807 0
-643 -693 -730 807 0
-643 -693 -731 807 0
-643 -693 -732 807 0
-643 -693 -733 807 0
-643 -693 -734 807 0
-643 -693 -735 807 0
-643 -693 -736 807 0
-643 -693 -737 807 0
-643 -693 -738 807 0
-643 -693 -739 807 0
-643 -693 -740 807 0
-643 -693 -741 807 0
-643 -693 -742 807 0
-643 -693 -743 807 0
-643 -693 -744 807 0
-643 -693 -745 807 0
-643 -693 -746 807 0
-643 -693 -747 807 0
-643 -693 -748 807 0
-643 -693 -749 807 0
-643 -693 -750 807 0
-643 -693 -751 807 0
-643 -693 -752 807 0
-643 -693 -753 807 0
-643 -693 -754 807 0
-643 -693 -755 807 0
-643 -694 -730 807 0
-643 -694 -731 807 0
-643 -694 -732 807 0
-643 -694 -733 807 0
-643 -694 -734 807 0
-643 -694 -735 807 0
-643 -694 -736 807 0
-643 -694 -737 807 0
-643 -694 -738 807 0
-643 -694 -739 807 0
-643 -694 -740 807 0
-643 -694 -741 807 0
-643 -694 -742 807 0
-643 -694 -743 807 0
-643 -694 -744 807 0
-643 -694 -745 807 0
-643 -694 -746 807 0
-643 -694 -747 807 0
-643 -694 -748 807 0
-643 -694 -749 807 0
-643 -694 -750 807 0
-643 -694 -751 807 0
-643 -694 -752 807 0
-643 -694 -753 807 0
-643 -694 -754 807 0
-643 -694 -755 807 0
-643 -695 -730 807 0
-643 -695 -731 807 0
-643 -695 -732 807 0
-643 -695 -733 807 0
-643 -695 -734 807 0
-643 -695 -735 807 0
-643 -695 -736 807 0
-643 -695 -737 807 0
-643 -695 -738 807 0
-643 -695 -739 807 0
-643 -695 -740 807 0
-643 -695 -741 807 0
-643 -695 -742 807 0
-643 -695 -743 807 0
-643 -695 -744 807 0
-643 -695 -745 807 0
-643 -695 -746 807 0
-643 -695 -747 807 0
-643 -695 -748 807 0
-643 -695 -749 807 0
-643 -695 -750 807 0
-643 -695 -751 807 0
-643 -695 -752 807 0
-643 -695 -753 807 0
-643 -695 -754 807 0
-643 -695 -755 807 0
-643 -696 -730 807 0
-643 -696 -731 807 0
-643 -696 -732 807 0
-643 -696 -733 807 0
-643 -696 -734 807 0
-643 -696 -735 807 0
-643 -696 -736 807 0
-643 -696 -737 807 0
-643 -696 -738 807 0
-643 -696 -739 807 0
-643 -696 -740 807 0
-643 -696 -741 807 0
-643 -696 -742 807 0
-643 -696 -743 807 0
-643 -696 -744 807 0
-643 -696 -745 807 0
-643 -696 -746 807 0
-643 -696 -747 807 0
-643 -696 -748 807 0
-643 -696 -749 807 0
-643 -696 -750 807 0
-643 -696 -751 807 0
-643 -696 -752 807 0
-643 -696 -753 807 0
-643 -696 -754 807 0
-643 -696 -755 807 0
-643 -697 -730 807 0
-643 -697 -731 807 0
-643 -697 -732 807 0
-643 -697 -733 807 0
-643 -697 -734 807 0
-643 -697 -735 807 0
-643 -697 -736 807 0
-643 -697 -737 807 0
-643 -697 -738 807 0
-643 -697 -739 807 0
-643 -697 -740 807 0
-643 -697 -741 807 0
-643 -697 -742 807 0
-643 -697 -743 807 0
-643 -697 -744 807 0
-643 -697 -745 807 0
-643 -697 -746 807 0
-643 -697 -747 807 0
-643 -697 -748 807 0
-643 -697 -749 807 0
-643 -697 -750 807 0
-643 -697 -751 807 0
-643 -697 -752 807 0
-643 -697 -753 807 0
-643 -697 -754 807 0
-643 -697 -755 807 0
-643 -698 -730 807 0
-643 -698 -731 807 0
-643 -698 -732 807 0
-643 -698 -733 807 0
-643 -698 -734 807 0
-643 -698 -735 807 0
-643 -698 -736 807 0
-643 -698 -737 807 0
-643 -698 -738 807 0
-643 -698 -739 807 0
-643 -698 -740 807 0
-643 -698 -741 807 0
-643 -698 -742 807 0
-643 -698 -743 807 0
-643 -698 -744 807 0
-643 -698 -745 807 0
-643 -698 -746 807 0
-643 -698 -747 807 0
-643 -698 -748 807 0
-643 -698 -749 807 0
-643 -698 -750 807 0
-643 -698 -751 807 0
-643 -698 -752 807 0
-643 -698 -753 807 0
-643 -698 -754 807 0
-643 -698 -755 807 0
-643 -699 -730 807 0
-643 -699 -731 807 0
-643 -699 -732 807 0
-643 -699 -733 807 0
-643 -699 -734 807 0
-643 -699 -735 807 0
-643 -699 -736 807 0
-643 -699 -737 807 0
-643 -699 -738 807 0
-643 -699 -739 807 0
-643 -699 -740 807 0
-643 -699 -741 807 0
-643 -699 -742 807 0
-643 -699 -743 807 0
-643 -699 -744 807 0
-643 -699 -745 807 0
-643 -699 -746 807 0
-643 -699 -747 807 0
-643 -699 -748 807 0
-643 -699 -749 807 0
-643 -699 -750 807 0
-643 -699 -751 807 0
-643 -699 -752 807 0
-643 -699 -753 807 0
-643 -699 -754 807 0
-643 -699 -755 807 0
-643 -700 -730 807 0
-643 -700 -731 807 0
-643 -700 -732 807 0
-643 -700 -733 807 0
-643 -700 -734 807 0
-643 -700 -735 807 0
-643 -700 -736 807 0
-643 -700 -737 807 0
-643 -700 -738 807 0
-643 -700 -739 807 0
-643 -700 -740 807 0
-643 -700 -741 807 0
-643 -700 -742 807 0
-643 -700 -743 807 0
-643 -700 -744 807 0
-643 -700 -745 807 0
-643 -700 -746 807 0
-643 -700 -747 807 0
-643 -700 -748 807 0
-643 -700 -749 807 0
-643 -700 -750 807 0
-643 -700 -751 807 0
-643 -700 -752 807 0
-643 -700 -753 807 0
-643 -700 -754 807 0
-643 -700 -755 807 0
-643 -701 -730 807 0
-643 -701 -731 807 0
-643 -701 -732 807 0
-643 -701 -733 807 0
-643 -701 -734 807 0
-643 -701 -735 807 0
-643 -701 -736 807 0
-643 -701 -737 807 0
-643 -701 -738 807 0
-643 -701 -739 807 0
-643 -701 -740 807 0
-643 -701 -741 807 0
-643 -701 -742 807 0
-643 -701 -743 807 0
-643 -701 -744 807 0
-643 -701 -745 807 0
-643 -701 -746 807 0
-643 -701 -747 807 0
-643 -701 -748 807 0
-643 -701 -749 807 0
-643 -701 -750 807 0
-643 -701 -751 807 0
-643 -701 -752 807 0
-643 -701 -753 807 0
-643 -701 -754 807 0
-643 -701 -755 807 0
-643 -702 -730 807 0
-643 -702 -731 807 0
-643 -702 -732 807 0
-643 -702 -733 807 0
-643 -702 -734 807 0
-643 -702 -735 807 0
-643 -702 -736 807 0
-643 -702 -737 807 0
-643 -702 -738 807 0
-643 -702 -739 807 0
-643 -702 -740 807 0
-643 -702 -741 807 0
-643 -702 -742 807 0
-643 -702 -743 807 0
-643 -702 -744 807 0
-643 -702 -745 807 0
-643 -702 -746 807 0
-643 -702 -747 807 0
-643 -702 -748 807 0
-643 -702 -749 807 0
-643 -702 -750 807 0
-643 -702 -751 807 0
-643 -702 -752 807 0
-643 -702 -753 807 0
-643 -702 -754 807 0
-643 -702 -755 807 0
-643 -703 -730 807 0
-643 -703 -731 807 0
-643 -703 -732 807 0
-643 -703 -733 807 0
-643 -703 -734 807 0
-643 -703 -735 807 0
-643 -703 -736 807 0
-643 -703 -737 807 0
-643 -703 -738 807 0
-643 -703 -739 807 0
-643 -703 -740 807 0
-643 -703 -741 807 0
-643 -703 -742 807 0
-643 -703 -743 807 0
-643 -703 -744 807 0
-643 -703 -745 807 0
-643 -703 -746 807 0
-643 -703 -747 807 0
-643 -703 -748 807 0
-643 -703 -749 807 0
-643 -703 -750 807 0
-643 -703 -751 807 0
-643 -703 -752 807 0
-643 -703 -753 807 0
-643 -703 -754 807 0
-643 -703 -755 807 0
-644 -678 -730 803 0
-644 -678 -731 804 0
-644 -678 -732 805 0
-644 -678 -733 806 0
-644 -678 -734 807 0
-644 -678 -735 807 0
-644 -678 -736 807 0
-644 -678 -737 807 0
-644 -678 -738 807 0
-644 -678 -739 807 0
-644 -678 -740 807 0
-644 -678 -741 807 0
-644 -678 -742 807 0
-644 -678 -743 807 0
-644 -678 -744 807 0
-644 -678 -745 807 0
-644 -678 -746 807 0
-644 -678 -747 807 0
-644 -678 -748 807 0
-644 -678 -749 807 0
-644 -678 -750 807 0
-644 -678 -751 807 0
-644 -678 -752 807 0
-644 -678 -753 807 0
-644 -678 -754 807 0
-644 -678 -755 807 0
-644 -679 -730 804 0
-644 -679 -731 805 0
-644 -679 -732 806 0
-644 -679 -733 807 0
-644 -679 -734 807 0
-644 -679 -735 807 0
-644 -679 -736 807 0
-644 -679 -737 807 0
-644 -679 -738 807 0
-644 -679 -739 807 0
-644 -679 -740 807 0
-644 -679 -741 807 0
-644 -679 -742 807 0
-644 -679 -743 807 0
-644 -679 -744 807 0
-644 -679 -745 807 0
-644 -679 -746 807 0
-644 -679 -747 807 0
-644 -679 -748 807 0
-644 -679 -749 807 0
-644 -679 -750 807 0
-644 -679 -751 807 0
-644 -679 -752 807 0
-644 -679 -753 807 0
-644 -679 -754 807 0
-644 -679 -755 807 0
-644 -680 -730 805 0
-644 -680 -731 806 0
-644 -680 -732 807 0
-644 -680 -733 807 0
-644 -680 -734 807 0
-644 -680 -735 807 0
-644 -680 -736 807 0
-644 -680 -737 807 0
-644 -680 -738 807 0
-644 -680 -739 807 0
-644 -680 -740 807 0
-644 -680 -741 807 0
-644 -680 -742 807 0
-644 -680 -743 807 0
-644 -680 -744 807 0
-644 -680 -745 807 0
-644 -680 -746 807 0
-644 -680 -747 807 0
-644 -680 -748 807 0
-644 -680 -749 807 0
-644 -680 -750 807 0
-644 -680 -751 807 0
-644 -680 -752 807 0
-644 -680 -753 807 0
-644 -680 -754 807 0
-644 -680 -755 807 0
-644 -681 -730 806 0
-644 -681 -731 807 0
-644 -681 -732 807 0
-644 -681 -733 807 0
-644 -681 -734 807 0
-644 -681 -735 807 0
-644 -681 -736 807 0
-644 -681 -737 807 0
-644 -681 -738 807 0
-644 -681 -739 807 0
-644 -681 -740 807 0
-644 -681 -741 807 0
-644 -681 -742 807 0
-644 -681 -743 807 0
-644 -681 -744 807 0
-644 -681 -745 807 0
-644 -681 -746 807 0
-644 -681 -747 807 0
-644 -681 -748 807 0
-644 -681 -749 807 0
-644 -681 -750 807 0
-644 -681 -751 807 0
-644 -681 -752 807 0
-644 -681 -753 807 0
-644 -681 -754 807 0
-644 -681 -755 807 0
-644 -682 -730 807 0
-644 -682 -731 807 0
-644 -682 -732 807 0
-644 -682 -733 807 0
-644 -682 -734 807 0
-644 -682 -735 807 0
-644 -682 -736 807 0
-644 -682 -737 807 0
-644 -682 -738 807 0
-644 -682 -739 807 0
-644 -682 -740 807 0
-644 -682 -741 807 0
-644 -682 -742 807 0
-644 -682 -743 807 0
-644 -682 -744 807 0
-644 -682 -745 807 0
-644 -682 -746 807 0
-644 -682 -747 807 0
-644 -682 -748 807 0
-644 -682 -749 807 0
-644 -682 -750 807 0
-644 -682 -751 807 0
-644 -682 -752 807 0
-644 -682 -753 807 0
-644 -682 -754 807 0
-644 -682 -755 807 0
-644 -683 -730 807 0
-644 -683 -731 807 0
-644 -683 -732 807 0
-644 -683 -733 807 0
-644 -683 -734 807 0
-644 -683 -735 807 0
-644 -683 -736 807 0
-644 -683 -737 807 0
-644 -683 -738 807 0
-644 -683 -739 807 0
-644 -683 -740 807 0
-644 -683 -741 807 0
-644 -683 -742 807 0
-644 -683 -743 807 0
-644 -683 -744 807 0
-644 -683 -745 807 0
-644 -683 -746 807 0
-644 -683 -747 807 0
-644 -683 -748 807 0
-644 -683 -749 807 0
-644 -683 -750 807 0
-644 -683 -751 807 0
-644 -683 -752 807 0
-644 -683 -753 807 0
-644 -683 -754 807 0
-644 -683 -755 807 0
-644 -684 -730 807 0
-644 -684 -731 807 0
-644 -684 -732 807 0
-644 -684 -733 807 0
-644 -684 -734 807 0
-644 -684 -735 807 0
-644 -684 -736 807 0
-644 -684 -737 807 0
-644 -684 -738 807 0
-644 -684 -739 807 0
-644 -684 -740 807 0
-644 -684 -741 807 0
-644 -684 -742 807 0
-644 -684 -743 807 0
-644 -684 -744 807 0
-644 -684 -745 807 0
-644 -684 -746 807 0
-644 -684 -747 807 0
-644 -684 -748 807 0
-644 -684 -749 807 0
-644 -684 -750 807 0
-644 -684 -751 807 0
-644 -684 -752 807 0
-644 -684 -753 807 0
-644 -684 -754 807 0
-644 -684 -755 807 0
-644 -685 -730 807 0
-644 -685 -731 807 0
-644 -685 -732 807 0
-644 -685 -733 807 0
-644 -685 -734 807 0
-644 -685 -735 807 0
-644 -685 -736 807 0
-644 -685 -737 807 0
-644 -685 -738 807 0
-644 -685 -739 807 0
-644 -685 -740 807 0
-644 -685 -741 807 0
-644 -685 -742 807 0
-644 -685 -743 807 0
-644 -685 -744 807 0
-644 -685 -745 807 0
-644 -685 -746 807 0
-644 -685 -747 807 0
-644 -685 -748 807 0
-644 -685 -749 807 0
-644 -685 -750 807 0
-644 -685 -751 807 0
-644 -685 -752 807 0
-644 -685 -753 807 0
-644 -685 -754 807 0
-644 -685 -755 807 0
-644 -686 -730 807 0
-644 -686 -731 807 0
-644 -686 -732 807 0
-644 -686 -733 807 0
-644 -686 -734 807 0
-644 -686 -735 807 0
-644 -686 -736 807 0
-644 -686 -737 807 0
-644 -686 -738 807 0
-644 -686 -739 807 0
-644 -686 -740 807 0
-644 -686 -741 807 0
-644 -686 -742 807 0
-644 -686 -743 807 0
-644 -686 -744 807 0
-644 -686 -745 807 0
-644 -686 -746 807 0
-644 -686 -747 807 0
-644 -686 -748 807 0
-644 -686 -749 807 0
-644 -686 -750 807 0
-644 -686 -751 807 0
-644 -686 -752 807 0
-644 -686 -753 807 0
-644 -686 -754 807 0
-644 -686 -755 807 0
-644 -687 -730 807 0
-644 -687 -731 807 0
-644 -687 -732 807 0
-644 -687 -733 807 0
-644 -687 -734 807 0
-644 -687 -735 807 0
-644 -687 -736 807 0
-644 -687 -737 807 0
-644 -687 -738 807 0
-644 -687 -739 807 0
-644 -687 -740 807 0
-644 -687 -741 807 0
-644 -687 -742 807 0
-644 -687 -743 807 0
-644 -687 -744 807 0
-644 -687 -745 807 0
-644 -687 -746 807 0
-644 -687 -747 807 0
-644 -687 -748 807 0
-644 -687 -749 807 0
-644 -687 -750 807 0
-644 -687 -751 807 0
-644 -687 -752 807 0
-644 -687 -753 807 0
-644 -687 -754 807 0
-644 -687 -755 807 0
-644 -688 -730 807 0
-644 -688 -731 807 0
-644 -688 -732 807 0
-644 -688 -733 807 0
-644 -688 -734 807 0
-644 -688 -735 807 0
-644 -688 -736 807 0
-644 -688 -737 807 0
-644 -688 -738 807 0
-644 -688 -739 807 0
-644 -688 -740 807 0
-644 -688 -741 807 0
-644 -688 -742 807 0
-644 -688 -743 807 0
-644 -688 -744 807 0
-644 -688 -745 807 0
-644 -688 -746 807 0
-644 -688 -747 807 0
-644 -688 -748 807 0
-644 -688 -749 807 0
-644 -688 -750 807 0
-644 -688 -751 807 0
-644 -688 -752 807 0
-644 -688 -753 807 0
-644 -688 -754 807 0
-644 -688 -755 807 0
-644 -689 -730 807 0
-644 -689 -731 807 0
-644 -689 -732 807 0
-644 -689 -733 807 0
-644 -689 -734 807 0
-644 -689 -735 807 0
-644 -689 -736 807 0
-644 -689 -737 807 0
-644 -689 -738 807 0
-644 -689 -739 807 0
-644 -689 -740 807 0
-644 -689 -741 807 0
-644 -689 -742 807 0
-644 -689 -743 807 0
-644 -689 -744 807 0
-644 -689 -745 807 0
-644 -689 -746 807 0
-644 -689 -747 807 0
-644 -689 -748 807 0
-644 -689 -749 807 0
-644 -689 -750 807 0
-644 -689 -751 807 0
-644 -689 -752 807 0
-644 -689 -753 807 0
-644 -689 -754 807 0
-644 -689 -755 807 0
-644 -690 -730 807 0
-644 -690 -731 807 0
-644 -690 -732 807 0
-644 -690 -733 807 0
-644 -690 -734 807 0
-644 -690 -735 807 0
-644 -690 -736 807 0
-644 -690 -737 807 0
-644 -690 -738 807 0
-644 -690 -739 807 0
-644 -690 -740 807 0
-644 -690 -741 807 0
-644 -690 -742 807 0
-644 -690 -743 807 0
-644 -690 -744 807 0
-644 -690 -745 807 0
-644 -690 -746 807 0
-644 -690 -747 807 0
-644 -690 -748 807 0
-644 -690 -749 807 0
-644 -690 -750 807 0
-644 -690 -751 807 0
-644 -690 -752 807 0
-644 -690 -753 807 0
-644 -690 -754 807 0
-644 -690 -755 807 0
-644 -691 -730 807 0
-644 -691 -731 807 0
-644 -691 -732 807 0
-644 -691 -733 807 0
-644 -691 -734 807 0
-644 -691 -735 807 0
-644 -691 -736 807 0
-644 -691 -737 807 0
-644 -691 -738 807 0
-644 -691 -739 807 0
-644 -691 -740 807 0
-644 -691 -741 807 0
-644 -691 -742 807 0
-644 -691 -743 807 0
-644 -691 -744 807 0
-644 -691 -745 807 0
-644 -691 -746 807 0
-644 -691 -747 807 0
-644 -691 -748 807 0
-644 -691 -749 807 0
-644 -691 -750 807 0
-644 -691 -751 807 0
-644 -691 -752 807 0
-644 -691 -753 807 0
-644 -691 -754 807 0
-644 -691 -755 807 0
-644 -692 -730 807 0
-644 -692 -731 807 0
-644 -692 -732 807 0
-644 -692 -733 807 0
-644 -692 -734 807 0
-644 -692 -735 807 0
-644 -692 -736 807 0
-644 -692 -737 807 0
-644 -692 -738 807 0
-644 -692 -739 807 0
-644 -692 -740 807 0
-644 -692 -741 807 0
-644 -692 -742 807 0
-644 -692 -743 807 0
-644 -692 -744 807 0
-644 -692 -745 807 0
-644 -692 -746 807 0
-644 -692 -747 807 0
-644 -692 -748 807 0
-644 -692 -749 807 0
-644 -692 -750 807 0
-644 -692 -751 807 0
-644 -692 -752 807 0
-644 -692 -753 807 0
-644 -692 -754 807 0
-644 -692 -755 807 0
-644 -693 -730 807 0
-644 -693 -731 807 0
-644 -693 -732 807 0
-644 -693 -733 807 0
-644 -693 -734 807 0
-644 -693 -735 807 0
-644 -693 -736 807 0
-644 -693 -737 807 0
-644 -693 -738 807 0
-644 -693 -739 807 0
-644 -693 -740 807 0
-644 -693 -741 807 0
-644 -693 -742 807 0
-644 -693 -743 807 0
-644 -693 -744 807 0
-644 -693 -745 807 0
-644 -693 -746 807 0
-644 -693 -747 807 0
-644 -693 -748 807 0
-644 -693 -749 807 0
-644 -693 -750 807 0
-644 -693 -751 807 0
-644 -693 -752 807 0
-644 -693 -753 807 0
-644 -693 -754 807 0
-644 -693 -755 807 0
-644 -694 -730 807 0
-644 -694 -731 807 0
-644 -694 -732 807 0
-644 -694 -733 807 0
-644 -694 -734 807 0
-644 -694 -735 807 0
-644 -694 -736 807 0
-644 -694 -737 807 0
-644 -694 -738 807 0
-644 -694 -739 807 0
-644 -694 -740 807 0
-644 -694 -741 807 0
-644 -694 -742 807 0
-644 -694 -743 807 0
-644 -694 -744 807 0
-644 -694 -745 807 0
-644 -694 -746 807 0
-644 -694 -747 807 0
-644 -694 -748 807 0
-644 -694 -749 807 0
-644 -694 -750 807 0
-644 -694 -751 807 0
-644 -694 -752 807 0
-644 -694 -753 807 0
-644 -694 -754 807 0
-644 -694 -755 807 0
-644 -695 -730 807 0
-644 -695 -731 807 0
-644 -695 -732 807 0
-644 -695 -733 807 0
-644 -695 -734 807 0
-644 -695 -735 807 0
-644 -695 -736 807 0
-644 -695 -737 807 0
-644 -695 -738 807 0
-644 -695 -739 807 0
-644 -695 -740 807 0
-644 -695 -741 807 0
-644 -695 -742 807 0
-644 -695 -743 807 0
-644 -695 -744 807 0
-644 -695 -745 807 0
-644 -695 -746 807 0
-644 -695 -747 807 0
-644 -695 -748 807 0
-644 -695 -749 807 0
-644 -695 -750 807 0
-644 -695 -751 807 0
-644 -695 -752 807 0
-644 -695 -753 807 0
-644 -695 -754 807 0
-644 -695 -755 807 0
-644 -696 -730 807 0
-644 -696 -731 807 0
-644 -696 -732 807 0
-644 -696 -733 807 0
-644 -696 -734 807 0
-644 -696 -735 807 0
-644 -696 -736 807 0
-644 -696 -737 807 0
-644 -696 -738 807 0
-644 -696 -739 807 0
-644 -696 -740 807 0
-644 -696 -741 807 0
-644 -696 -742 807 0
-644 -696 -743 807 0
-644 -696 -744 807 0
-644 -696 -745 807 0
-644 -696 -746 807 0
-644 -696 -747 807 0
-644 -696 -748 807 0
-644 -696 -749 807 0
-644 -696 -750 807 0
-644 -696 -751 807 0
-644 -696 -752 807 0
-644 -696 -753 807 0
-644 -696 -754 807 0
-644 -696 -755 807 0
-644 -697 -730 807 0
-644 -697 -731 807 0
-644 -697 -732 807 0
-644 -697 -733 807 0
-644 -697 -734 807 0
-644 -697 -735 807 0
-644 -697 -736 807 0
-644 -697 -737 807 0
-644 -697 -738 807 0
-644 -697 -739 807 0
-644 -697 -740 807 0
-644 -697 -741 807 0
-644 -697 -742 807 0
-644 -697 -743 807 0
-644 -697 -744 807 0
-644 -697 -745 807 0
-644 -697 -746 807 0
-644 -697 -747 807 0
-644 -697 -748 807 0
-644 -697 -749 807 0
-644 -697 -750 807 0
-644 -697 -751 807 0
-644 -697 -752 807 0
-644 -697 -753 807 0
-644 -697 -754 807 0
-644 -697 -755 807 0
-644 -698 -730 807 0
-644 -698 -731 807 0
-644 -698 -732 807 0
-644 -698 -733 807 0
-644 -698 -734 807 0
-644 -698 -735 807 0
-644 -698 -736 807 0
-644 -698 -737 807 0
-644 -698 -738 807 0
-644 -698 -739 807 0
-644 -698 -740 807 0
-644 -698 -741 807 0
-644 -698 -742 807 0
-644 -698 -743 807 0
-644 -698 -744 807 0
-644 -698 -745 807 0
-644 -698 -746 807 0
-644 -698 -747 807 0
-644 -698 -748 807 0
-644 -698 -749 807 0
-644 -698 -750 807 0
-644 -698 -751 807 0
-644 -698 -752 807 0
-644 -698 -753 807 0
-644 -698 -754 807 0
-644 -698 -755 807 0
-644 -699 -730 807 0
-644 -699 -731 807 0
-644 -699 -732 807 0
-644 -699 -733 807 0
-644 -699 -734 807 0
-644 -699 -735 807 0
-644 -699 -736 807 0
-644 -699 -737 807 0
-644 -699 -738 807 0
-644 -699 -739 807 0
-644 -699 -740 807 0
-644 -699 -741 807 0
-644 -699 -742 807 0
-644 -699 -743 807 0
-644 -699 -744 807 0
-644 -699 -745 807 0
-644 -699 -746 807 0
-644 -699 -747 807 0
-644 -699 -748 807 0
-644 -699 -749 807 0
-644 -699 -750 807 0
-644 -699 -751 807 0
-644 -699 -752 807 0
-644 -699 -753 807 0
-644 -699 -754 807 0
-644 -699 -755 807 0
-644 -700 -730 807 0
-644 -700 -731 807 0
-644 -700 -732 807 0
-644 -700 -733 807 0
-644 -700 -734 807 0
-644 -700 -735 807 0
-644 -700 -736 807 0
-644 -700 -737 807 0
-644 -700 -738 807 0
-644 -700 -739 807 0
-644 -700 -740 807 0
-644 -700 -741 807 0
-644 -700 -742 807 0
-644 -700 -743 807 0
-644 -700 -744 807 0
-644 -700 -745 807 0
-644 -700 -746 807 0
-644 -700 -747 807 0
-644 -700 -748 807 0
-644 -700 -749 807 0
-644 -700 -750 807 0
-644 -700 -751 807 0
-644 -700 -752 807 0
-644 -700 -753 807 0
-644 -700 -754 807 0
-644 -700 -755 807 0
-644 -701 -730 807 0
-644 -701 -731 807 0
-644 -701 -732 807 0
-644 -701 -733 807 0
-644 -701 -734 807 0
-644 -701 -735 807 0
-644 -701 -736 807 0
-644 -701 -737 807 0
-644 -701 -738 807 0
-644 -701 -739 807 0
-644 -701 -740 807 0
-644 -701 -741 807 0
-644 -701 -742 807 0
-644 -701 -743 807 0
-644 -701 -744 807 0
-644 -701 -745 807 0
-644 -701 -746 807 0
-644 -701 -747 807 0
-644 -701 -748 807 0
-644 -701 -749 807 0
-644 -701 -750 807 0
-644 -701 -751 807 0
-644 -701 -752 807 0
-644 -701 -753 807 0
-644 -701 -754 807 0
-644 -701 -755 807 0
-644 -702 -730 807 0
-644 -702 -731 807 0
-644 -702 -732 807 0
-644 -702 -733 807 0
-644 -702 -734 807 0
-644 -702 -735 807 0
-644 -702 -736 807 0
-644 -702 -737 807 0
-644 -702 -738 807 0
-644 -702 -739 807 0
-644 -702 -740 807 0
-644 -702 -741 807 0
-644 -702 -742 807 0
-644 -702 -743 807 0
-644 -702 -744 807 0
-644 -702 -745 807 0
-644 -702 -746 807 0
-644 -702 -747 807 0
-644 -702 -748 807 0
-644 -702 -749 807 0
-644 -702 -750 807 0
-644 -702 -751 807 0
-644 -702 -752 807 0
-644 -702 -753 807 0
-644 -702 -754 807 0
-644 -702 -755 807 0
-644 -703 -730 807 0
-644 -703 -731 807 0
-644 -703 -732 807 0
-644 -703 -733 807 0
-644 -703 -734 807 0
-644 -703 -735 807 0
-644 -703 -736 807 0
-644 -703 -737 807 0
-644 -703 -738 807 0
-644 -703 -739 807 0
-644 -703 -740 807 0
-644 -703 -741 807 0
-644 -703 -742 807 0
-644 -703 -743 807 0
-644 -703 -744 807 0
-644 -703 -745 807 0
-644 -703 -746 807 0
-644 -703 -747 807 0
-644 -703 -748 807 0
-644 -703 -749 807 0
-644 -703 -750 807 0
-644 -703 -751 807 0
-644 -703 -752 807 0
-644 -703 -753 807 0
-644 -703 -754 807 0
-644 -703 -755 807 0
-645 -678 -730 804 0
-645 -678 -731 805 0
-645 -678 -732 806 0
-645 -678 -733 807 0
-645 -678 -734 807 0
-645 -678 -735 807 0
-645 -678 -736 807 0
-645 -678 -737 807 0
-645 -678 -738 807 0
-645 -678 -739 807 0
-645 -678 -740 807 0
-645 -678 -741 807 0
-645 -678 -742 807 0
-645 -678 -743 807 0
-645 -678 -744 807 0
-645 -678 -745 807 0
-645 -678 -746 807 0
-645 -678 -747 807 0
-645 -678 -748 807 0
-645 -678 -749 807 0
-645 -678 -750 807 0
-645 -678 -751 807 0
-645 -678 -752 807 0
-645 -678 -753 807 0
-645 -678 -754 807 0
-645 -678 -755 807 0
-645 -679 -730 805 0
-645 -679 -731 806 0
-645 -679 -732 807 0
-645 -679 -733 807 0
-645 -679 -734 807 0
-645 -679 -735 807 0
-645 -679 -736 807 0
-645 -679 -737 807 0
-645 -679 -738 807 0
-645 -679 -739 807 0
-645 -679 -740 807 0
-645 -679 -741 807 0
-645 -679 -742 807 0
-645 -679 -743 807 0
-645 -679 -744 807 0
-645 -679 -745 807 0
-645 -679 -746 807 0
-645 -679 -747 807 0
-645 -679 -748 807 0
-645 -679 -749 807 0
-645 -679 -750 807 0
-645 -679 -751 807 0
-645 -679 -752 807 0
-645 -679 -753 807 0
-645 -679 -754 807 0
-645 -679 -755 807 0
-645 -680 -730 806 0
-645 -680 -731 807 0
-645 -680 -732 807 0
-645 -680 -733 807 0
-645 -680 -734 807 0
-645 -680 -735 807 0
-645 -680 -736 807 0
-645 -680 -737 807 0
-645 -680 -738 807 0
-645 -680 -739 807 0
-645 -680 -740 807 0
-645 -680 -741 807 0
-645 -680 -742 807 0
-645 -680 -743 807 0
-645 -680 -744 807 0
-645 -680 -745 807 0
-645 -680 -746 807 0
-645 -680 -747 807 0
-645 -680 -748 807 0
-645 -680 -749 807 0
-645 -680 -750 807 0
-645 -680 -751 807 0
-645 -680 -752 807 0
-645 -680 -753 807 0
-645 -680 -754 807 0
-645 -680 -755 807 0
-645 -681 -730 807 0
-645 -681 -731 807 0
-645 -681 -732 807 0
-645 -681 -733 807 0
-645 -681 -734 807 0
-645 -681 -735 807 0
-645 -681 -736 807 0
-645 -681 -737 807 0
-645 -681 -738 807 0
-645 -681 -739 807 0
-645 -681 -740 807 0
-645 -681 -741 807 0
-645 -681 -742 807 0
-645 -681 -743 807 0
-645 -681 -744 807 0
-645 -681 -745 807 0
-645 -681 -746 807 0
-645 -681 -747 807 0
-645 -681 -748 807 0
-645 -681 -749 807 0
-645 -681 -750 807 0
-645 -681 -751 807 0
-645 -681 -752 807 0
-645 -681 -753 807 0
-645 -681 -754 807 0
-645 -681 -755 807 0
-645 -682 -730 807 0
-645 -682 -731 807 0
-645 -682 -732 807 0
-645 -682 -733 807 0
-645 -682 -734 807 0
-645 -682 -735 807 0
-645 -682 -736 807 0
-645 -682 -737 807 0
-645 -682 -738 807 0
-645 -682 -739 807 0
-645 -682 -740 807 0
-645 -682 -741 807 0
-645 -682 -742 807 0
-645 -682 -743 807 0
-645 -682 -744 807 0
-645 -682 -745 807 0
-645 -682 -746 807 0
-645 -682 -747 807 0
-645 -682 -748 807 0
-645 -682 -749 807 0
-645 -682 -750 807 0
-645 -682 -751 807 0
-645 -682 -752 807 0
-645 -682 -753 807 0
-645 -682 -754 807 0
-645 -682 -755 807 0
-645 -683 -730 807 0
-645 -683 -731 807 0
-645 -683 -732 807 0
-645 -683 -733 807 0
-645 -683 -734 807 0
-645 -683 -735 807 0
-645 -683 -736 807 0
-645 -683 -737 807 0
-645 -683 -738 807 0
-645 -683 -739 807 0
-645 -683 -740 807 0
-645 -683 -741 807 0
-645 -683 -742 807 0
-645 -683 -743 807 0
-645 -683 -744 807 0
-645 -683 -745 807 0
-645 -683 -746 807 0
-645 -683 -747 807 0
-645 -683 -748 807 0
-645 -683 -749 807 0
-645 -683 -750 807 0
-645 -683 -751 807 0
-645 -683 -752 807 0
-645 -683 -753 807 0
-645 -683 -754 807 0
-645 -683 -755 807 0
-645 -684 -730 807 0
-645 -684 -731 807 0
-645 -684 -732 807 0
-645 -684 -733 807 0
-645 -684 -734 807 0
-645 -684 -735 807 0
-645 -684 -736 807 0
-645 -684 -737 807 0
-645 -684 -738 807 0
-645 -684 -739 807 0
-645 -684 -740 807 0
-645 -684 -741 807 0
-645 -684 -742 807 0
-645 -684 -743 807 0
-645 -684 -744 807 0
-645 -684 -745 807 0
-645 -684 -746 807 0
-645 -684 -747 807 0
-645 -684 -748 807 0
-645 -684 -749 807 0
-645 -684 -750 807 0
-645 -684 -751 807 0
-645 -684 -752 807 0
-645 -684 -753 807 0
-645 -684 -754 807 0
-645 -684 -755 807 0
-645 -685 -730 807 0
-645 -685 -731 807 0
-645 -685 -732 807 0
-645 -685 -733 807 0
-645 -685 -734 807 0
-645 -685 -735 807 0
-645 -685 -736 807 0
-645 -685 -737 807 0
-645 -685 -738 807 0
-645 -685 -739 807 0
-645 -685 -740 807 0
-645 -685 -741 807 0
-645 -685 -742 807 0
-645 -685 -743 807 0
-645 -685 -744 807 0
-645 -685 -745 807 0
-645 -685 -746 807 0
-645 -685 -747 807 0
-645 -685 -748 807 0
-645 -685 -749 807 0
-645 -685 -750 807 0
-645 -685 -751 807 0
-645 -685 -752 807 0
-645 -685 -753 807 0
-645 -685 -754 807 0
-645 -685 -755 807 0
-645 -686 -730 807 0
-645 -686 -731 807 0
-645 -686 -732 807 0
-645 -686 -733 807 0
-645 -686 -734 807 0
-645 -686 -735 807 0
-645 -686 -736 807 0
-645 -686 -737 807 0
-645 -686 -738 807 0
-645 -686 -739 807 0
-645 -686 -740 807 0
-645 -686 -741 807 0
-645 -686 -742 807 0
-645 -686 -743 807 0
-645 -686 -744 807 0
-645 -686 -745 807 0
-645 -686 -746 807 0
-645 -686 -747 807 0
-645 -686 -748 807 0
-645 -686 -749 807 0
-645 -686 -750 807 0
-645 -686 -751 807 0
-645 -686 -752 807 0
-645 -686 -753 807 0
-645 -686 -754 807 0
-645 -686 -755 807 0
-645 -687 -730 807 0
-645 -687 -731 807 0
-645 -687 -732 807 0
-645 -687 -733 807 0
-645 -687 -734 807 0
-645 -687 -735 807 0
-645 -687 -736 807 0
-645 -687 -737 807 0
-645 -687 -738 807 0
-645 -687 -739 807 0
-645 -687 -740 807 0
-645 -687 -741 807 0
-645 -687 -742 807 0
-645 -687 -743 807 0
-645 -687 -744 807 0
-645 -687 -745 807 0
-645 -687 -746 807 0
-645 -687 -747 807 0
-645 -687 -748 807 0
-645 -687 -749 807 0
-645 -687 -750 807 0
-645 -687 -751 807 0
-645 -687 -752 807 0
-645 -687 -753 807 0
-645 -687 -754 807 0
-645 -687 -755 807 0
-645 -688 -730 807 0
-645 -688 -731 807 0
-645 -688 -732 807 0
-645 -688 -733 807 0
-645 -688 -734 807 0
-645 -688 -735 807 0
-645 -688 -736 807 0
-645 -688 -737 807 0
-645 -688 -738 807 0
-645 -688 -739 807 0
-645 -688 -740 807 0
-645 -688 -741 807 0
-645 -688 -742 807 0
-645 -688 -743 807 0
-645 -688 -744 807 0
-645 -688 -745 807 0
-645 -688 -746 807 0
-645 -688 -747 807 0
-645 -688 -748 807 0
-645 -688 -749 807 0
-645 -688 -750 807 0
-645 -688 -751 807 0
-645 -688 -752 807 0
-645 -688 -753 807 0
-645 -688 -754 807 0
-645 -688 -755 807 0
-645 -689 -730 807 0
-645 -689 -731 807 0
-645 -689 -732 807 0
-645 -689 -733 807 0
-645 -689 -734 807 0
-645 -689 -735 807 0
-645 -689 -736 807 0
-645 -689 -737 807 0
-645 -689 -738 807 0
-645 -689 -739 807 0
-645 -689 -740 807 0
-645 -689 -741 807 0
-645 -689 -742 807 0
-645 -689 -743 807 0
-645 -689 -744 807 0
-645 -689 -745 807 0
-645 -689 -746 807 0
-645 -689 -747 807 0
-645 -689 -748 807 0
-645 -689 -749 807 0
-645 -689 -750 807 0
-645 -689 -751 807 0
-645 -689 -752 807 0
-645 -689 -753 807 0
-645 -689 -754 807 0
-645 -689 -755 807 0
-645 -690 -730 807 0
-645 -690 -731 807 0
-645 -690 -732 807 0
-645 -690 -733 807 0
-645 -690 -734 807 0
-645 -690 -735 807 0
-645 -690 -736 807 0
-645 -690 -737 807 0
-645 -690 -738 807 0
-645 -690 -739 807 0
-645 -690 -740 807 0
-645 -690 -741 807 0
-645 -690 -742 807 0
-645 -690 -743 807 0
-645 -690 -744 807 0
-645 -690 -745 807 0
-645 -690 -746 807 0
-645 -690 -747 807 0
-645 -690 -748 807 0
-645 -690 -749 807 0
-645 -690 -750 807 0
-645 -690 -751 807 0
-645 -690 -752 807 0
-645 -690 -753 807 0
-645 -690 -754 807 0
-645 -690 -755 807 0
-645 -691 -730 807 0
-645 -691 -731 807 0
-645 -691 -732 807 0
-645 -691 -733 807 0
-645 -691 -734 807 0
-645 -691 -735 807 0
-645 -691 -736 807 0
-645 -691 -737 807 0
-645 -691 -738 807 0
-645 -691 -739 807 0
-645 -691 -740 807 0
-645 -691 -741 807 0
-645 -691 -742 807 0
-645 -691 -743 807 0
-645 -691 -744 807 0
-645 -691 -745 807 0
-645 -691 -746 807 0
-645 -691 -747 807 0
-645 -691 -748 807 0
-645 -691 -749 807 0
-645 -691 -750 807 0
-645 -691 -751 807 0
-645 -691 -752 807 0
-645 -691 -753 807 0
-645 -691 -754 807 0
-645 -691 -755 807 0
-645 -692 -730 807 0
-645 -692 -731 807 0
-645 -692 -732 807 0
-645 -692 -733 807 0
-645 -692 -734 807 0
-645 -692 -735 807 0
-645 -692 -736 807 0
-645 -692 -737 807 0
-645 -692 -738 807 0
-645 -692 -739 807 0
-645 -692 -740 807 0
-645 -692 -741 807 0
-645 -692 -742 807 0
-645 -692 -743 807 0
-645 -692 -744 807 0
-645 -692 -745 807 0
-645 -692 -746 807 0
-645 -692 -747 807 0
-645 -692 -748 807 0
-645 -692 -749 807 0
-645 -692 -750 807 0
-645 -692 -751 807 0
-645 -692 -752 807 0
-645 -692 -753 807 0
-645 -692 -754 807 0
-645 -692 -755 807 0
-645 -693 -730 807 0
-645 -693 -731 807 0
-645 -693 -732 807 0
-645 -693 -733 807 0
-645 -693 -734 807 0
-645 -693 -735 807 0
-645 -693 -736 807 0
-645 -693 -737 807 0
-645 -693 -738 807 0
-645 -693 -739 807 0
-645 -693 -740 807 0
-645 -693 -741 807 0
-645 -693 -742 807 0
-645 -693 -743 807 0
-645 -693 -744 807 0
-645 -693 -745 807 0
-645 -693 -746 807 0
-645 -693 -747 807 0
-645 -693 -748 807 0
-645 -693 -749 807 0
-645 -693 -750 807 0
-645 -693 -751 807 0
-645 -693 -752 807 0
-645 -693 -753 807 0
-645 -693 -754 807 0
-645 -693 -755 807 0
-645 -694 -730 807 0
-645 -694 -731 807 0
-645 -694 -732 807 0
-645 -694 -733 807 0
-645 -694 -734 807 0
-645 -694 -735 807 0
-645 -694 -736 807 0
-645 -694 -737 807 0
-645 -694 -738 807 0
-645 -694 -739 807 0
-645 -694 -740 807 0
-645 -694 -741 807 0
-645 -694 -742 807 0
-645 -694 -743 807 0
-645 -694 -744 807 0
-645 -694 -745 807 0
-645 -694 -746 807 0
-645 -694 -747 807 0
-645 -694 -748 807 0
-645 -694 -749 807 0
-645 -694 -750 807 0
-645 -694 -751 807 0
-645 -694 -752 807 0
-645 -694 -753 807 0
-645 -694 -754 807 0
-645 -694 -755 807 0
-645 -695 -730 807 0
-645 -695 -731 807 0
-645 -695 -732 807 0
-645 -695 -733 807 0
-645 -695 -734 807 0
-645 -695 -735 807 0
-645 -695 -736 807 0
-645 -695 -737 807 0
-645 -695 -738 807 0
-645 -695 -739 807 0
-645 -695 -740 807 0
-645 -695 -741 807 0
-645 -695 -742 807 0
-645 -695 -743 807 0
-645 -695 -744 807 0
-645 -695 -745 807 0
-645 -695 -746 807 0
-645 -695 -747 807 0
-645 -695 -748 807 0
-645 -695 -749 807 0
-645 -695 -750 807 0
-645 -695 -751 807 0
-645 -695 -752 807 0
-645 -695 -753 807 0
-645 -695 -754 807 0
-645 -695 -755 807 0
-645 -696 -730 807 0
-645 -696 -731 807 0
-645 -696 -732 807 0
-645 -696 -733 807 0
-645 -696 -734 807 0
-645 -696 -735 807 0
-645 -696 -736 807 0
-645 -696 -737 807 0
-645 -696 -738 807 0
-645 -696 -739 807 0
-645 -696 -740 807 0
-645 -696 -741 807 0
-645 -696 -742 807 0
-645 -696 -743 807 0
-645 -696 -744 807 0
-645 -696 -745 807 0
-645 -696 -746 807 0
-645 -696 -747 807 0
-645 -696 -748 807 0
-645 -696 -749 807 0
-645 -696 -750 807 0
-645 -696 -751 807 0
-645 -696 -752 807 0
-645 -696 -753 807 0
-645 -696 -754 807 0
-645 -696 -755 807 0
-645 -697 -730 807 0
-645 -697 -731 807 0
-645 -697 -732 807 0
-645 -697 -733 807 0
-645 -697 -734 807 0
-645 -697 -735 807 0
-645 -697 -736 807 0
-645 -697 -737 807 0
-645 -697 -738 807 0
-645 -697 -739 807 0
-645 -697 -740 807 0
-645 -697 -741 807 0
-645 -697 -742 807 0
-645 -697 -743 807 0
-645 -697 -744 807 0
-645 -697 -745 807 0
-645 -697 -746 807 0
-645 -697 -747 807 0
-645 -697 -748 807 0
-645 -697 -749 807 0
-645 -697 -750 807 0
-645 -697 -751 807 0
-645 -697 -752 807 0
-645 -697 -753 807 0
-645 -697 -754 807 0
-645 -697 -755 807 0
-645 -698 -730 807 0
-645 -698 -731 807 0
-645 -698 -732 807 0
-645 -698 -733 807 0
-645 -698 -734 807 0
-645 -698 -735 807 0
-645 -698 -736 807 0
-645 -698 -737 807 0
-645 -698 -738 807 0
-645 -698 -739 807 0
-645 -698 -740 807 0
-645 -698 -741 807 0
-645 -698 -742 807 0
-645 -698 -743 807 0
-645 -698 -744 807 0
-645 -698 -745 807 0
-645 -698 -746 807 0
-645 -698 -747 807 0
-645 -698 -748 807 0
-645 -698 -749 807 0
-645 -698 -750 807 0
-645 -698 -751 807 0
-645 -698 -752 807 0
-645 -698 -753 807 0
-645 -698 -754 807 0
-645 -698 -755 807 0
-645 -699 -730 807 0
-645 -699 -731 807 0
-645 -699 -732 807 0
-645 -699 -733 807 0
-645 -699 -734 807 0
-645 -699 -735 807 0
-645 -699 -736 807 0
-645 -699 -737 807 0
-645 -699 -738 807 0
-645 -699 -739 807 0
-645 -699 -740 807 0
-645 -699 -741 807 0
-645 -699 -742 807 0
-645 -699 -743 807 0
-645 -699 -744 807 0
-645 -699 -745 807 0
-645 -699 -746 807 0
-645 -699 -747 807 0
-645 -699 -748 807 0
-645 -699 -749 807 0
-645 -699 -750 807 0
-645 -699 -751 807 0
-645 -699 -752 807 0
-645 -699 -753 807 0
-645 -699 -754 807 0
-645 -699 -755 807 0
-645 -700 -730 807 0
-645 -700 -731 807 0
-645 -700 -732 807 0
-645 -700 -733 807 0
-645 -700 -734 807 0
-645 -700 -735 807 0
-645 -700 -736 807 0
-645 -700 -737 807 0
-645 -700 -738 807 0
-645 -700 -739 807 0
-645 -700 -740 807 0
-645 -700 -741 807 0
-645 -700 -742 807 0
-645 -700 -743 807 0
-645 -700 -744 807 0
-645 -700 -745 807 0
-645 -700 -746 807 0
-645 -700 -747 807 0
-645 -700 -748 807 0
-645 -700 -749 807 0
-645 -700 -750 807 0
-645 -700 -751 807 0
-645 -700 -752 807 0
-645 -700 -753 807 0
-645 -700 -754 807 0
-645 -700 -755 807 0
-645 -701 -730 807 0
-645 -701 -731 807 0
-645 -701 -732 807 0
-645 -701 -733 807 0
-645 -701 -734 807 0
-645 -701 -735 807 0
-645 -701 -736 807 0
-645 -701 -737 807 0
-645 -701 -738 807 0
-645 -701 -739 807 0
-645 -701 -740 807 0
-645 -701 -741 807 0
-645 -701 -742 807 0
-645 -701 -743 807 0
-645 -701 -744 807 0
-645 -701 -745 807 0
-645 -701 -746 807 0
-645 -701 -747 807 0
-645 -701 -748 807 0
-645 -701 -749 807 0
-645 -701 -750 807 0
-645 -701 -751 807 0
-645 -701 -752 807 0
-645 -701 -753 807 0
-645 -701 -754 807 0
-645 -701 -755 807 0
-645 -702 -730 807 0
-645 -702 -731 807 0
-645 -702 -732 807 0
-645 -702 -733 807 0
-645 -702 -734 807 0
-645 -702 -735 807 0
-645 -702 -736 807 0
-645 -702 -737 807 0
-645 -702 -738 807 0
-645 -702 -739 807 0
-645 -702 -740 807 0
-645 -702 -741 807 0
-645 -702 -742 807 0
-645 -702 -743 807 0
-645 -702 -744 807 0
-645 -702 -745 807 0
-645 -702 -746 807 0
-645 -702 -747 807 0
-645 -702 -748 807 0
-645 -702 -749 807 0
-645 -702 -750 807 0
-645 -702 -751 807 0
-645 -702 -752 807 0
-645 -702 -753 807 0
-645 -702 -754 807 0
-645 -702 -755 807 0
-645 -703 -730 807 0
-645 -703 -731 807 0
-645 -703 -732 807 0
-645 -703 -733 807 0
-645 -703 -734 807 0
-645 -703 -735 807 0
-645 -703 -736 807 0
-645 -703 -737 807 0
-645 -703 -738 807 0
-645 -703 -739 807 0
-645 -703 -740 807 0
-645 -703 -741 807 0
-645 -703 -742 807 0
-645 -703 -743 807 0
-645 -703 -744 807 0
-645 -703 -745 807 0
-645 -703 -746 807 0
-645 -703 -747 807 0
-645 -703 -748 807 0
-645 -703 -749 807 0
-645 -703 -750 807 0
-645 -703 -751 807 0
-645 -703 -752 807 0
-645 -703 -753 807 0
-645 -703 -754 807 0
-645 -703 -755 807 0
-646 -678 -730 805 0
-646 -678 -731 806 0
-646 -678 -732 807 0
-646 -678 -733 807 0
-646 -678 -734 807 0
-646 -678 -735 807 0
-646 -678 -736 807 0
-646 -678 -737 807 0
-646 -678 -738 807 0
-646 -678 -739 807 0
-646 -678 -740 807 0
-646 -678 -741 807 0
-646 -678 -742 807 0
-646 -678 -743 807 0
-646 -678 -744 807 0
-646 -678 -745 807 0
-646 -678 -746 807 0
-646 -678 -747 807 0
-646 -678 -748 807 0
-646 -678 -749 807 0
-646 -678 -750 807 0
-646 -678 -751 807 0
-646 -678 -752 807 0
-646 -678 -753 807 0
-646 -678 -754 807 0
-646 -678 -755 807 0
-646 -679 -730 806 0
-646 -679 -731 807 0
-646 -679 -732 807 0
-646 -679 -733 807 0
-646 -679 -734 807 0
-646 -679 -735 807 0
-646 -679 -736 807 0
-646 -679 -737 807 0
-646 -679 -738 807 0
-646 -679 -739 807 0
-646 -679 -740 807 0
-646 -679 -741 807 0
-646 -679 -742 807 0
-646 -679 -743 807 0
-646 -679 -744 807 0
-646 -679 -745 807 0
-646 -679 -746 807 0
-646 -679 -747 807 0
-646 -679 -748 807 0
-646 -679 -749 807 0
-646 -679 -750 807 0
-646 -679 -751 807 0
-646 -679 -752 807 0
-646 -679 -753 807 0
-646 -679 -754 807 0
-646 -679 -755 807 0
-646 -680 -730 807 0
-646 -680 -731 807 0
-646 -680 -732 807 0
-646 -680 -733 807 0
-646 -680 -734 807 0
-646 -680 -735 807 0
-646 -680 -736 807 0
-646 -680 -737 807 0
-646 -680 -738 807 0
-646 -680 -739 807 0
-646 -680 -740 807 0
-646 -680 -741 807 0
-646 -680 -742 807 0
-646 -680 -743 807 0
-646 -680 -744 807 0
-646 -680 -745 807 0
-646 -680 -746 807 0
-646 -680 -747 807 0
-646 -680 -748 807 0
-646 -680 -749 807 0
-646 -680 -750 807 0
-646 -680 -751 807 0
-646 -680 -752 807 0
-646 -680 -753 807 0
-646 -680 -754 807 0
-646 -680 -755 807 0
-646 -681 -730 807 0
-646 -681 -731 807 0
-646 -681 -732 807 0
-646 -681 -733 807 0
-646 -681 -734 807 0
-646 -681 -735 807 0
-646 -681 -736 807 0
-646 -681 -737 807 0
-646 -681 -738 807 0
-646 -681 -739 807 0
-646 -681 -740 807 0
-646 -681 -741 807 0
-646 -681 -742 807 0
-646 -681 -743 807 0
-646 -681 -744 807 0
-646 -681 -745 807 0
-646 -681 -746 807 0
-646 -681 -747 807 0
-646 -681 -748 807 0
-646 -681 -749 807 0
-646 -681 -750 807 0
-646 -681 -751 807 0
-646 -681 -752 807 0
-646 -681 -753 807 0
-646 -681 -754 807 0
-646 -681 -755 807 0
-646 -682 -730 807 0
-646 -682 -731 807 0
-646 -682 -732 807 0
-646 -682 -733 807 0
-646 -682 -734 807 0
-646 -682 -735 807 0
-646 -682 -736 807 0
-646 -682 -737 807 0
-646 -682 -738 807 0
-646 -682 -739 807 0
-646 -682 -740 807 0
-646 -682 -741 807 0
-646 -682 -742 807 0
-646 -682 -743 807 0
-646 -682 -744 807 0
-646 -682 -745 807 0
-646 -682 -746 807 0
-646 -682 -747 807 0
-646 -682 -748 807 0
-646 -682 -749 807 0
-646 -682 -750 807 0
-646 -682 -751 807 0
-646 -682 -752 807 0
-646 -682 -753 807 0
-646 -682 -754 807 0
-646 -682 -755 807 0
-646 -683 -730 807 0
-646 -683 -731 807 0
-646 -683 -732 807 0
-646 -683 -733 807 0
-646 -683 -734 807 0
-646 -683 -735 807 0
-646 -683 -736 807 0
-646 -683 -737 807 0
-646 -683 -738 807 0
-646 -683 -739 807 0
-646 -683 -740 807 0
-646 -683 -741 807 0
-646 -683 -742 807 0
-646 -683 -743 807 0
-646 -683 -744 807 0
-646 -683 -745 807 0
-646 -683 -746 807 0
-646 -683 -747 807 0
-646 -683 -748 807 0
-646 -683 -749 807 0
-646 -683 -750 807 0
-646 -683 -751 807 0
-646 -683 -752 807 0
-646 -683 -753 807 0
-646 -683 -754 807 0
-646 -683 -755 807 0
-646 -684 -730 807 0
-646 -684 -731 807 0
-646 -684 -732 807 0
-646 -684 -733 807 0
-646 -684 -734 807 0
-646 -684 -735 807 0
-646 -684 -736 807 0
-646 -684 -737 807 0
-646 -684 -738 807 0
-646 -684 -739 807 0
-646 -684 -740 807 0
-646 -684 -741 807 0
-646 -684 -742 807 0
-646 -684 -743 807 0
-646 -684 -744 807 0
-646 -684 -745 807 0
-646 -684 -746 807 0
-646 -684 -747 807 0
-646 -684 -748 807 0
-646 -684 -749 807 0
-646 -684 -750 807 0
-646 -684 -751 807 0
-646 -684 -752 807 0
-646 -684 -753 807 0
-646 -684 -754 807 0
-646 -684 -755 807 0
-646 -685 -730 807 0
-646 -685 -731 807 0
-646 -685 -732 807 0
-646 -685 -733 807 0
-646 -685 -734 807 0
-646 -685 -735 807 0
-646 -685 -736 807 0
-646 -685 -737 807 0
-646 -685 -738 807 0
-646 -685 -739 807 0
-646 -685 -740 807 0
-646 -685 -741 807 0
-646 -685 -742 807 0
-646 -685 -743 807 0
-646 -685 -744 807 0
-646 -685 -745 807 0
-646 -685 -746 807 0
-646 -685 -747 807 0
-646 -685 -748 807 0
-646 -685 -749 807 0
-646 -685 -750 807 0
-646 -685 -751 807 0
-646 -685 -752 807 0
-646 -685 -753 807 0
-646 -685 -754 807 0
-646 -685 -755 807 0
-646 -686 -730 807 0
-646 -686 -731 807 0
-646 -686 -732 807 0
-646 -686 -733 807 0
-646 -686 -734 807 0
-646 -686 -735 807 0
-646 -686 -736 807 0
-646 -686 -737 807 0
-646 -686 -738 807 0
-646 -686 -739 807 0
-646 -686 -740 807 0
-646 -686 -741 807 0
-646 -686 -742 807 0
-646 -686 -743 807 0
-646 -686 -744 807 0
-646 -686 -745 807 0
-646 -686 -746 807 0
-646 -686 -747 807 0
-646 -686 -748 807 0
-646 -686 -749 807 0
-646 -686 -750 807 0
-646 -686 -751 807 0
-646 -686 -752 807 0
-646 -686 -753 807 0
-646 -686 -754 807 0
-646 -686 -755 807 0
-646 -687 -730 807 0
-646 -687 -731 807 0
-646 -687 -732 807 0
-646 -687 -733 807 0
-646 -687 -734 807 0
-646 -687 -735 807 0
-646 -687 -736 807 0
-646 -687 -737 807 0
-646 -687 -738 807 0
-646 -687 -739 807 0
-646 -687 -740 807 0
-646 -687 -741 807 0
-646 -687 -742 807 0
-646 -687 -743 807 0
-646 -687 -744 807 0
-646 -687 -745 807 0
-646 -687 -746 807 0
-646 -687 -747 807 0
-646 -687 -748 807 0
-646 -687 -749 807 0
-646 -687 -750 807 0
-646 -687 -751 807 0
-646 -687 -752 807 0
-646 -687 -753 807 0
-646 -687 -754 807 0
-646 -687 -755 807 0
-646 -688 -730 807 0
-646 -688 -731 807 0
-646 -688 -732 807 0
-646 -688 -733 807 0
-646 -688 -734 807 0
-646 -688 -735 807 0
-646 -688 -736 807 0
-646 -688 -737 807 0
-646 -688 -738 807 0
-646 -688 -739 807 0
-646 -688 -740 807 0
-646 -688 -741 807 0
-646 -688 -742 807 0
-646 -688 -743 807 0
-646 -688 -744 807 0
-646 -688 -745 807 0
-646 -688 -746 807 0
-646 -688 -747 807 0
-646 -688 -748 807 0
-646 -688 -749 807 0
-646 -688 -750 807 0
-646 -688 -751 807 0
-646 -688 -752 807 0
-646 -688 -753 807 0
-646 -688 -754 807 0
-646 -688 -755 807 0
-646 -689 -730 807 0
-646 -689 -731 807 0
-646 -689 -732 807 0
-646 -689 -733 807 0
-646 -689 -734 807 0
-646 -689 -735 807 0
-646 -689 -736 807 0
-646 -689 -737 807 0
-646 -689 -738 807 0
-646 -689 -739 807 0
-646 -689 -740 807 0
-646 -689 -741 807 0
-646 -689 -742 807 0
-646 -689 -743 807 0
-646 -689 -744 807 0
-646 -689 -745 807 0
-646 -689 -746 807 0
-646 -689 -747 807 0
-646 -689 -748 807 0
-646 -689 -749 807 0
-646 -689 -750 807 0
-646 -689 -751 807 0
-646 -689 -752 807 0
-646 -689 -753 807 0
-646 -689 -754 807 0
-646 -689 -755 807 0
-646 -690 -730 807 0
-646 -690 -731 807 0
-646 -690 -732 807 0
-646 -690 -733 807 0
-646 -690 -734 807 0
-646 -690 -735 807 0
-646 -690 -736 807 0
-646 -690 -737 807 0
-646 -690 -738 807 0
-646 -690 -739 807 0
-646 -690 -740 807 0
-646 -690 -741 807 0
-646 -690 -742 807 0
-646 -690 -743 807 0
-646 -690 -744 807 0
-646 -690 -745 807 0
-646 -690 -746 807 0
-646 -690 -747 807 0
-646 -690 -748 807 0
-646 -690 -749 807 0
-646 -690 -750 807 0
-646 -690 -751 807 0
-646 -690 -752 807 0
-646 -690 -753 807 0
-646 -690 -754 807 0
-646 -690 -755 807 0
-646 -691 -730 807 0
-646 -691 -731 807 0
-646 -691 -732 807 0
-646 -691 -733 807 0
-646 -691 -734 807 0
-646 -691 -735 807 0
-646 -691 -736 807 0
-646 -691 -737 807 0
-646 -691 -738 807 0
-646 -691 -739 807 0
-646 -691 -740 807 0
-646 -691 -741 807 0
-646 -691 -742 807 0
-646 -691 -743 807 0
-646 -691 -744 807 0
-646 -691 -745 807 0
-646 -691 -746 807 0
-646 -691 -747 807 0
-646 -691 -748 807 0
-646 -691 -749 807 0
-646 -691 -750 807 0
-646 -691 -751 807 0
-646 -691 -752 807 0
-646 -691 -753 807 0
-646 -691 -754 807 0
-646 -691 -755 807 0
-646 -692 -730 807 0
-646 -692 -731 807 0
-646 -692 -732 807 0
-646 -692 -733 807 0
-646 -692 -734 807 0
-646 -692 -735 807 0
-646 -692 -736 807 0
-646 -692 -737 807 0
-646 -692 -738 807 0
-646 -692 -739 807 0
-646 -692 -740 807 0
-646 -692 -741 807 0
-646 -692 -742 807 0
-646 -692 -743 807 0
-646 -692 -744 807 0
-646 -692 -745 807 0
-646 -692 -746 807 0
-646 -692 -747 807 0
-646 -692 -748 807 0
-646 -692 -749 807 0
-646 -692 -750 807 0
-646 -692 -751 807 0
-646 -692 -752 807 0
-646 -692 -753 807 0
-646 -692 -754 807 0
-646 -692 -755 807 0
-646 -693 -730 807 0
-646 -693 -731 807 0
-646 -693 -732 807 0
-646 -693 -733 807 0
-646 -693 -734 807 0
-646 -693 -735 807 0
-646 -693 -736 807 0
-646 -693 -737 807 0
-646 -693 -738 807 0
-646 -693 -739 807 0
-646 -693 -740 807 0
-646 -693 -741 807 0
-646 -693 -742 807 0
-646 -693 -743 807 0
-646 -693 -744 807 0
-646 -693 -745 807 0
-646 -693 -746 807 0
-646 -693 -747 807 0
-646 -693 -748 807 0
-646 -693 -749 807 0
-646 -693 -750 807 0
-646 -693 -751 807 0
-646 -693 -752 807 0
-646 -693 -753 807 0
-646 -693 -754 807 0
-646 -693 -755 807 0
-646 -694 -730 807 0
-646 -694 -731 807 0
-646 -694 -732 807 0
-646 -694 -733 807 0
-646 -694 -734 807 0
-646 -694 -735 807 0
-646 -694 -736 807 0
-646 -694 -737 807 0
-646 -694 -738 807 0
-646 -694 -739 807 0
-646 -694 -740 807 0
-646 -694 -741 807 0
-646 -694 -742 807 0
-646 -694 -743 807 0
-646 -694 -744 807 0
-646 -694 -745 807 0
-646 -694 -746 807 0
-646 -694 -747 807 0
-646 -694 -748 807 0
-646 -694 -749 807 0
-646 -694 -750 807 0
-646 -694 -751 807 0
-646 -694 -752 807 0
-646 -694 -753 807 0
-646 -694 -754 807 0
-646 -694 -755 807 0
-646 -695 -730 807 0
-646 -695 -731 807 0
-646 -695 -732 807 0
-646 -695 -733 807 0
-646 -695 -734 807 0
-646 -695 -735 807 0
-646 -695 -736 807 0
-646 -695 -737 807 0
-646 -695 -738 807 0
-646 -695 -739 807 0
-646 -695 -740 807 0
-646 -695 -741 807 0
-646 -695 -742 807 0
-646 -695 -743 807 0
-646 -695 -744 807 0
-646 -695 -745 807 0
-646 -695 -746 807 0
-646 -695 -747 807 0
-646 -695 -748 807 0
-646 -695 -749 807 0
-646 -695 -750 807 0
-646 -695 -751 807 0
-646 -695 -752 807 0
-646 -695 -753 807 0
-646 -695 -754 807 0
-646 -695 -755 807 0
-646 -696 -730 807 0
-646 -696 -731 807 0
-646 -696 -732 807 0
-646 -696 -733 807 0
-646 -696 -734 807 0
-646 -696 -735 807 0
-646 -696 -736 807 0
-646 -696 -737 807 0
-646 -696 -738 807 0
-646 -696 -739 807 0
-646 -696 -740 807 0
-646 -696 -741 807 0
-646 -696 -742 807 0
-646 -696 -743 807 0
-646 -696 -744 807 0
-646 -696 -745 807 0
-646 -696 -746 807 0
-646 -696 -747 807 0
-646 -696 -748 807 0
-646 -696 -749 807 0
-646 -696 -750 807 0
-646 -696 -751 807 0
-646 -696 -752 807 0
-646 -696 -753 807 0
-646 -696 -754 807 0
-646 -696 -755 807 0
-646 -697 -730 807 0
-646 -697 -731 807 0
-646 -697 -732 807 0
-646 -697 -733 807 0
-646 -697 -734 807 0
-646 -697 -735 807 0
-646 -697 -736 807 0
-646 -697 -737 807 0
-646 -697 -738 807 0
-646 -697 -739 807 0
-646 -697 -740 807 0
-646 -697 -741 807 0
-646 -697 -742 807 0
-646 -697 -743 807 0
-646 -697 -744 807 0
-646 -697 -745 807 0
-646 -697 -746 807 0
-646 -697 -747 807 0
-646 -697 -748 807 0
-646 -697 -749 807 0
-646 -697 -750 807 0
-646 -697 -751 807 0
-646 -697 -752 807 0
-646 -697 -753 807 0
-646 -697 -754 807 0
-646 -697 -755 807 0
-646 -698 -730 807 0
-646 -698 -731 807 0
-646 -698 -732 807 0
-646 -698 -733 807 0
-646 -698 -734 807 0
-646 -698 -735 807 0
-646 -698 -736 807 0
-646 -698 -737 807 0
-646 -698 -738 807 0
-646 -698 -739 807 0
-646 -698 -740 807 0
-646 -698 -741 807 0
-646 -698 -742 807 0
-646 -698 -743 807 0
-646 -698 -744 807 0
-646 -698 -745 807 0
-646 -698 -746 807 0
-646 -698 -747 807 0
-646 -698 -748 807 0
-646 -698 -749 807 0
-646 -698 -750 807 0
-646 -698 -751 807 0
-646 -698 -752 807 0
-646 -698 -753 807 0
-646 -698 -754 807 0
-646 -698 -755 807 0
-646 -699 -730 807 0
-646 -699 -731 807 0
-646 -699 -732 807 0
-646 -699 -733 807 0
-646 -699 -734 807 0
-646 -699 -735 807 0
-646 -699 -736 807 0
-646 -699 -737 807 0
-646 -699 -738 807 0
-646 -699 -739 807 0
-646 -699 -740 807 0
-646 -699 -741 807 0
-646 -699 -742 807 0
-646 -699 -743 807 0
-646 -699 -744 807 0
-646 -699 -745 807 0
-646 -699 -746 807 0
-646 -699 -747 807 0
-646 -699 -748 807 0
-646 -699 -749 807 0
-646 -699 -750 807 0
-646 -699 -751 807 0
-646 -699 -752 807 0
-646 -699 -753 807 0
-646 -699 -754 807 0
-646 -699 -755 807 0
-646 -700 -730 807 0
-646 -700 -731 807 0
-646 -700 -732 807 0
-646 -700 -733 807 0
-646 -700 -734 807 0
-646 -700 -735 807 0
-646 -700 -736 807 0
-646 -700 -737 807 0
-646 -700 -738 807 0
-646 -700 -739 807 0
-646 -700 -740 807 0
-646 -700 -741 807 0
-646 -700 -742 807 0
-646 -700 -743 807 0
-646 -700 -744 807 0
-646 -700 -745 807 0
-646 -700 -746 807 0
-646 -700 -747 807 0
-646 -700 -748 807 0
-646 -700 -749 807 0
-646 -700 -750 807 0
-646 -700 -751 807 0
-646 -700 -752 807 0
-646 -700 -753 807 0
-646 -700 -754 807 0
-646 -700 -755 807 0
-646 -701 -730 807 0
-646 -701 -731 807 0
-646 -701 -732 807 0
-646 -701 -733 807 0
-646 -701 -734 807 0
-646 -701 -735 807 0
-646 -701 -736 807 0
-646 -701 -737 807 0
-646 -701 -738 807 0
-646 -701 -739 807 0
-646 -701 -740 807 0
-646 -701 -741 807 0
-646 -701 -742 807 0
-646 -701 -743 807 0
-646 -701 -744 807 0
-646 -701 -745 807 0
-646 -701 -746 807 0
-646 -701 -747 807 0
-646 -701 -748 807 0
-646 -701 -749 807 0
-646 -701 -750 807 0
-646 -701 -751 807 0
-646 -701 -752 807 0
-646 -701 -753 807 0
-646 -701 -754 807 0
-646 -701 -755 807 0
-646 -702 -730 807 0
-646 -702 -731 807 0
-646 -702 -732 807 0
-646 -702 -733 807 0
-646 -702 -734 807 0
-646 -702 -735 807 0
-646 -702 -736 807 0
-646 -702 -737 807 0
-646 -702 -738 807 0
-646 -702 -739 807 0
-646 -702 -740 807 0
-646 -702 -741 807 0
-646 -702 -742 807 0
-646 -702 -743 807 0
-646 -702 -744 807 0
-646 -702 -745 807 0
-646 -702 -746 807 0
-646 -702 -747 807 0
-646 -702 -748 807 0
-646 -702 -749 807 0
-646 -702 -750 807 0
-646 -702 -751 807 0
-646 -702 -752 807 0
-646 -702 -753 807 0
-646 -702 -754 807 0
-646 -702 -755 807 0
-646 -703 -730 807 0
-646 -703 -731 807 0
-646 -703 -732 807 0
-646 -703 -733 807 0
-646 -703 -734 807 0
-646 -703 -735 807 0
-646 -703 -736 807 0
-646 -703 -737 807 0
-646 -703 -738 807 0
-646 -703 -739 807 0
-646 -703 -740 807 0
-646 -703 -741 807 0
-646 -703 -742 807 0
-646 -703 -743 807 0
-646 -703 -744 807 0
-646 -703 -745 807 0
-646 -703 -746 807 0
-646 -703 -747 807 0
-646 -703 -748 807 0
-646 -703 -749 807 0
-646 -703 -750 807 0
-646 -703 -751 807 0
-646 -703 -752 807 0
-646 -703 -753 807 0
-646 -703 -754 807 0
-646 -703 -755 807 0
-647 -678 -730 806 0
-647 -678 -731 807 0
-647 -678 -732 807 0
-647 -678 -733 807 0
-647 -678 -734 807 0
-647 -678 -735 807 0
-647 -678 -736 807 0
-647 -678 -737 807 0
-647 -678 -738 807 0
-647 -678 -739 807 0
-647 -678 -740 807 0
-647 -678 -741 807 0
-647 -678 -742 807 0
-647 -678 -743 807 0
-647 -678 -744 807 0
-647 -678 -745 807 0
-647 -678 -746 807 0
-647 -678 -747 807 0
-647 -678 -748 807 0
-647 -678 -749 807 0
-647 -678 -750 807 0
-647 -678 -751 807 0
-647 -678 -752 807 0
-647 -678 -753 807 0
-647 -678 -754 807 0
-647 -678 -755 807 0
-647 -679 -730 807 0
-647 -679 -731 807 0
-647 -679 -732 807 0
-647 -679 -733 807 0
-647 -679 -734 807 0
-647 -679 -735 807 0
-647 -679 -736 807 0
-647 -679 -737 807 0
-647 -679 -738 807 0
-647 -679 -739 807 0
-647 -679 -740 807 0
-647 -679 -741 807 0
-647 -679 -742 807 0
-647 -679 -743 807 0
-647 -679 -744 807 0
-647 -679 -745 807 0
-647 -679 -746 807 0
-647 -679 -747 807 0
-647 -679 -748 807 0
-647 -679 -749 807 0
-647 -679 -750 807 0
-647 -679 -751 807 0
-647 -679 -752 807 0
-647 -679 -753 807 0
-647 -679 -754 807 0
-647 -679 -755 807 0
-647 -680 -730 807 0
-647 -680 -731 807 0
-647 -680 -732 807 0
-647 -680 -733 807 0
-647 -680 -734 807 0
-647 -680 -735 807 0
-647 -680 -736 807 0
-647 -680 -737 807 0
-647 -680 -738 807 0
-647 -680 -739 807 0
-647 -680 -740 807 0
-647 -680 -741 807 0
-647 -680 -742 807 0
-647 -680 -743 807 0
-647 -680 -744 807 0
-647 -680 -745 807 0
-647 -680 -746 807 0
-647 -680 -747 807 0
-647 -680 -748 807 0
-647 -680 -749 807 0
-647 -680 -750 807 0
-647 -680 -751 807 0
-647 -680 -752 807 0
-647 -680 -753 807 0
-647 -680 -754 807 0
-647 -680 -755 807 0
-647 -681 -730 807 0
-647 -681 -731 807 0
-647 -681 -732 807 0
-647 -681 -733 807 0
-647 -681 -734 807 0
-647 -681 -735 807 0
-647 -681 -736 807 0
-647 -681 -737 807 0
-647 -681 -738 807 0
-647 -681 -739 807 0
-647 -681 -740 807 0
-647 -681 -741 807 0
-647 -681 -742 807 0
-647 -681 -743 807 0
-647 -681 -744 807 0
-647 -681 -745 807 0
-647 -681 -746 807 0
-647 -681 -747 807 0
-647 -681 -748 807 0
-647 -681 -749 807 0
-647 -681 -750 807 0
-647 -681 -751 807 0
-647 -681 -752 807 0
-647 -681 -753 807 0
-647 -681 -754 807 0
-647 -681 -755 807 0
-647 -682 -730 807 0
-647 -682 -731 807 0
-647 -682 -732 807 0
-647 -682 -733 807 0
-647 -682 -734 807 0
-647 -682 -735 807 0
-647 -682 -736 807 0
-647 -682 -737 807 0
-647 -682 -738 807 0
-647 -682 -739 807 0
-647 -682 -740 807 0
-647 -682 -741 807 0
-647 -682 -742 807 0
-647 -682 -743 807 0
-647 -682 -744 807 0
-647 -682 -745 807 0
-647 -682 -746 807 0
-647 -682 -747 807 0
-647 -682 -748 807 0
-647 -682 -749 807 0
-647 -682 -750 807 0
-647 -682 -751 807 0
-647 -682 -752 807 0
-647 -682 -753 807 0
-647 -682 -754 807 0
-647 -682 -755 807 0
-647 -683 -730 807 0
-647 -683 -731 807 0
-647 -683 -732 807 0
-647 -683 -733 807 0
-647 -683 -734 807 0
-647 -683 -735 807 0
-647 -683 -736 807 0
-647 -683 -737 807 0
-647 -683 -738 807 0
-647 -683 -739 807 0
-647 -683 -740 807 0
-647 -683 -741 807 0
-647 -683 -742 807 0
-647 -683 -743 807 0
-647 -683 -744 807 0
-647 -683 -745 807 0
-647 -683 -746 807 0
-647 -683 -747 807 0
-647 -683 -748 807 0
-647 -683 -749 807 0
-647 -683 -750 807 0
-647 -683 -751 807 0
-647 -683 -752 807 0
-647 -683 -753 807 0
-647 -683 -754 807 0
-647 -683 -755 807 0
-647 -684 -730 807 0
-647 -684 -731 807 0
-647 -684 -732 807 0
-647 -684 -733 807 0
-647 -684 -734 807 0
-647 -684 -735 807 0
-647 -684 -736 807 0
-647 -684 -737 807 0
-647 -684 -738 807 0
-647 -684 -739 807 0
-647 -684 -740 807 0
-647 -684 -741 807 0
-647 -684 -742 807 0
-647 -684 -743 807 0
-647 -684 -744 807 0
-647 -684 -745 807 0
-647 -684 -746 807 0
-647 -684 -747 807 0
-647 -684 -748 807 0
-647 -684 -749 807 0
-647 -684 -750 807 0
-647 -684 -751 807 0
-647 -684 -752 807 0
-647 -684 -753 807 0
-647 -684 -754 807 0
-647 -684 -755 807 0
-647 -685 -730 807 0
-647 -685 -731 807 0
-647 -685 -732 807 0
-647 -685 -733 807 0
-647 -685 -734 807 0
-647 -685 -735 807 0
-647 -685 -736 807 0
-647 -685 -737 807 0
-647 -685 -738 807 0
-647 -685 -739 807 0
-647 -685 -740 807 0
-647 -685 -741 807 0
-647 -685 -742 807 0
-647 -685 -743 807 0
-647 -685 -744 807 0
-647 -685 -745 807 0
-647 -685 -746 807 0
-647 -685 -747 807 0
-647 -685 -748 807 0
-647 -685 -749 807 0
-647 -685 -750 807 0
-647 -685 -751 807 0
-647 -685 -752 807 0
-647 -685 -753 807 0
-647 -685 -754 807 0
-647 -685 -755 807 0
-647 -686 -730 807 0
-647 -686 -731 807 0
-647 -686 -732 807 0
-647 -686 -733 807 0
-647 -686 -734 807 0
-647 -686 -735 807 0
-647 -686 -736 807 0
-647 -686 -737 807 0
-647 -686 -738 807 0
-647 -686 -739 807 0
-647 -686 -740 807 0
-647 -686 -741 807 0
-647 -686 -742 807 0
-647 -686 -743 807 0
-647 -686 -744 807 0
-647 -686 -745 807 0
-647 -686 -746 807 0
-647 -686 -747 807 0
-647 -686 -748 807 0
-647 -686 -749 807 0
-647 -686 -750 807 0
-647 -686 -751 807 0
-647 -686 -752 807 0
-647 -686 -753 807 0
-647 -686 -754 807 0
-647 -686 -755 807 0
-647 -687 -730 807 0
-647 -687 -731 807 0
-647 -687 -732 807 0
-647 -687 -733 807 0
-647 -687 -734 807 0
-647 -687 -735 807 0
-647 -687 -736 807 0
-647 -687 -737 807 0
-647 -687 -738 807 0
-647 -687 -739 807 0
-647 -687 -740 807 0
-647 -687 -741 807 0
-647 -687 -742 807 0
-647 -687 -743 807 0
-647 -687 -744 807 0
-647 -687 -745 807 0
-647 -687 -746 807 0
-647 -687 -747 807 0
-647 -687 -748 807 0
-647 -687 -749 807 0
-647 -687 -750 807 0
-647 -687 -751 807 0
-647 -687 -752 807 0
-647 -687 -753 807 0
-647 -687 -754 807 0
-647 -687 -755 807 0
-647 -688 -730 807 0
-647 -688 -731 807 0
-647 -688 -732 807 0
-647 -688 -733 807 0
-647 -688 -734 807 0
-647 -688 -735 807 0
-647 -688 -736 807 0
-647 -688 -737 807 0
-647 -688 -738 807 0
-647 -688 -739 807 0
-647 -688 -740 807 0
-647 -688 -741 807 0
-647 -688 -742 807 0
-647 -688 -743 807 0
-647 -688 -744 807 0
-647 -688 -745 807 0
-647 -688 -746 807 0
-647 -688 -747 807 0
-647 -688 -748 807 0
-647 -688 -749 807 0
-647 -688 -750 807 0
-647 -688 -751 807 0
-647 -688 -752 807 0
-647 -688 -753 807 0
-647 -688 -754 807 0
-647 -688 -755 807 0
-647 -689 -730 807 0
-647 -689 -731 807 0
-647 -689 -732 807 0
-647 -689 -733 807 0
-647 -689 -734 807 0
-647 -689 -735 807 0
-647 -689 -736 807 0
-647 -689 -737 807 0
-647 -689 -738 807 0
-647 -689 -739 807 0
-647 -689 -740 807 0
-647 -689 -741 807 0
-647 -689 -742 807 0
-647 -689 -743 807 0
-647 -689 -744 807 0
-647 -689 -745 807 0
-647 -689 -746 807 0
-647 -689 -747 807 0
-647 -689 -748 807 0
-647 -689 -749 807 0
-647 -689 -750 807 0
-647 -689 -751 807 0
-647 -689 -752 807 0
-647 -689 -753 807 0
-647 -689 -754 807 0
-647 -689 -755 807 0
-647 -690 -730 807 0
-647 -690 -731 807 0
-647 -690 -732 807 0
-647 -690 -733 807 0
-647 -690 -734 807 0
-647 -690 -735 807 0
-647 -690 -736 807 0
-647 -690 -737 807 0
-647 -690 -738 807 0
-647 -690 -739 807 0
-647 -690 -740 807 0
-647 -690 -741 807 0
-647 -690 -742 807 0
-647 -690 -743 807 0
-647 -690 -744 807 0
-647 -690 -745 807 0
-647 -690 -746 807 0
-647 -690 -747 807 0
-647 -690 -748 807 0
-647 -690 -749 807 0
-647 -690 -750 807 0
-647 -690 -751 807 0
-647 -690 -752 807 0
-647 -690 -753 807 0
-647 -690 -754 807 0
-647 -690 -755 807 0
-647 -691 -730 807 0
-647 -691 -731 807 0
-647 -691 -732 807 0
-647 -691 -733 807 0
-647 -691 -734 807 0
-647 -691 -735 807 0
-647 -691 -736 807 0
-647 -691 -737 807 0
-647 -691 -738 807 0
-647 -691 -739 807 0
-647 -691 -740 807 0
-647 -691 -741 807 0
-647 -691 -742 807 0
-647 -691 -743 807 0
-647 -691 -744 807 0
-647 -691 -745 807 0
-647 -691 -746 807 0
-647 -691 -747 807 0
-647 -691 -748 807 0
-647 -691 -749 807 0
-647 -691 -750 807 0
-647 -691 -751 807 0
-647 -691 -752 807 0
-647 -691 -753 807 0
-647 -691 -754 807 0
-647 -691 -755 807 0
-647 -692 -730 807 0
-647 -692 -731 807 0
-647 -692 -732 807 0
-647 -692 -733 807 0
-647 -692 -734 807 0
-647 -692 -735 807 0
-647 -692 -736 807 0
-647 -692 -737 807 0
-647 -692 -738 807 0
-647 -692 -739 807 0
-647 -692 -740 807 0
-647 -692 -741 807 0
-647 -692 -742 807 0
-647 -692 -743 807 0
-647 -692 -744 807 0
-647 -692 -745 807 0
-647 -692 -746 807 0
-647 -692 -747 807 0
-647 -692 -748 807 0
-647 -692 -749 807 0
-647 -692 -750 807 0
-647 -692 -751 807 0
-647 -692 -752 807 0
-647 -692 -753 807 0
-647 -692 -754 807 0
-647 -692 -755 807 0
-647 -693 -730 807 0
-647 -693 -731 807 0
-647 -693 -732 807 0
-647 -693 -733 807 0
-647 -693 -734 807 0
-647 -693 -735 807 0
-647 -693 -736 807 0
-647 -693 -737 807 0
-647 -693 -738 807 0
-647 -693 -739 807 0
-647 -693 -740 807 0
-647 -693 -741 807 0
-647 -693 -742 807 0
-647 -693 -743 807 0
-647 -693 -744 807 0
-647 -693 -745 807 0
-647 -693 -746 807 0
-647 -693 -747 807 0
-647 -693 -748 807 0
-647 -693 -749 807 0
-647 -693 -750 807 0
-647 -693 -751 807 0
-647 -693 -752 807 0
-647 -693 -753 807 0
-647 -693 -754 807 0
-647 -693 -755 807 0
-647 -694 -730 807 0
-647 -694 -731 807 0
-647 -694 -732 807 0
-647 -694 -733 807 0
-647 -694 -734 807 0
-647 -694 -735 807 0
-647 -694 -736 807 0
-647 -694 -737 807 0
-647 -694 -738 807 0
-647 -694 -739 807 0
-647 -694 -740 807 0
-647 -694 -741 807 0
-647 -694 -742 807 0
-647 -694 -743 807 0
-647 -694 -744 807 0
-647 -694 -745 807 0
-647 -694 -746 807 0
-647 -694 -747 807 0
-647 -694 -748 807 0
-647 -694 -749 807 0
-647 -694 -750 807 0
-647 -694 -751 807 0
-647 -694 -752 807 0
-647 -694 -753 807 0
-647 -694 -754 807 0
-647 -694 -755 807 0
-647 -695 -730 807 0
-647 -695 -731 807 0
-647 -695 -732 807 0
-647 -695 -733 807 0
-647 -695 -734 807 0
-647 -695 -735 807 0
-647 -695 -736 807 0
-647 -695 -737 807 0
-647 -695 -738 807 0
-647 -695 -739 807 0
-647 -695 -740 807 0
-647 -695 -741 807 0
-647 -695 -742 807 0
-647 -695 -743 807 0
-647 -695 -744 807 0
-647 -695 -745 807 0
-647 -695 -746 807 0
-647 -695 -747 807 0
-647 -695 -748 807 0
-647 -695 -749 807 0
-647 -695 -750 807 0
-647 -695 -751 807 0
-647 -695 -752 807 0
-647 -695 -753 807 0
-647 -695 -754 807 0
-647 -695 -755 807 0
-647 -696 -730 807 0
-647 -696 -731 807 0
-647 -696 -732 807 0
-647 -696 -733 807 0
-647 -696 -734 807 0
-647 -696 -735 807 0
-647 -696 -736 807 0
-647 -696 -737 807 0
-647 -696 -738 807 0
-647 -696 -739 807 0
-647 -696 -740 807 0
-647 -696 -741 807 0
-647 -696 -742 807 0
-647 -696 -743 807 0
-647 -696 -744 807 0
-647 -696 -745 807 0
-647 -696 -746 807 0
-647 -696 -747 807 0
-647 -696 -748 807 0
-647 -696 -749 807 0
-647 -696 -750 807 0
-647 -696 -751 807 0
-647 -696 -752 807 0
-647 -696 -753 807 0
-647 -696 -754 807 0
-647 -696 -755 807 0
-647 -697 -730 807 0
-647 -697 -731 807 0
-647 -697 -732 807 0
-647 -697 -733 807 0
-647 -697 -734 807 0
-647 -697 -735 807 0
-647 -697 -736 807 0
-647 -697 -737 807 0
-647 -697 -738 807 0
-647 -697 -739 807 0
-647 -697 -740 807 0
-647 -697 -741 807 0
-647 -697 -742 807 0
-647 -697 -743 807 0
-647 -697 -744 807 0
-647 -697 -745 807 0
-647 -697 -746 807 0
-647 -697 -747 807 0
-647 -697 -748 807 0
-647 -697 -749 807 0
-647 -697 -750 807 0
-647 -697 -751 807 0
-647 -697 -752 807 0
-647 -697 -753 807 0
-647 -697 -754 807 0
-647 -697 -755 807 0
-647 -698 -730 807 0
-647 -698 -731 807 0
-647 -698 -732 807 0
-647 -698 -733 807 0
-647 -698 -734 807 0
-647 -698 -735 807 0
-647 -698 -736 807 0
-647 -698 -737 807 0
-647 -698 -738 807 0
-647 -698 -739 807 0
-647 -698 -740 807 0
-647 -698 -741 807 0
-647 -698 -742 807 0
-647 -698 -743 807 0
-647 -698 -744 807 0
-647 -698 -745 807 0
-647 -698 -746 807 0
-647 -698 -747 807 0
-647 -698 -748 807 0
-647 -698 -749 807 0
-647 -698 -750 807 0
-647 -698 -751 807 0
-647 -698 -752 807 0
-647 -698 -753 807 0
-647 -698 -754 807 0
-647 -698 -755 807 0
-647 -699 -730 807 0
-647 -699 -731 807 0
-647 -699 -732 807 0
-647 -699 -733 807 0
-647 -699 -734 807 0
-647 -699 -735 807 0
-647 -699 -736 807 0
-647 -699 -737 807 0
-647 -699 -738 807 0
-647 -699 -739 807 0
-647 -699 -740 807 0
-647 -699 -741 807 0
-647 -699 -742 807 0
-647 -699 -743 807 0
-647 -699 -744 807 0
-647 -699 -745 807 0
-647 -699 -746 807 0
-647 -699 -747 807 0
-647 -699 -748 807 0
-647 -699 -749 807 0
-647 -699 -750 807 0
-647 -699 -751 807 0
-647 -699 -752 807 0
-647 -699 -753 807 0
-647 -699 -754 807 0
-647 -699 -755 807 0
-647 -700 -730 807 0
-647 -700 -731 807 0
-647 -700 -732 807 0
-647 -700 -733 807 0
-647 -700 -734 807 0
-647 -700 -735 807 0
-647 -700 -736 807 0
-647 -700 -737 807 0
-647 -700 -738 807 0
-647 -700 -739 807 0
-647 -700 -740 807 0
-647 -700 -741 807 0
-647 -700 -742 807 0
-647 -700 -743 807 0
-647 -700 -744 807 0
-647 -700 -745 807 0
-647 -700 -746 807 0
-647 -700 -747 807 0
-647 -700 -748 807 0
-647 -700 -749 807 0
-647 -700 -750 807 0
-647 -700 -751 807 0
-647 -700 -752 807 0
-647 -700 -753 807 0
-647 -700 -754 807 0
-647 -700 -755 807 0
-647 -701 -730 807 0
-647 -701 -731 807 0
-647 -701 -732 807 0
-647 -701 -733 807 0
-647 -701 -734 807 0
-647 -701 -735 807 0
-647 -701 -736 807 0
-647 -701 -737 807 0
-647 -701 -738 807 0
-647 -701 -739 807 0
-647 -701 -740 807 0
-647 -701 -741 807 0
-647 -701 -742 807 0
-647 -701 -743 807 0
-647 -701 -744 807 0
-647 -701 -745 807 0
-647 -701 -746 807 0
-647 -701 -747 807 0
-647 -701 -748 807 0
-647 -701 -749 807 0
-647 -701 -750 807 0
-647 -701 -751 807 0
-647 -701 -752 807 0
-647 -701 -753 807 0
-647 -701 -754 807 0
-647 -701 -755 807 0
-647 -702 -730 807 0
-647 -702 -731 807 0
-647 -702 -732 807 0
-647 -702 -733 807 0
-647 -702 -734 807 0
-647 -702 -735 807 0
-647 -702 -736 807 0
-647 -702 -737 807 0
-647 -702 -738 807 0
-647 -702 -739 807 0
-647 -702 -740 807 0
-647 -702 -741 807 0
-647 -702 -742 807 0
-647 -702 -743 807 0
-647 -702 -744 807 0
-647 -702 -745 807 0
-647 -702 -746 807 0
-647 -702 -747 807 0
-647 -702 -748 807 0
-647 -702 -749 807 0
-647 -702 -750 807 0
-647 -702 -751 807 0
-647 -702 -752 807 0
-647 -702 -753 807 0
-647 -702 -754 807 0
-647 -702 -755 807 0
-647 -703 -730 807 0
-647 -703 -731 807 0
-647 -703 -732 807 0
-647 -703 -733 807 0
-647 -703 -734 807 0
-647 -703 -735 807 0
-647 -703 -736 807 0
-647 -703 -737 807 0
-647 -703 -738 807 0
-647 -703 -739 807 0
-647 -703 -740 807 0
-647 -703 -741 807 0
-647 -703 -742 807 0
-647 -703 -743 807 0
-647 -703 -744 807 0
-647 -703 -745 807 0
-647 -703 -746 807 0
-647 -703 -747 807 0
-647 -703 -748 807 0
-647 -703 -749 807 0
-647 -703 -750 807 0
-647 -703 -751 807 0
-647 -703 -752 807 0
-647 -703 -753 807 0
-647 -703 -754 807 0
-647 -703 -755 807 0
-648 -678 -730 807 0
-648 -678 -731 807 0
-648 -678 -732 807 0
-648 -678 -733 807 0
-648 -678 -734 807 0
-648 -678 -735 807 0
-648 -678 -736 807 0
-648 -678 -737 807 0
-648 -678 -738 807 0
-648 -678 -739 807 0
-648 -678 -740 807 0
-648 -678 -741 807 0
-648 -678 -742 807 0
-648 -678 -743 807 0
-648 -678 -744 807 0
-648 -678 -745 807 0
-648 -678 -746 807 0
-648 -678 -747 807 0
-648 -678 -748 807 0
-648 -678 -749 807 0
-648 -678 -750 807 0
-648 -678 -751 807 0
-648 -678 -752 807 0
-648 -678 -753 807 0
-648 -678 -754 807 0
-648 -678 -755 807 0
-648 -679 -730 807 0
-648 -679 -731 807 0
-648 -679 -732 807 0
-648 -679 -733 807 0
-648 -679 -734 807 0
-648 -679 -735 807 0
-648 -679 -736 807 0
-648 -679 -737 807 0
-648 -679 -738 807 0
-648 -679 -739 807 0
-648 -679 -740 807 0
-648 -679 -741 807 0
-648 -679 -742 807 0
-648 -679 -743 807 0
-648 -679 -744 807 0
-648 -679 -745 807 0
-648 -679 -746 807 0
-648 -679 -747 807 0
-648 -679 -748 807 0
-648 -679 -749 807 0
-648 -679 -750 807 0
-648 -679 -751 807 0
-648 -679 -752 807 0
-648 -679 -753 807 0
-648 -679 -754 807 0
-648 -679 -755 807 0
-648 -680 -730 807 0
-648 -680 -731 807 0
-648 -680 -732 807 0
-648 -680 -733 807 0
-648 -680 -734 807 0
-648 -680 -735 807 0
-648 -680 -736 807 0
-648 -680 -737 807 0
-648 -680 -738 807 0
-648 -680 -739 807 0
-648 -680 -740 807 0
-648 -680 -741 807 0
-648 -680 -742 807 0
-648 -680 -743 807 0
-648 -680 -744 807 0
-648 -680 -745 807 0
-648 -680 -746 807 0
-648 -680 -747 807 0
-648 -680 -748 807 0
-648 -680 -749 807 0
-648 -680 -750 807 0
-648 -680 -751 807 0
-648 -680 -752 807 0
-648 -680 -753 807 0
-648 -680 -754 807 0
-648 -680 -755 807 0
-648 -681 -730 807 0
-648 -681 -731 807 0
-648 -681 -732 807 0
-648 -681 -733 807 0
-648 -681 -734 807 0
-648 -681 -735 807 0
-648 -681 -736 807 0
-648 -681 -737 807 0
-648 -681 -738 807 0
-648 -681 -739 807 0
-648 -681 -740 807 0
-648 -681 -741 807 0
-648 -681 -742 807 0
-648 -681 -743 807 0
-648 -681 -744 807 0
-648 -681 -745 807 0
-648 -681 -746 807 0
-648 -681 -747 807 0
-648 -681 -748 807 0
-648 -681 -749 807 0
-648 -681 -750 807 0
-648 -681 -751 807 0
-648 -681 -752 807 0
-648 -681 -753 807 0
-648 -681 -754 807 0
-648 -681 -755 807 0
-648 -682 -730 807 0
-648 -682 -731 807 0
-648 -682 -732 807 0
-648 -682 -733 807 0
-648 -682 -734 807 0
-648 -682 -735 807 0
-648 -682 -736 807 0
-648 -682 -737 807 0
-648 -682 -738 807 0
-648 -682 -739 807 0
-648 -682 -740 807 0
-648 -682 -741 807 0
-648 -682 -742 807 0
-648 -682 -743 807 0
-648 -682 -744 807 0
-648 -682 -745 807 0
-648 -682 -746 807 0
-648 -682 -747 807 0
-648 -682 -748 807 0
-648 -682 -749 807 0
-648 -682 -750 807 0
-648 -682 -751 807 0
-648 -682 -752 807 0
-648 -682 -753 807 0
-648 -682 -754 807 0
-648 -682 -755 807 0
-648 -683 -730 807 0
-648 -683 -731 807 0
-648 -683 -732 807 0
-648 -683 -733 807 0
-648 -683 -734 807 0
-648 -683 -735 807 0
-648 -683 -736 807 0
-648 -683 -737 807 0
-648 -683 -738 807 0
-648 -683 -739 807 0
-648 -683 -740 807 0
-648 -683 -741 807 0
-648 -683 -742 807 0
-648 -683 -743 807 0
-648 -683 -744 807 0
-648 -683 -745 807 0
-648 -683 -746 807 0
-648 -683 -747 807 0
-648 -683 -748 807 0
-648 -683 -749 807 0
-648 -683 -750 807 0
-648 -683 -751 807 0
-648 -683 -752 807 0
-648 -683 -753 807 0
-648 -683 -754 807 0
-648 -683 -755 807 0
-648 -684 -730 807 0
-648 -684 -731 807 0
-648 -684 -732 807 0
-648 -684 -733 807 0
-648 -684 -734 807 0
-648 -684 -735 807 0
-648 -684 -736 807 0
-648 -684 -737 807 0
-648 -684 -738 807 0
-648 -684 -739 807 0
-648 -684 -740 807 0
-648 -684 -741 807 0
-648 -684 -742 807 0
-648 -684 -743 807 0
-648 -684 -744 807 0
-648 -684 -745 807 0
-648 -684 -746 807 0
-648 -684 -747 807 0
-648 -684 -748 807 0
-648 -684 -749 807 0
-648 -684 -750 807 0
-648 -684 -751 807 0
-648 -684 -752 807 0
-648 -684 -753 807 0
-648 -684 -754 807 0
-648 -684 -755 807 0
-648 -685 -730 807 0
-648 -685 -731 807 0
-648 -685 -732 807 0
-648 -685 -733 807 0
-648 -685 -734 807 0
-648 -685 -735 807 0
-648 -685 -736 807 0
-648 -685 -737 807 0
-648 -685 -738 807 0
-648 -685 -739 807 0
-648 -685 -740 807 0
-648 -685 -741 807 0
-648 -685 -742 807 0
-648 -685 -743 807 0
-648 -685 -744 807 0
-648 -685 -745 807 0
-648 -685 -746 807 0
-648 -685 -747 807 0
-648 -685 -748 807 0
-648 -685 -749 807 0
-648 -685 -750 807 0
-648 -685 -751 807 0
-648 -685 -752 807 0
-648 -685 -753 807 0
-648 -685 -754 807 0
-648 -685 -755 807 0
-648 -686 -730 807 0
-648 -686 -731 807 0
-648 -686 -732 807 0
-648 -686 -733 807 0
-648 -686 -734 807 0
-648 -686 -735 807 0
-648 -686 -736 807 0
-648 -686 -737 807 0
-648 -686 -738 807 0
-648 -686 -739 807 0
-648 -686 -740 807 0
-648 -686 -741 807 0
-648 -686 -742 807 0
-648 -686 -743 807 0
-648 -686 -744 807 0
-648 -686 -745 807 0
-648 -686 -746 807 0
-648 -686 -747 807 0
-648 -686 -748 807 0
-648 -686 -749 807 0
-648 -686 -750 807 0
-648 -686 -751 807 0
-648 -686 -752 807 0
-648 -686 -753 807 0
-648 -686 -754 807 0
-648 -686 -755 807 0
-648 -687 -730 807 0
-648 -687 -731 807 0
-648 -687 -732 807 0
-648 -687 -733 807 0
-648 -687 -734 807 0
-648 -687 -735 807 0
-648 -687 -736 807 0
-648 -687 -737 807 0
-648 -687 -738 807 0
-648 -687 -739 807 0
-648 -687 -740 807 0
-648 -687 -741 807 0
-648 -687 -742 807 0
-648 -687 -743 807 0
-648 -687 -744 807 0
-648 -687 -745 807 0
-648 -687 -746 807 0
-648 -687 -747 807 0
-648 -687 -748 807 0
-648 -687 -749 807 0
-648 -687 -750 807 0
-648 -687 -751 807 0
-648 -687 -752 807 0
-648 -687 -753 807 0
-648 -687 -754 807 0
-648 -687 -755 807 0
-648 -688 -730 807 0
-648 -688 -731 807 0
-648 -688 -732 807 0
-648 -688 -733 807 0
-648 -688 -734 807 0
-648 -688 -735 807 0
-648 -688 -736 807 0
-648 -688 -737 807 0
-648 -688 -738 807 0
-648 -688 -739 807 0
-648 -688 -740 807 0
-648 -688 -741 807 0
-648 -688 -742 807 0
-648 -688 -743 807 0
-648 -688 -744 807 0
-648 -688 -745 807 0
-648 -688 -746 807 0
-648 -688 -747 807 0
-648 -688 -748 807 0
-648 -688 -749 807 0
-648 -688 -750 807 0
-648 -688 -751 807 0
-648 -688 -752 807 0
-648 -688 -753 807 0
-648 -688 -754 807 0
-648 -688 -755 807 0
-648 -689 -730 807 0
-648 -689 -731 807 0
-648 -689 -732 807 0
-648 -689 -733 807 0
-648 -689 -734 807 0
-648 -689 -735 807 0
-648 -689 -736 807 0
-648 -689 -737 807 0
-648 -689 -738 807 0
-648 -689 -739 807 0
-648 -689 -740 807 0
-648 -689 -741 807 0
-648 -689 -742 807 0
-648 -689 -743 807 0
-648 -689 -744 807 0
-648 -689 -745 807 0
-648 -689 -746 807 0
-648 -689 -747 807 0
-648 -689 -748 807 0
-648 -689 -749 807 0
-648 -689 -750 807 0
-648 -689 -751 807 0
-648 -689 -752 807 0
-648 -689 -753 807 0
-648 -689 -754 807 0
-648 -689 -755 807 0
-648 -690 -730 807 0
-648 -690 -731 807 0
-648 -690 -732 807 0
-648 -690 -733 807 0
-648 -690 -734 807 0
-648 -690 -735 807 0
-648 -690 -736 807 0
-648 -690 -737 807 0
-648 -690 -738 807 0
-648 -690 -739 807 0
-648 -690 -740 807 0
-648 -690 -741 807 0
-648 -690 -742 807 0
-648 -690 -743 807 0
-648 -690 -744 807 0
-648 -690 -745 807 0
-648 -690 -746 807 0
-648 -690 -747 807 0
-648 -690 -748 807 0
-648 -690 -749 807 0
-648 -690 -750 807 0
-648 -690 -751 807 0
-648 -690 -752 807 0
-648 -690 -753 807 0
-648 -690 -754 807 0
-648 -690 -755 807 0
-648 -691 -730 807 0
-648 -691 -731 807 0
-648 -691 -732 807 0
-648 -691 -733 807 0
-648 -691 -734 807 0
-648 -691 -735 807 0
-648 -691 -736 807 0
-648 -691 -737 807 0
-648 -691 -738 807 0
-648 -691 -739 807 0
-648 -691 -740 807 0
-648 -691 -741 807 0
-648 -691 -742 807 0
-648 -691 -743 807 0
-648 -691 -744 807 0
-648 -691 -745 807 0
-648 -691 -746 807 0
-648 -691 -747 807 0
-648 -691 -748 807 0
-648 -691 -749 807 0
-648 -691 -750 807 0
-648 -691 -751 807 0
-648 -691 -752 807 0
-648 -691 -753 807 0
-648 -691 -754 807 0
-648 -691 -755 807 0
-648 -692 -730 807 0
-648 -692 -731 807 0
-648 -692 -732 807 0
-648 -692 -733 807 0
-648 -692 -734 807 0
-648 -692 -735 807 0
-648 -692 -736 807 0
-648 -692 -737 807 0
-648 -692 -738 807 0
-648 -692 -739 807 0
-648 -692 -740 807 0
-648 -692 -741 807 0
-648 -692 -742 807 0
-648 -692 -743 807 0
-648 -692 -744 807 0
-648 -692 -745 807 0
-648 -692 -746 807 0
-648 -692 -747 807 0
-648 -692 -748 807 0
-648 -692 -749 807 0
-648 -692 -750 807 0
-648 -692 -751 807 0
-648 -692 -752 807 0
-648 -692 -753 807 0
-648 -692 -754 807 0
-648 -692 -755 807 0
-648 -693 -730 807 0
-648 -693 -731 807 0
-648 -693 -732 807 0
-648 -693 -733 807 0
-648 -693 -734 807 0
-648 -693 -735 807 0
-648 -693 -736 807 0
-648 -693 -737 807 0
-648 -693 -738 807 0
-648 -693 -739 807 0
-648 -693 -740 807 0
-648 -693 -741 807 0
-648 -693 -742 807 0
-648 -693 -743 807 0
-648 -693 -744 807 0
-648 -693 -745 807 0
-648 -693 -746 807 0
-648 -693 -747 807 0
-648 -693 -748 807 0
-648 -693 -749 807 0
-648 -693 -750 807 0
-648 -693 -751 807 0
-648 -693 -752 807 0
-648 -693 -753 807 0
-648 -693 -754 807 0
-648 -693 -755 807 0
-648 -694 -730 807 0
-648 -694 -731 807 0
-648 -694 -732 807 0
-648 -694 -733 807 0
-648 -694 -734 807 0
-648 -694 -735 807 0
-648 -694 -736 807 0
-648 -694 -737 807 0
-648 -694 -738 807 0
-648 -694 -739 807 0
-648 -694 -740 807 0
-648 -694 -741 807 0
-648 -694 -742 807 0
-648 -694 -743 807 0
-648 -694 -744 807 0
-648 -694 -745 807 0
-648 -694 -746 807 0
-648 -694 -747 807 0
-648 -694 -748 807 0
-648 -694 -749 807 0
-648 -694 -750 807 0
-648 -694 -751 807 0
-648 -694 -752 807 0
-648 -694 -753 807 0
-648 -694 -754 807 0
-648 -694 -755 807 0
-648 -695 -730 807 0
-648 -695 -731 807 0
-648 -695 -732 807 0
-648 -695 -733 807 0
-648 -695 -734 807 0
-648 -695 -735 807 0
-648 -695 -736 807 0
-648 -695 -737 807 0
-648 -695 -738 807 0
-648 -695 -739 807 0
-648 -695 -740 807 0
-648 -695 -741 807 0
-648 -695 -742 807 0
-648 -695 -743 807 0
-648 -695 -744 807 0
-648 -695 -745 807 0
-648 -695 -746 807 0
-648 -695 -747 807 0
-648 -695 -748 807 0
-648 -695 -749 807 0
-648 -695 -750 807 0
-648 -695 -751 807 0
-648 -695 -752 807 0
-648 -695 -753 807 0
-648 -695 -754 807 0
-648 -695 -755 807 0
-648 -696 -730 807 0
-648 -696 -731 807 0
-648 -696 -732 807 0
-648 -696 -733 807 0
-648 -696 -734 807 0
-648 -696 -735 807 0
-648 -696 -736 807 0
-648 -696 -737 807 0
-648 -696 -738 807 0
-648 -696 -739 807 0
-648 -696 -740 807 0
-648 -696 -741 807 0
-648 -696 -742 807 0
-648 -696 -743 807 0
-648 -696 -744 807 0
-648 -696 -745 807 0
-648 -696 -746 807 0
-648 -696 -747 807 0
-648 -696 -748 807 0
-648 -696 -749 807 0
-648 -696 -750 807 0
-648 -696 -751 807 0
-648 -696 -752 807 0
-648 -696 -753 807 0
-648 -696 -754 807 0
-648 -696 -755 807 0
-648 -697 -730 807 0
-648 -697 -731 807 0
-648 -697 -732 807 0
-648 -697 -733 807 0
-648 -697 -734 807 0
-648 -697 -735 807 0
-648 -697 -736 807 0
-648 -697 -737 807 0
-648 -697 -738 807 0
-648 -697 -739 807 0
-648 -697 -740 807 0
-648 -697 -741 807 0
-648 -697 -742 807 0
-648 -697 -743 807 0
-648 -697 -744 807 0
-648 -697 -745 807 0
-648 -697 -746 807 0
-648 -697 -747 807 0
-648 -697 -748 807 0
-648 -697 -749 807 0
-648 -697 -750 807 0
-648 -697 -751 807 0
-648 -697 -752 807 0
-648 -697 -753 807 0
-648 -697 -754 807 0
-648 -697 -755 807 0
-648 -698 -730 807 0
-648 -698 -731 807 0
-648 -698 -732 807 0
-648 -698 -733 807 0
-648 -698 -734 807 0
-648 -698 -735 807 0
-648 -698 -736 807 0
-648 -698 -737 807 0
-648 -698 -738 807 0
-648 -698 -739 807 0
-648 -698 -740 807 0
-648 -698 -741 807 0
-648 -698 -742 807 0
-648 -698 -743 807 0
-648 -698 -744 807 0
-648 -698 -745 807 0
-648 -698 -746 807 0
-648 -698 -747 807 0
-648 -698 -748 807 0
-648 -698 -749 807 0
-648 -698 -750 807 0
-648 -698 -751 807 0
-648 -698 -752 807 0
-648 -698 -753 807 0
-648 -698 -754 807 0
-648 -698 -755 807 0
-648 -699 -730 807 0
-648 -699 -731 807 0
-648 -699 -732 807 0
-648 -699 -733 807 0
-648 -699 -734 807 0
-648 -699 -735 807 0
-648 -699 -736 807 0
-648 -699 -737 807 0
-648 -699 -738 807 0
-648 -699 -739 807 0
-648 -699 -740 807 0
-648 -699 -741 807 0
-648 -699 -742 807 0
-648 -699 -743 807 0
-648 -699 -744 807 0
-648 -699 -745 807 0
-648 -699 -746 807 0
-648 -699 -747 807 0
-648 -699 -748 807 0
-648 -699 -749 807 0
-648 -699 -750 807 0
-648 -699 -751 807 0
-648 -699 -752 807 0
-648 -699 -753 807 0
-648 -699 -754 807 0
-648 -699 -755 807 0
-648 -700 -730 807 0
-648 -700 -731 807 0
-648 -700 -732 807 0
-648 -700 -733 807 0
-648 -700 -734 807 0
-648 -700 -735 807 0
-648 -700 -736 807 0
-648 -700 -737 807 0
-648 -700 -738 807 0
-648 -700 -739 807 0
-648 -700 -740 807 0
-648 -700 -741 807 0
-648 -700 -742 807 0
-648 -700 -743 807 0
-648 -700 -744 807 0
-648 -700 -745 807 0
-648 -700 -746 807 0
-648 -700 -747 807 0
-648 -700 -748 807 0
-648 -700 -749 807 0
-648 -700 -750 807 0
-648 -700 -751 807 0
-648 -700 -752 807 0
-648 -700 -753 807 0
-648 -700 -754 807 0
-648 -700 -755 807 0
-648 -701 -730 807 0
-648 -701 -731 807 0
-648 -701 -732 807 0
-648 -701 -733 807 0
-648 -701 -734 807 0
-648 -701 -735 807 0
-648 -701 -736 807 0
-648 -701 -737 807 0
-648 -701 -738 807 0
-648 -701 -739 807 0
-648 -701 -740 807 0
-648 -701 -741 807 0
-648 -701 -742 807 0
-648 -701 -743 807 0
-648 -701 -744 807 0
-648 -701 -745 807 0
-648 -701 -746 807 0
-648 -701 -747 807 0
-648 -701 -748 807 0
-648 -701 -749 807 0
-648 -701 -750 807 0
-648 -701 -751 807 0
-648 -701 -752 807 0
-648 -701 -753 807 0
-648 -701 -754 807 0
-648 -701 -755 807 0
-648 -702 -730 807 0
-648 -702 -731 807 0
-648 -702 -732 807 0
-648 -702 -733 807 0
-648 -702 -734 807 0
-648 -702 -735 807 0
-648 -702 -736 807 0
-648 -702 -737 807 0
-648 -702 -738 807 0
-648 -702 -739 807 0
-648 -702 -740 807 0
-648 -702 -741 807 0
-648 -702 -742 807 0
-648 -702 -743 807 0
-648 -702 -744 807 0
-648 -702 -745 807 0
-648 -702 -746 807 0
-648 -702 -747 807 0
-648 -702 -748 807 0
-648 -702 -749 807 0
-648 -702 -750 807 0
-648 -702 -751 807 0
-648 -702 -752 807 0
-648 -702 -753 807 0
-648 -702 -754 807 0
-648 -702 -755 807 0
-648 -703 -730 807 0
-648 -703 -731 807 0
-648 -703 -732 807 0
-648 -703 -733 807 0
-648 -703 -734 807 0
-648 -703 -735 807 0
-648 -703 -736 807 0
-648 -703 -737 807 0
-648 -703 -738 807 0
-648 -703 -739 807 0
-648 -703 -740 807 0
-648 -703 -741 807 0
-648 -703 -742 807 0
-648 -703 -743 807 0
-648 -703 -744 807 0
-648 -703 -745 807 0
-648 -703 -746 807 0
-648 -703 -747 807 0
-648 -703 -748 807 0
-648 -703 -749 807 0
-648 -703 -750 807 0
-648 -703 -751 807 0
-648 -703 -752 807 0
-648 -703 -753 807 0
-648 -703 -754 807 0
-648 -703 -755 807 0
-649 -678 -730 807 0
-649 -678 -731 807 0
-649 -678 -732 807 0
-649 -678 -733 807 0
-649 -678 -734 807 0
-649 -678 -735 807 0
-649 -678 -736 807 0
-649 -678 -737 807 0
-649 -678 -738 807 0
-649 -678 -739 807 0
-649 -678 -740 807 0
-649 -678 -741 807 0
-649 -678 -742 807 0
-649 -678 -743 807 0
-649 -678 -744 807 0
-649 -678 -745 807 0
-649 -678 -746 807 0
-649 -678 -747 807 0
-649 -678 -748 807 0
-649 -678 -749 807 0
-649 -678 -750 807 0
-649 -678 -751 807 0
-649 -678 -752 807 0
-649 -678 -753 807 0
-649 -678 -754 807 0
-649 -678 -755 807 0
-649 -679 -730 807 0
-649 -679 -731 807 0
-649 -679 -732 807 0
-649 -679 -733 807 0
-649 -679 -734 807 0
-649 -679 -735 807 0
-649 -679 -736 807 0
-649 -679 -737 807 0
-649 -679 -738 807 0
-649 -679 -739 807 0
-649 -679 -740 807 0
-649 -679 -741 807 0
-649 -679 -742 807 0
-649 -679 -743 807 0
-649 -679 -744 807 0
-649 -679 -745 807 0
-649 -679 -746 807 0
-649 -679 -747 807 0
-649 -679 -748 807 0
-649 -679 -749 807 0
-649 -679 -750 807 0
-649 -679 -751 807 0
-649 -679 -752 807 0
-649 -679 -753 807 0
-649 -679 -754 807 0
-649 -679 -755 807 0
-649 -680 -730 807 0
-649 -680 -731 807 0
-649 -680 -732 807 0
-649 -680 -733 807 0
-649 -680 -734 807 0
-649 -680 -735 807 0
-649 -680 -736 807 0
-649 -680 -737 807 0
-649 -680 -738 807 0
-649 -680 -739 807 0
-649 -680 -740 807 0
-649 -680 -741 807 0
-649 -680 -742 807 0
-649 -680 -743 807 0
-649 -680 -744 807 0
-649 -680 -745 807 0
-649 -680 -746 807 0
-649 -680 -747 807 0
-649 -680 -748 807 0
-649 -680 -749 807 0
-649 -680 -750 807 0
-649 -680 -751 807 0
-649 -680 -752 807 0
-649 -680 -753 807 0
-649 -680 -754 807 0
-649 -680 -755 807 0
-649 -681 -730 807 0
-649 -681 -731 807 0
-649 -681 -732 807 0
-649 -681 -733 807 0
-649 -681 -734 807 0
-649 -681 -735 807 0
-649 -681 -736 807 0
-649 -681 -737 807 0
-649 -681 -738 807 0
-649 -681 -739 807 0
-649 -681 -740 807 0
-649 -681 -741 807 0
-649 -681 -742 807 0
-649 -681 -743 807 0
-649 -681 -744 807 0
-649 -681 -745 807 0
-649 -681 -746 807 0
-649 -681 -747 807 0
-649 -681 -748 807 0
-649 -681 -749 807 0
-649 -681 -750 807 0
-649 -681 -751 807 0
-649 -681 -752 807 0
-649 -681 -753 807 0
-649 -681 -754 807 0
-649 -681 -755 807 0
-649 -682 -730 807 0
-649 -682 -731 807 0
-649 -682 -732 807 0
-649 -682 -733 807 0
-649 -682 -734 807 0
-649 -682 -735 807 0
-649 -682 -736 807 0
-649 -682 -737 807 0
-649 -682 -738 807 0
-649 -682 -739 807 0
-649 -682 -740 807 0
-649 -682 -741 807 0
-649 -682 -742 807 0
-649 -682 -743 807 0
-649 -682 -744 807 0
-649 -682 -745 807 0
-649 -682 -746 807 0
-649 -682 -747 807 0
-649 -682 -748 807 0
-649 -682 -749 807 0
-649 -682 -750 807 0
-649 -682 -751 807 0
-649 -682 -752 807 0
-649 -682 -753 807 0
-649 -682 -754 807 0
-649 -682 -755 807 0
-649 -683 -730 807 0
-649 -683 -731 807 0
-649 -683 -732 807 0
-649 -683 -733 807 0
-649 -683 -734 807 0
-649 -683 -735 807 0
-649 -683 -736 807 0
-649 -683 -737 807 0
-649 -683 -738 807 0
-649 -683 -739 807 0
-649 -683 -740 807 0
-649 -683 -741 807 0
-649 -683 -742 807 0
-649 -683 -743 807 0
-649 -683 -744 807 0
-649 -683 -745 807 0
-649 -683 -746 807 0
-649 -683 -747 807 0
-649 -683 -748 807 0
-649 -683 -749 807 0
-649 -683 -750 807 0
-649 -683 -751 807 0
-649 -683 -752 807 0
-649 -683 -753 807 0
-649 -683 -754 807 0
-649 -683 -755 807 0
-649 -684 -730 807 0
-649 -684 -731 807 0
-649 -684 -732 807 0
-649 -684 -733 807 0
-649 -684 -734 807 0
-649 -684 -735 807 0
-649 -684 -736 807 0
-649 -684 -737 807 0
-649 -684 -738 807 0
-649 -684 -739 807 0
-649 -684 -740 807 0
-649 -684 -741 807 0
-649 -684 -742 807 0
-649 -684 -743 807 0
-649 -684 -744 807 0
-649 -684 -745 807 0
-649 -684 -746 807 0
-649 -684 -747 807 0
-649 -684 -748 807 0
-649 -684 -749 807 0
-649 -684 -750 807 0
-649 -684 -751 807 0
-649 -684 -752 807 0
-649 -684 -753 807 0
-649 -684 -754 807 0
-649 -684 -755 807 0
-649 -685 -730 807 0
-649 -685 -731 807 0
-649 -685 -732 807 0
-649 -685 -733 807 0
-649 -685 -734 807 0
-649 -685 -735 807 0
-649 -685 -736 807 0
-649 -685 -737 807 0
-649 -685 -738 807 0
-649 -685 -739 807 0
-649 -685 -740 807 0
-649 -685 -741 807 0
-649 -685 -742 807 0
-649 -685 -743 807 0
-649 -685 -744 807 0
-649 -685 -745 807 0
-649 -685 -746 807 0
-649 -685 -747 807 0
-649 -685 -748 807 0
-649 -685 -749 807 0
-649 -685 -750 807 0
-649 -685 -751 807 0
-649 -685 -752 807 0
-649 -685 -753 807 0
-649 -685 -754 807 0
-649 -685 -755 807 0
-649 -686 -730 807 0
-649 -686 -731 807 0
-649 -686 -732 807 0
-649 -686 -733 807 0
-649 -686 -734 807 0
-649 -686 -735 807 0
-649 -686 -736 807 0
-649 -686 -737 807 0
-649 -686 -738 807 0
-649 -686 -739 807 0
-649 -686 -740 807 0
-649 -686 -741 807 0
-649 -686 -742 807 0
-649 -686 -743 807 0
-649 -686 -744 807 0
-649 -686 -745 807 0
-649 -686 -746 807 0
-649 -686 -747 807 0
-649 -686 -748 807 0
-649 -686 -749 807 0
-649 -686 -750 807 0
-649 -686 -751 807 0
-649 -686 -752 807 0
-649 -686 -753 807 0
-649 -686 -754 807 0
-649 -686 -755 807 0
-649 -687 -730 807 0
-649 -687 -731 807 0
-649 -687 -732 807 0
-649 -687 -733 807 0
-649 -687 -734 807 0
-649 -687 -735 807 0
-649 -687 -736 807 0
-649 -687 -737 807 0
-649 -687 -738 807 0
-649 -687 -739 807 0
-649 -687 -740 807 0
-649 -687 -741 807 0
-649 -687 -742 807 0
-649 -687 -743 807 0
-649 -687 -744 807 0
-649 -687 -745 807 0
-649 -687 -746 807 0
-649 -687 -747 807 0
-649 -687 -748 807 0
-649 -687 -749 807 0
-649 -687 -750 807 0
-649 -687 -751 807 0
-649 -687 -752 807 0
-649 -687 -753 807 0
-649 -687 -754 807 0
-649 -687 -755 807 0
-649 -688 -730 807 0
-649 -688 -731 807 0
-649 -688 -732 807 0
-649 -688 -733 807 0
-649 -688 -734 807 0
-649 -688 -735 807 0
-649 -688 -736 807 0
-649 -688 -737 807 0
-649 -688 -738 807 0
-649 -688 -739 807 0
-649 -688 -740 807 0
-649 -688 -741 807 0
-649 -688 -742 807 0
-649 -688 -743 807 0
-649 -688 -744 807 0
-649 -688 -745 807 0
-649 -688 -746 807 0
-649 -688 -747 807 0
-649 -688 -748 807 0
-649 -688 -749 807 0
-649 -688 -750 807 0
-649 -688 -751 807 0
-649 -688 -752 807 0
-649 -688 -753 807 0
-649 -688 -754 807 0
-649 -688 -755 807 0
-649 -689 -730 807 0
-649 -689 -731 807 0
-649 -689 -732 807 0
-649 -689 -733 807 0
-649 -689 -734 807 0
-649 -689 -735 807 0
-649 -689 -736 807 0
-649 -689 -737 807 0
-649 -689 -738 807 0
-649 -689 -739 807 0
-649 -689 -740 807 0
-649 -689 -741 807 0
-649 -689 -742 807 0
-649 -689 -743 807 0
-649 -689 -744 807 0
-649 -689 -745 807 0
-649 -689 -746 807 0
-649 -689 -747 807 0
-649 -689 -748 807 0
-649 -689 -749 807 0
-649 -689 -750 807 0
-649 -689 -751 807 0
-649 -689 -752 807 0
-649 -689 -753 807 0
-649 -689 -754 807 0
-649 -689 -755 807 0
-649 -690 -730 807 0
-649 -690 -731 807 0
-649 -690 -732 807 0
-649 -690 -733 807 0
-649 -690 -734 807 0
-649 -690 -735 807 0
-649 -690 -736 807 0
-649 -690 -737 807 0
-649 -690 -738 807 0
-649 -690 -739 807 0
-649 -690 -740 807 0
-649 -690 -741 807 0
-649 -690 -742 807 0
-649 -690 -743 807 0
-649 -690 -744 807 0
-649 -690 -745 807 0
-649 -690 -746 807 0
-649 -690 -747 807 0
-649 -690 -748 807 0
-649 -690 -749 807 0
-649 -690 -750 807 0
-649 -690 -751 807 0
-649 -690 -752 807 0
-649 -690 -753 807 0
-649 -690 -754 807 0
-649 -690 -755 807 0
-649 -691 -730 807 0
-649 -691 -731 807 0
-649 -691 -732 807 0
-649 -691 -733 807 0
-649 -691 -734 807 0
-649 -691 -735 807 0
-649 -691 -736 807 0
-649 -691 -737 807 0
-649 -691 -738 807 0
-649 -691 -739 807 0
-649 -691 -740 807 0
-649 -691 -741 807 0
-649 -691 -742 807 0
-649 -691 -743 807 0
-649 -691 -744 807 0
-649 -691 -745 807 0
-649 -691 -746 807 0
-649 -691 -747 807 0
-649 -691 -748 807 0
-649 -691 -749 807 0
-649 -691 -750 807 0
-649 -691 -751 807 0
-649 -691 -752 807 0
-649 -691 -753 807 0
-649 -691 -754 807 0
-649 -691 -755 807 0
-649 -692 -730 807 0
-649 -692 -731 807 0
-649 -692 -732 807 0
-649 -692 -733 807 0
-649 -692 -734 807 0
-649 -692 -735 807 0
-649 -692 -736 807 0
-649 -692 -737 807 0
-649 -692 -738 807 0
-649 -692 -739 807 0
-649 -692 -740 807 0
-649 -692 -741 807 0
-649 -692 -742 807 0
-649 -692 -743 807 0
-649 -692 -744 807 0
-649 -692 -745 807 0
-649 -692 -746 807 0
-649 -692 -747 807 0
-649 -692 -748 807 0
-649 -692 -749 807 0
-649 -692 -750 807 0
-649 -692 -751 807 0
-649 -692 -752 807 0
-649 -692 -753 807 0
-649 -692 -754 807 0
-649 -692 -755 807 0
-649 -693 -730 807 0
-649 -693 -731 807 0
-649 -693 -732 807 0
-649 -693 -733 807 0
-649 -693 -734 807 0
-649 -693 -735 807 0
-649 -693 -736 807 0
-649 -693 -737 807 0
-649 -693 -738 807 0
-649 -693 -739 807 0
-649 -693 -740 807 0
-649 -693 -741 807 0
-649 -693 -742 807 0
-649 -693 -743 807 0
-649 -693 -744 807 0
-649 -693 -745 807 0
-649 -693 -746 807 0
-649 -693 -747 807 0
-649 -693 -748 807 0
-649 -693 -749 807 0
-649 -693 -750 807 0
-649 -693 -751 807 0
-649 -693 -752 807 0
-649 -693 -753 807 0
-649 -693 -754 807 0
-649 -693 -755 807 0
-649 -694 -730 807 0
-649 -694 -731 807 0
-649 -694 -732 807 0
-649 -694 -733 807 0
-649 -694 -734 807 0
-649 -694 -735 807 0
-649 -694 -736 807 0
-649 -694 -737 807 0
-649 -694 -738 807 0
-649 -694 -739 807 0
-649 -694 -740 807 0
-649 -694 -741 807 0
-649 -694 -742 807 0
-649 -694 -743 807 0
-649 -694 -744 807 0
-649 -694 -745 807 0
-649 -694 -746 807 0
-649 -694 -747 807 0
-649 -694 -748 807 0
-649 -694 -749 807 0
-649 -694 -750 807 0
-649 -694 -751 807 0
-649 -694 -752 807 0
-649 -694 -753 807 0
-649 -694 -754 807 0
-649 -694 -755 807 0
-649 -695 -730 807 0
-649 -695 -731 807 0
-649 -695 -732 807 0
-649 -695 -733 807 0
-649 -695 -734 807 0
-649 -695 -735 807 0
-649 -695 -736 807 0
-649 -695 -737 807 0
-649 -695 -738 807 0
-649 -695 -739 807 0
-649 -695 -740 807 0
-649 -695 -741 807 0
-649 -695 -742 807 0
-649 -695 -743 807 0
-649 -695 -744 807 0
-649 -695 -745 807 0
-649 -695 -746 807 0
-649 -695 -747 807 0
-649 -695 -748 807 0
-649 -695 -749 807 0
-649 -695 -750 807 0
-649 -695 -751 807 0
-649 -695 -752 807 0
-649 -695 -753 807 0
-649 -695 -754 807 0
-649 -695 -755 807 0
-649 -696 -730 807 0
-649 -696 -731 807 0
-649 -696 -732 807 0
-649 -696 -733 807 0
-649 -696 -734 807 0
-649 -696 -735 807 0
-649 -696 -736 807 0
-649 -696 -737 807 0
-649 -696 -738 807 0
-649 -696 -739 807 0
-649 -696 -740 807 0
-649 -696 -741 807 0
-649 -696 -742 807 0
-649 -696 -743 807 0
-649 -696 -744 807 0
-649 -696 -745 807 0
-649 -696 -746 807 0
-649 -696 -747 807 0
-649 -696 -748 807 0
-649 -696 -749 807 0
-649 -696 -750 807 0
-649 -696 -751 807 0
-649 -696 -752 807 0
-649 -696 -753 807 0
-649 -696 -754 807 0
-649 -696 -755 807 0
-649 -697 -730 807 0
-649 -697 -731 807 0
-649 -697 -732 807 0
-649 -697 -733 807 0
-649 -697 -734 807 0
-649 -697 -735 807 0
-649 -697 -736 807 0
-649 -697 -737 807 0
-649 -697 -738 807 0
-649 -697 -739 807 0
-649 -697 -740 807 0
-649 -697 -741 807 0
-649 -697 -742 807 0
-649 -697 -743 807 0
-649 -697 -744 807 0
-649 -697 -745 807 0
-649 -697 -746 807 0
-649 -697 -747 807 0
-649 -697 -748 807 0
-649 -697 -749 807 0
-649 -697 -750 807 0
-649 -697 -751 807 0
-649 -697 -752 807 0
-649 -697 -753 807 0
-649 -697 -754 807 0
-649 -697 -755 807 0
-649 -698 -730 807 0
-649 -698 -731 807 0
-649 -698 -732 807 0
-649 -698 -733 807 0
-649 -698 -734 807 0
-649 -698 -735 807 0
-649 -698 -736 807 0
-649 -698 -737 807 0
-649 -698 -738 807 0
-649 -698 -739 807 0
-649 -698 -740 807 0
-649 -698 -741 807 0
-649 -698 -742 807 0
-649 -698 -743 807 0
-649 -698 -744 807 0
-649 -698 -745 807 0
-649 -698 -746 807 0
-649 -698 -747 807 0
-649 -698 -748 807 0
-649 -698 -749 807 0
-649 -698 -750 807 0
-649 -698 -751 807 0
-649 -698 -752 807 0
-649 -698 -753 807 0
-649 -698 -754 807 0
-649 -698 -755 807 0
-649 -699 -730 807 0
-649 -699 -731 807 0
-649 -699 -732 807 0
-649 -699 -733 807 0
-649 -699 -734 807 0
-649 -699 -735 807 0
-649 -699 -736 807 0
-649 -699 -737 807 0
-649 -699 -738 807 0
-649 -699 -739 807 0
-649 -699 -740 807 0
-649 -699 -741 807 0
-649 -699 -742 807 0
-649 -699 -743 807 0
-649 -699 -744 807 0
-649 -699 -745 807 0
-649 -699 -746 807 0
-649 -699 -747 807 0
-649 -699 -748 807 0
-649 -699 -749 807 0
-649 -699 -750 807 0
-649 -699 -751 807 0
-649 -699 -752 807 0
-649 -699 -753 807 0
-649 -699 -754 807 0
-649 -699 -755 807 0
-649 -700 -730 807 0
-649 -700 -731 807 0
-649 -700 -732 807 0
-649 -700 -733 807 0
-649 -700 -734 807 0
-649 -700 -735 807 0
-649 -700 -736 807 0
-649 -700 -737 807 0
-649 -700 -738 807 0
-649 -700 -739 807 0
-649 -700 -740 807 0
-649 -700 -741 807 0
-649 -700 -742 807 0
-649 -700 -743 807 0
-649 -700 -744 807 0
-649 -700 -745 807 0
-649 -700 -746 807 0
-649 -700 -747 807 0
-649 -700 -748 807 0
-649 -700 -749 807 0
-649 -700 -750 807 0
-649 -700 -751 807 0
-649 -700 -752 807 0
-649 -700 -753 807 0
-649 -700 -754 807 0
-649 -700 -755 807 0
-649 -701 -730 807 0
-649 -701 -731 807 0
-649 -701 -732 807 0
-649 -701 -733 807 0
-649 -701 -734 807 0
-649 -701 -735 807 0
-649 -701 -736 807 0
-649 -701 -737 807 0
-649 -701 -738 807 0
-649 -701 -739 807 0
-649 -701 -740 807 0
-649 -701 -741 807 0
-649 -701 -742 807 0
-649 -701 -743 807 0
-649 -701 -744 807 0
-649 -701 -745 807 0
-649 -701 -746 807 0
-649 -701 -747 807 0
-649 -701 -748 807 0
-649 -701 -749 807 0
-649 -701 -750 807 0
-649 -701 -751 807 0
-649 -701 -752 807 0
-649 -701 -753 807 0
-649 -701 -754 807 0
-649 -701 -755 807 0
-649 -702 -730 807 0
-649 -702 -731 807 0
-649 -702 -732 807 0
-649 -702 -733 807 0
-649 -702 -734 807 0
-649 -702 -735 807 0
-649 -702 -736 807 0
-649 -702 -737 807 0
-649 -702 -738 807 0
-649 -702 -739 807 0
-649 -702 -740 807 0
-649 -702 -741 807 0
-649 -702 -742 807 0
-649 -702 -743 807 0
-649 -702 -744 807 0
-649 -702 -745 807 0
-649 -702 -746 807 0
-649 -702 -747 807 0
-649 -702 -748 807 0
-649 -702 -749 807 0
-649 -702 -750 807 0
-649 -702 -751 807 0
-649 -702 -752 807 0
-649 -702 -753 807 0
-649 -702 -754 807 0
-649 -702 -755 807 0
-649 -703 -730 807 0
-649 -703 -731 807 0
-649 -703 -732 807 0
-649 -703 -733 807 0
-649 -703 -734 807 0
-649 -703 -735 807 0
-649 -703 -736 807 0
-649 -703 -737 807 0
-649 -703 -738 807 0
-649 -703 -739 807 0
-649 -703 -740 807 0
-649 -703 -741 807 0
-649 -703 -742 807 0
-649 -703 -743 807 0
-649 -703 -744 807 0
-649 -703 -745 807 0
-649 -703 -746 807 0
-649 -703 -747 807 0
-649 -703 -748 807 0
-649 -703 -749 807 0
-649 -703 -750 807 0
-649 -703 -751 807 0
-649 -703 -752 807 0
-649 -703 -753 807 0
-649 -703 -754 807 0
-649 -703 -755 807 0
-650 -678 -730 807 0
-650 -678 -731 807 0
-650 -678 -732 807 0
-650 -678 -733 807 0
-650 -678 -734 807 0
-650 -678 -735 807 0
-650 -678 -736 807 0
-650 -678 -737 807 0
-650 -678 -738 807 0
-650 -678 -739 807 0
-650 -678 -740 807 0
-650 -678 -741 807 0
-650 -678 -742 807 0
-650 -678 -743 807 0
-650 -678 -744 807 0
-650 -678 -745 807 0
-650 -678 -746 807 0
-650 -678 -747 807 0
-650 -678 -748 807 0
-650 -678 -749 807 0
-650 -678 -750 807 0
-650 -678 -751 807 0
-650 -678 -752 807 0
-650 -678 -753 807 0
-650 -678 -754 807 0
-650 -678 -755 807 0
-650 -679 -730 807 0
-650 -679 -731 807 0
-650 -679 -732 807 0
-650 -679 -733 807 0
-650 -679 -734 807 0
-650 -679 -735 807 0
-650 -679 -736 807 0
-650 -679 -737 807 0
-650 -679 -738 807 0
-650 -679 -739 807 0
-650 -679 -740 807 0
-650 -679 -741 807 0
-650 -679 -742 807 0
-650 -679 -743 807 0
-650 -679 -744 807 0
-650 -679 -745 807 0
-650 -679 -746 807 0
-650 -679 -747 807 0
-650 -679 -748 807 0
-650 -679 -749 807 0
-650 -679 -750 807 0
-650 -679 -751 807 0
-650 -679 -752 807 0
-650 -679 -753 807 0
-650 -679 -754 807 0
-650 -679 -755 807 0
-650 -680 -730 807 0
-650 -680 -731 807 0
-650 -680 -732 807 0
-650 -680 -733 807 0
-650 -680 -734 807 0
-650 -680 -735 807 0
-650 -680 -736 807 0
-650 -680 -737 807 0
-650 -680 -738 807 0
-650 -680 -739 807 0
-650 -680 -740 807 0
-650 -680 -741 807 0
-650 -680 -742 807 0
-650 -680 -743 807 0
-650 -680 -744 807 0
-650 -680 -745 807 0
-650 -680 -746 807 0
-650 -680 -747 807 0
-650 -680 -748 807 0
-650 -680 -749 807 0
-650 -680 -750 807 0
-650 -680 -751 807 0
-650 -680 -752 807 0
-650 -680 -753 807 0
-650 -680 -754 807 0
-650 -680 -755 807 0
-650 -681 -730 807 0
-650 -681 -731 807 0
-650 -681 -732 807 0
-650 -681 -733 807 0
-650 -681 -734 807 0
-650 -681 -735 807 0
-650 -681 -736 807 0
-650 -681 -737 807 0
-650 -681 -738 807 0
-650 -681 -739 807 0
-650 -681 -740 807 0
-650 -681 -741 807 0
-650 -681 -742 807 0
-650 -681 -743 807 0
-650 -681 -744 807 0
-650 -681 -745 807 0
-650 -681 -746 807 0
-650 -681 -747 807 0
-650 -681 -748 807 0
-650 -681 -749 807 0
-650 -681 -750 807 0
-650 -681 -751 807 0
-650 -681 -752 807 0
-650 -681 -753 807 0
-650 -681 -754 807 0
-650 -681 -755 807 0
-650 -682 -730 807 0
-650 -682 -731 807 0
-650 -682 -732 807 0
-650 -682 -733 807 0
-650 -682 -734 807 0
-650 -682 -735 807 0
-650 -682 -736 807 0
-650 -682 -737 807 0
-650 -682 -738 807 0
-650 -682 -739 807 0
-650 -682 -740 807 0
-650 -682 -741 807 0
-650 -682 -742 807 0
-650 -682 -743 807 0
-650 -682 -744 807 0
-650 -682 -745 807 0
-650 -682 -746 807 0
-650 -682 -747 807 0
-650 -682 -748 807 0
-650 -682 -749 807 0
-650 -682 -750 807 0
-650 -682 -751 807 0
-650 -682 -752 807 0
-650 -682 -753 807 0
-650 -682 -754 807 0
-650 -682 -755 807 0
-650 -683 -730 807 0
-650 -683 -731 807 0
-650 -683 -732 807 0
-650 -683 -733 807 0
-650 -683 -734 807 0
-650 -683 -735 807 0
-650 -683 -736 807 0
-650 -683 -737 807 0
-650 -683 -738 807 0
-650 -683 -739 807 0
-650 -683 -740 807 0
-650 -683 -741 807 0
-650 -683 -742 807 0
-650 -683 -743 807 0
-650 -683 -744 807 0
-650 -683 -745 807 0
-650 -683 -746 807 0
-650 -683 -747 807 0
-650 -683 -748 807 0
-650 -683 -749 807 0
-650 -683 -750 807 0
-650 -683 -751 807 0
-650 -683 -752 807 0
-650 -683 -753 807 0
-650 -683 -754 807 0
-650 -683 -755 807 0
-650 -684 -730 807 0
-650 -684 -731 807 0
-650 -684 -732 807 0
-650 -684 -733 807 0
-650 -684 -734 807 0
-650 -684 -735 807 0
-650 -684 -736 807 0
-650 -684 -737 807 0
-650 -684 -738 807 0
-650 -684 -739 807 0
-650 -684 -740 807 0
-650 -684 -741 807 0
-650 -684 -742 807 0
-650 -684 -743 807 0
-650 -684 -744 807 0
-650 -684 -745 807 0
-650 -684 -746 807 0
-650 -684 -747 807 0
-650 -684 -748 807 0
-650 -684 -749 807 0
-650 -684 -750 807 0
-650 -684 -751 807 0
-650 -684 -752 807 0
-650 -684 -753 807 0
-650 -684 -754 807 0
-650 -684 -755 807 0
-650 -685 -730 807 0
-650 -685 -731 807 0
-650 -685 -732 807 0
-650 -685 -733 807 0
-650 -685 -734 807 0
-650 -685 -735 807 0
-650 -685 -736 807 0
-650 -685 -737 807 0
-650 -685 -738 807 0
-650 -685 -739 807 0
-650 -685 -740 807 0
-650 -685 -741 807 0
-650 -685 -742 807 0
-650 -685 -743 807 0
-650 -685 -744 807 0
-650 -685 -745 807 0
-650 -685 -746 807 0
-650 -685 -747 807 0
-650 -685 -748 807 0
-650 -685 -749 807 0
-650 -685 -750 807 0
-650 -685 -751 807 0
-650 -685 -752 807 0
-650 -685 -753 807 0
-650 -685 -754 807 0
-650 -685 -755 807 0
-650 -686 -730 807 0
-650 -686 -731 807 0
-650 -686 -732 807 0
-650 -686 -733 807 0
-650 -686 -734 807 0
-650 -686 -735 807 0
-650 -686 -736 807 0
-650 -686 -737 807 0
-650 -686 -738 807 0
-650 -686 -739 807 0
-650 -686 -740 807 0
-650 -686 -741 807 0
-650 -686 -742 807 0
-650 -686 -743 807 0
-650 -686 -744 807 0
-650 -686 -745 807 0
-650 -686 -746 807 0
-650 -686 -747 807 0
-650 -686 -748 807 0
-650 -686 -749 807 0
-650 -686 -750 807 0
-650 -686 -751 807 0
-650 -686 -752 807 0
-650 -686 -753 807 0
-650 -686 -754 807 0
-650 -686 -755 807 0
-650 -687 -730 807 0
-650 -687 -731 807 0
-650 -687 -732 807 0
-650 -687 -733 807 0
-650 -687 -734 807 0
-650 -687 -735 807 0
-650 -687 -736 807 0
-650 -687 -737 807 0
-650 -687 -738 807 0
-650 -687 -739 807 0
-650 -687 -740 807 0
-650 -687 -741 807 0
-650 -687 -742 807 0
-650 -687 -743 807 0
-650 -687 -744 807 0
-650 -687 -745 807 0
-650 -687 -746 807 0
-650 -687 -747 807 0
-650 -687 -748 807 0
-650 -687 -749 807 0
-650 -687 -750 807 0
-650 -687 -751 807 0
-650 -687 -752 807 0
-650 -687 -753 807 0
-650 -687 -754 807 0
-650 -687 -755 807 0
-650 -688 -730 807 0
-650 -688 -731 807 0
-650 -688 -732 807 0
-650 -688 -733 807 0
-650 -688 -734 807 0
-650 -688 -735 807 0
-650 -688 -736 807 0
-650 -688 -737 807 0
-650 -688 -738 807 0
-650 -688 -739 807 0
-650 -688 -740 807 0
-650 -688 -741 807 0
-650 -688 -742 807 0
-650 -688 -743 807 0
-650 -688 -744 807 0
-650 -688 -745 807 0
-650 -688 -746 807 0
-650 -688 -747 807 0
-650 -688 -748 807 0
-650 -688 -749 807 0
-650 -688 -750 807 0
-650 -688 -751 807 0
-650 -688 -752 807 0
-650 -688 -753 807 0
-650 -688 -754 807 0
-650 -688 -755 807 0
-650 -689 -730 807 0
-650 -689 -731 807 0
-650 -689 -732 807 0
-650 -689 -733 807 0
-650 -689 -734 807 0
-650 -689 -735 807 0
-650 -689 -736 807 0
-650 -689 -737 807 0
-650 -689 -738 807 0
-650 -689 -739 807 0
-650 -689 -740 807 0
-650 -689 -741 807 0
-650 -689 -742 807 0
-650 -689 -743 807 0
-650 -689 -744 807 0
-650 -689 -745 807 0
-650 -689 -746 807 0
-650 -689 -747 807 0
-650 -689 -748 807 0
-650 -689 -749 807 0
-650 -689 -750 807 0
-650 -689 -751 807 0
-650 -689 -752 807 0
-650 -689 -753 807 0
-650 -689 -754 807 0
-650 -689 -755 807 0
-650 -690 -730 807 0
-650 -690 -731 807 0
-650 -690 -732 807 0
-650 -690 -733 807 0
-650 -690 -734 807 0
-650 -690 -735 807 0
-650 -690 -736 807 0
-650 -690 -737 807 0
-650 -690 -738 807 0
-650 -690 -739 807 0
-650 -690 -740 807 0
-650 -690 -741 807 0
-650 -690 -742 807 0
-650 -690 -743 807 0
-650 -690 -744 807 0
-650 -690 -745 807 0
-650 -690 -746 807 0
-650 -690 -747 807 0
-650 -690 -748 807 0
-650 -690 -749 807 0
-650 -690 -750 807 0
-650 -690 -751 807 0
-650 -690 -752 807 0
-650 -690 -753 807 0
-650 -690 -754 807 0
-650 -690 -755 807 0
-650 -691 -730 807 0
-650 -691 -731 807 0
-650 -691 -732 807 0
-650 -691 -733 807 0
-650 -691 -734 807 0
-650 -691 -735 807 0
-650 -691 -736 807 0
-650 -691 -737 807 0
-650 -691 -738 807 0
-650 -691 -739 807 0
-650 -691 -740 807 0
-650 -691 -741 807 0
-650 -691 -742 807 0
-650 -691 -743 807 0
-650 -691 -744 807 0
-650 -691 -745 807 0
-650 -691 -746 807 0
-650 -691 -747 807 0
-650 -691 -748 807 0
-650 -691 -749 807 0
-650 -691 -750 807 0
-650 -691 -751 807 0
-650 -691 -752 807 0
-650 -691 -753 807 0
-650 -691 -754 807 0
-650 -691 -755 807 0
-650 -692 -730 807 0
-650 -692 -731 807 0
-650 -692 -732 807 0
-650 -692 -733 807 0
-650 -692 -734 807 0
-650 -692 -735 807 0
-650 -692 -736 807 0
-650 -692 -737 807 0
-650 -692 -738 807 0
-650 -692 -739 807 0
-650 -692 -740 807 0
-650 -692 -741 807 0
-650 -692 -742 807 0
-650 -692 -743 807 0
-650 -692 -744 807 0
-650 -692 -745 807 0
-650 -692 -746 807 0
-650 -692 -747 807 0
-650 -692 -748 807 0
-650 -692 -749 807 0
-650 -692 -750 807 0
-650 -692 -751 807 0
-650 -692 -752 807 0
-650 -692 -753 807 0
-650 -692 -754 807 0
-650 -692 -755 807 0
-650 -693 -730 807 0
-650 -693 -731 807 0
-650 -693 -732 807 0
-650 -693 -733 807 0
-650 -693 -734 807 0
-650 -693 -735 807 0
-650 -693 -736 807 0
-650 -693 -737 807 0
-650 -693 -738 807 0
-650 -693 -739 807 0
-650 -693 -740 807 0
-650 -693 -741 807 0
-650 -693 -742 807 0
-650 -693 -743 807 0
-650 -693 -744 807 0
-650 -693 -745 807 0
-650 -693 -746 807 0
-650 -693 -747 807 0
-650 -693 -748 807 0
-650 -693 -749 807 0
-650 -693 -750 807 0
-650 -693 -751 807 0
-650 -693 -752 807 0
-650 -693 -753 807 0
-650 -693 -754 807 0
-650 -693 -755 807 0
-650 -694 -730 807 0
-650 -694 -731 807 0
-650 -694 -732 807 0
-650 -694 -733 807 0
-650 -694 -734 807 0
-650 -694 -735 807 0
-650 -694 -736 807 0
-650 -694 -737 807 0
-650 -694 -738 807 0
-650 -694 -739 807 0
-650 -694 -740 807 0
-650 -694 -741 807 0
-650 -694 -742 807 0
-650 -694 -743 807 0
-650 -694 -744 807 0
-650 -694 -745 807 0
-650 -694 -746 807 0
-650 -694 -747 807 0
-650 -694 -748 807 0
-650 -694 -749 807 0
-650 -694 -750 807 0
-650 -694 -751 807 0
-650 -694 -752 807 0
-650 -694 -753 807 0
-650 -694 -754 807 0
-650 -694 -755 807 0
-650 -695 -730 807 0
-650 -695 -731 807 0
-650 -695 -732 807 0
-650 -695 -733 807 0
-650 -695 -734 807 0
-650 -695 -735 807 0
-650 -695 -736 807 0
-650 -695 -737 807 0
-650 -695 -738 807 0
-650 -695 -739 807 0
-650 -695 -740 807 0
-650 -695 -741 807 0
-650 -695 -742 807 0
-650 -695 -743 807 0
-650 -695 -744 807 0
-650 -695 -745 807 0
-650 -695 -746 807 0
-650 -695 -747 807 0
-650 -695 -748 807 0
-650 -695 -749 807 0
-650 -695 -750 807 0
-650 -695 -751 807 0
-650 -695 -752 807 0
-650 -695 -753 807 0
-650 -695 -754 807 0
-650 -695 -755 807 0
-650 -696 -730 807 0
-650 -696 -731 807 0
-650 -696 -732 807 0
-650 -696 -733 807 0
-650 -696 -734 807 0
-650 -696 -735 807 0
-650 -696 -736 807 0
-650 -696 -737 807 0
-650 -696 -738 807 0
-650 -696 -739 807 0
-650 -696 -740 807 0
-650 -696 -741 807 0
-650 -696 -742 807 0
-650 -696 -743 807 0
-650 -696 -744 807 0
-650 -696 -745 807 0
-650 -696 -746 807 0
-650 -696 -747 807 0
-650 -696 -748 807 0
-650 -696 -749 807 0
-650 -696 -750 807 0
-650 -696 -751 807 0
-650 -696 -752 807 0
-650 -696 -753 807 0
-650 -696 -754 807 0
-650 -696 -755 807 0
-650 -697 -730 807 0
-650 -697 -731 807 0
-650 -697 -732 807 0
-650 -697 -733 807 0
-650 -697 -734 807 0
-650 -697 -735 807 0
-650 -697 -736 807 0
-650 -697 -737 807 0
-650 -697 -738 807 0
-650 -697 -739 807 0
-650 -697 -740 807 0
-650 -697 -741 807 0
-650 -697 -742 807 0
-650 -697 -743 807 0
-650 -697 -744 807 0
-650 -697 -745 807 0
-650 -697 -746 807 0
-650 -697 -747 807 0
-650 -697 -748 807 0
-650 -697 -749 807 0
-650 -697 -750 807 0
-650 -697 -751 807 0
-650 -697 -752 807 0
-650 -697 -753 807 0
-650 -697 -754 807 0
-650 -697 -755 807 0
-650 -698 -730 807 0
-650 -698 -731 807 0
-650 -698 -732 807 0
-650 -698 -733 807 0
-650 -698 -734 807 0
-650 -698 -735 807 0
-650 -698 -736 807 0
-650 -698 -737 807 0
-650 -698 -738 807 0
-650 -698 -739 807 0
-650 -698 -740 807 0
-650 -698 -741 807 0
-650 -698 -742 807 0
-650 -698 -743 807 0
-650 -698 -744 807 0
-650 -698 -745 807 0
-650 -698 -746 807 0
-650 -698 -747 807 0
-650 -698 -748 807 0
-650 -698 -749 807 0
-650 -698 -750 807 0
-650 -698 -751 807 0
-650 -698 -752 807 0
-650 -698 -753 807 0
-650 -698 -754 807 0
-650 -698 -755 807 0
-650 -699 -730 807 0
-650 -699 -731 807 0
-650 -699 -732 807 0
-650 -699 -733 807 0
-650 -699 -734 807 0
-650 -699 -735 807 0
-650 -699 -736 807 0
-650 -699 -737 807 0
-650 -699 -738 807 0
-650 -699 -739 807 0
-650 -699 -740 807 0
-650 -699 -741 807 0
-650 -699 -742 807 0
-650 -699 -743 807 0
-650 -699 -744 807 0
-650 -699 -745 807 0
-650 -699 -746 807 0
-650 -699 -747 807 0
-650 -699 -748 807 0
-650 -699 -749 807 0
-650 -699 -750 807 0
-650 -699 -751 807 0
-650 -699 -752 807 0
-650 -699 -753 807 0
-650 -699 -754 807 0
-650 -699 -755 807 0
-650 -700 -730 807 0
-650 -700 -731 807 0
-650 -700 -732 807 0
-650 -700 -733 807 0
-650 -700 -734 807 0
-650 -700 -735 807 0
-650 -700 -736 807 0
-650 -700 -737 807 0
-650 -700 -738 807 0
-650 -700 -739 807 0
-650 -700 -740 807 0
-650 -700 -741 807 0
-650 -700 -742 807 0
-650 -700 -743 807 0
-650 -700 -744 807 0
-650 -700 -745 807 0
-650 -700 -746 807 0
-650 -700 -747 807 0
-650 -700 -748 807 0
-650 -700 -749 807 0
-650 -700 -750 807 0
-650 -700 -751 807 0
-650 -700 -752 807 0
-650 -700 -753 807 0
-650 -700 -754 807 0
-650 -700 -755 807 0
-650 -701 -730 807 0
-650 -701 -731 807 0
-650 -701 -732 807 0
-650 -701 -733 807 0
-650 -701 -734 807 0
-650 -701 -735 807 0
-650 -701 -736 807 0
-650 -701 -737 807 0
-650 -701 -738 807 0
-650 -701 -739 807 0
-650 -701 -740 807 0
-650 -701 -741 807 0
-650 -701 -742 807 0
-650 -701 -743 807 0
-650 -701 -744 807 0
-650 -701 -745 807 0
-650 -701 -746 807 0
-650 -701 -747 807 0
-650 -701 -748 807 0
-650 -701 -749 807 0
-650 -701 -750 807 0
-650 -701 -751 807 0
-650 -701 -752 807 0
-650 -701 -753 807 0
-650 -701 -754 807 0
-650 -701 -755 807 0
-650 -702 -730 807 0
-650 -702 -731 807 0
-650 -702 -732 807 0
-650 -702 -733 807 0
-650 -702 -734 807 0
-650 -702 -735 807 0
-650 -702 -736 807 0
-650 -702 -737 807 0
-650 -702 -738 807 0
-650 -702 -739 807 0
-650 -702 -740 807 0
-650 -702 -741 807 0
-650 -702 -742 807 0
-650 -702 -743 807 0
-650 -702 -744 807 0
-650 -702 -745 807 0
-650 -702 -746 807 0
-650 -702 -747 807 0
-650 -702 -748 807 0
-650 -702 -749 807 0
-650 -702 -750 807 0
-650 -702 -751 807 0
-650 -702 -752 807 0
-650 -702 -753 807 0
-650 -702 -754 807 0
-650 -702 -755 807 0
-650 -703 -730 807 0
-650 -703 -731 807 0
-650 -703 -732 807 0
-650 -703 -733 807 0
-650 -703 -734 807 0
-650 -703 -735 807 0
-650 -703 -736 807 0
-650 -703 -737 807 0
-650 -703 -738 807 0
-650 -703 -739 807 0
-650 -703 -740 807 0
-650 -703 -741 807 0
-650 -703 -742 807 0
-650 -703 -743 807 0
-650 -703 -744 807 0
-650 -703 -745 807 0
-650 -703 -746 807 0
-650 -703 -747 807 0
-650 -703 -748 807 0
-650 -703 -749 807 0
-650 -703 -750 807 0
-650 -703 -751 807 0
-650 -703 -752 807 0
-650 -703 -753 807 0
-650 -703 -754 807 0
-650 -703 -755 807 0
-651 -678 -730 807 0
-651 -678 -731 807 0
-651 -678 -732 807 0
-651 -678 -733 807 0
-651 -678 -734 807 0
-651 -678 -735 807 0
-651 -678 -736 807 0
-651 -678 -737 807 0
-651 -678 -738 807 0
-651 -678 -739 807 0
-651 -678 -740 807 0
-651 -678 -741 807 0
-651 -678 -742 807 0
-651 -678 -743 807 0
-651 -678 -744 807 0
-651 -678 -745 807 0
-651 -678 -746 807 0
-651 -678 -747 807 0
-651 -678 -748 807 0
-651 -678 -749 807 0
-651 -678 -750 807 0
-651 -678 -751 807 0
-651 -678 -752 807 0
-651 -678 -753 807 0
-651 -678 -754 807 0
-651 -678 -755 807 0
-651 -679 -730 807 0
-651 -679 -731 807 0
-651 -679 -732 807 0
-651 -679 -733 807 0
-651 -679 -734 807 0
-651 -679 -735 807 0
-651 -679 -736 807 0
-651 -679 -737 807 0
-651 -679 -738 807 0
-651 -679 -739 807 0
-651 -679 -740 807 0
-651 -679 -741 807 0
-651 -679 -742 807 0
-651 -679 -743 807 0
-651 -679 -744 807 0
-651 -679 -745 807 0
-651 -679 -746 807 0
-651 -679 -747 807 0
-651 -679 -748 807 0
-651 -679 -749 807 0
-651 -679 -750 807 0
-651 -679 -751 807 0
-651 -679 -752 807 0
-651 -679 -753 807 0
-651 -679 -754 807 0
-651 -679 -755 807 0
-651 -680 -730 807 0
-651 -680 -731 807 0
-651 -680 -732 807 0
-651 -680 -733 807 0
-651 -680 -734 807 0
-651 -680 -735 807 0
-651 -680 -736 807 0
-651 -680 -737 807 0
-651 -680 -738 807 0
-651 -680 -739 807 0
-651 -680 -740 807 0
-651 -680 -741 807 0
-651 -680 -742 807 0
-651 -680 -743 807 0
-651 -680 -744 807 0
-651 -680 -745 807 0
-651 -680 -746 807 0
-651 -680 -747 807 0
-651 -680 -748 807 0
-651 -680 -749 807 0
-651 -680 -750 807 0
-651 -680 -751 807 0
-651 -680 -752 807 0
-651 -680 -753 807 0
-651 -680 -754 807 0
-651 -680 -755 807 0
-651 -681 -730 807 0
-651 -681 -731 807 0
-651 -681 -732 807 0
-651 -681 -733 807 0
-651 -681 -734 807 0
-651 -681 -735 807 0
-651 -681 -736 807 0
-651 -681 -737 807 0
-651 -681 -738 807 0
-651 -681 -739 807 0
-651 -681 -740 807 0
-651 -681 -741 807 0
-651 -681 -742 807 0
-651 -681 -743 807 0
-651 -681 -744 807 0
-651 -681 -745 807 0
-651 -681 -746 807 0
-651 -681 -747 807 0
-651 -681 -748 807 0
-651 -681 -749 807 0
-651 -681 -750 807 0
-651 -681 -751 807 0
-651 -681 -752 807 0
-651 -681 -753 807 0
-651 -681 -754 807 0
-651 -681 -755 807 0
-651 -682 -730 807 0
-651 -682 -731 807 0
-651 -682 -732 807 0
-651 -682 -733 807 0
-651 -682 -734 807 0
-651 -682 -735 807 0
-651 -682 -736 807 0
-651 -682 -737 807 0
-651 -682 -738 807 0
-651 -682 -739 807 0
-651 -682 -740 807 0
-651 -682 -741 807 0
-651 -682 -742 807 0
-651 -682 -743 807 0
-651 -682 -744 807 0
-651 -682 -745 807 0
-651 -682 -746 807 0
-651 -682 -747 807 0
-651 -682 -748 807 0
-651 -682 -749 807 0
-651 -682 -750 807 0
-651 -682 -751 807 0
-651 -682 -752 807 0
-651 -682 -753 807 0
-651 -682 -754 807 0
-651 -682 -755 807 0
-651 -683 -730 807 0
-651 -683 -731 807 0
-651 -683 -732 807 0
-651 -683 -733 807 0
-651 -683 -734 807 0
-651 -683 -735 807 0
-651 -683 -736 807 0
-651 -683 -737 807 0
-651 -683 -738 807 0
-651 -683 -739 807 0
-651 -683 -740 807 0
-651 -683 -741 807 0
-651 -683 -742 807 0
-651 -683 -743 807 0
-651 -683 -744 807 0
-651 -683 -745 807 0
-651 -683 -746 807 0
-651 -683 -747 807 0
-651 -683 -748 807 0
-651 -683 -749 807 0
-651 -683 -750 807 0
-651 -683 -751 807 0
-651 -683 -752 807 0
-651 -683 -753 807 0
-651 -683 -754 807 0
-651 -683 -755 807 0
-651 -684 -730 807 0
-651 -684 -731 807 0
-651 -684 -732 807 0
-651 -684 -733 807 0
-651 -684 -734 807 0
-651 -684 -735 807 0
-651 -684 -736 807 0
-651 -684 -737 807 0
-651 -684 -738 807 0
-651 -684 -739 807 0
-651 -684 -740 807 0
-651 -684 -741 807 0
-651 -684 -742 807 0
-651 -684 -743 807 0
-651 -684 -744 807 0
-651 -684 -745 807 0
-651 -684 -746 807 0
-651 -684 -747 807 0
-651 -684 -748 807 0
-651 -684 -749 807 0
-651 -684 -750 807 0
-651 -684 -751 807 0
-651 -684 -752 807 0
-651 -684 -753 807 0
-651 -684 -754 807 0
-651 -684 -755 807 0
-651 -685 -730 807 0
-651 -685 -731 807 0
-651 -685 -732 807 0
-651 -685 -733 807 0
-651 -685 -734 807 0
-651 -685 -735 807 0
-651 -685 -736 807 0
-651 -685 -737 807 0
-651 -685 -738 807 0
-651 -685 -739 807 0
-651 -685 -740 807 0
-651 -685 -741 807 0
-651 -685 -742 807 0
-651 -685 -743 807 0
-651 -685 -744 807 0
-651 -685 -745 807 0
-651 -685 -746 807 0
-651 -685 -747 807 0
-651 -685 -748 807 0
-651 -685 -749 807 0
-651 -685 -750 807 0
-651 -685 -751 807 0
-651 -685 -752 807 0
-651 -685 -753 807 0
-651 -685 -754 807 0
-651 -685 -755 807 0
-651 -686 -730 807 0
-651 -686 -731 807 0
-651 -686 -732 807 0
-651 -686 -733 807 0
-651 -686 -734 807 0
-651 -686 -735 807 0
-651 -686 -736 807 0
-651 -686 -737 807 0
-651 -686 -738 807 0
-651 -686 -739 807 0
-651 -686 -740 807 0
-651 -686 -741 807 0
-651 -686 -742 807 0
-651 -686 -743 807 0
-651 -686 -744 807 0
-651 -686 -745 807 0
-651 -686 -746 807 0
-651 -686 -747 807 0
-651 -686 -748 807 0
-651 -686 -749 807 0
-651 -686 -750 807 0
-651 -686 -751 807 0
-651 -686 -752 807 0
-651 -686 -753 807 0
-651 -686 -754 807 0
-651 -686 -755 807 0
-651 -687 -730 807 0
-651 -687 -731 807 0
-651 -687 -732 807 0
-651 -687 -733 807 0
-651 -687 -734 807 0
-651 -687 -735 807 0
-651 -687 -736 807 0
-651 -687 -737 807 0
-651 -687 -738 807 0
-651 -687 -739 807 0
-651 -687 -740 807 0
-651 -687 -741 807 0
-651 -687 -742 807 0
-651 -687 -743 807 0
-651 -687 -744 807 0
-651 -687 -745 807 0
-651 -687 -746 807 0
-651 -687 -747 807 0
-651 -687 -748 807 0
-651 -687 -749 807 0
-651 -687 -750 807 0
-651 -687 -751 807 0
-651 -687 -752 807 0
-651 -687 -753 807 0
-651 -687 -754 807 0
-651 -687 -755 807 0
-651 -688 -730 807 0
-651 -688 -731 807 0
-651 -688 -732 807 0
-651 -688 -733 807 0
-651 -688 -734 807 0
-651 -688 -735 807 0
-651 -688 -736 807 0
-651 -688 -737 807 0
-651 -688 -738 807 0
-651 -688 -739 807 0
-651 -688 -740 807 0
-651 -688 -741 807 0
-651 -688 -742 807 0
-651 -688 -743 807 0
-651 -688 -744 807 0
-651 -688 -745 807 0
-651 -688 -746 807 0
-651 -688 -747 807 0
-651 -688 -748 807 0
-651 -688 -749 807 0
-651 -688 -750 807 0
-651 -688 -751 807 0
-651 -688 -752 807 0
-651 -688 -753 807 0
-651 -688 -754 807 0
-651 -688 -755 807 0
-651 -689 -730 807 0
-651 -689 -731 807 0
-651 -689 -732 807 0
-651 -689 -733 807 0
-651 -689 -734 807 0
-651 -689 -735 807 0
-651 -689 -736 807 0
-651 -689 -737 807 0
-651 -689 -738 807 0
-651 -689 -739 807 0
-651 -689 -740 807 0
-651 -689 -741 807 0
-651 -689 -742 807 0
-651 -689 -743 807 0
-651 -689 -744 807 0
-651 -689 -745 807 0
-651 -689 -746 807 0
-651 -689 -747 807 0
-651 -689 -748 807 0
-651 -689 -749 807 0
-651 -689 -750 807 0
-651 -689 -751 807 0
-651 -689 -752 807 0
-651 -689 -753 807 0
-651 -689 -754 807 0
-651 -689 -755 807 0
-651 -690 -730 807 0
-651 -690 -731 807 0
-651 -690 -732 807 0
-651 -690 -733 807 0
-651 -690 -734 807 0
-651 -690 -735 807 0
-651 -690 -736 807 0
-651 -690 -737 807 0
-651 -690 -738 807 0
-651 -690 -739 807 0
-651 -690 -740 807 0
-651 -690 -741 807 0
-651 -690 -742 807 0
-651 -690 -743 807 0
-651 -690 -744 807 0
-651 -690 -745 807 0
-651 -690 -746 807 0
-651 -690 -747 807 0
-651 -690 -748 807 0
-651 -690 -749 807 0
-651 -690 -750 807 0
-651 -690 -751 807 0
-651 -690 -752 807 0
-651 -690 -753 807 0
-651 -690 -754 807 0
-651 -690 -755 807 0
-651 -691 -730 807 0
-651 -691 -731 807 0
-651 -691 -732 807 0
-651 -691 -733 807 0
-651 -691 -734 807 0
-651 -691 -735 807 0
-651 -691 -736 807 0
-651 -691 -737 807 0
-651 -691 -738 807 0
-651 -691 -739 807 0
-651 -691 -740 807 0
-651 -691 -741 807 0
-651 -691 -742 807 0
-651 -691 -743 807 0
-651 -691 -744 807 0
-651 -691 -745 807 0
-651 -691 -746 807 0
-651 -691 -747 807 0
-651 -691 -748 807 0
-651 -691 -749 807 0
-651 -691 -750 807 0
-651 -691 -751 807 0
-651 -691 -752 807 0
-651 -691 -753 807 0
-651 -691 -754 807 0
-651 -691 -755 807 0
-651 -692 -730 807 0
-651 -692 -731 807 0
-651 -692 -732 807 0
-651 -692 -733 807 0
-651 -692 -734 807 0
-651 -692 -735 807 0
-651 -692 -736 807 0
-651 -692 -737 807 0
-651 -692 -738 807 0
-651 -692 -739 807 0
-651 -692 -740 807 0
-651 -692 -741 807 0
-651 -692 -742 807 0
-651 -692 -743 807 0
-651 -692 -744 807 0
-651 -692 -745 807 0
-651 -692 -746 807 0
-651 -692 -747 807 0
-651 -692 -748 807 0
-651 -692 -749 807 0
-651 -692 -750 807 0
-651 -692 -751 807 0
-651 -692 -752 807 0
-651 -692 -753 807 0
-651 -692 -754 807 0
-651 -692 -755 807 0
-651 -693 -730 807 0
-651 -693 -731 807 0
-651 -693 -732 807 0
-651 -693 -733 807 0
-651 -693 -734 807 0
-651 -693 -735 807 0
-651 -693 -736 807 0
-651 -693 -737 807 0
-651 -693 -738 807 0
-651 -693 -739 807 0
-651 -693 -740 807 0
-651 -693 -741 807 0
-651 -693 -742 807 0
-651 -693 -743 807 0
-651 -693 -744 807 0
-651 -693 -745 807 0
-651 -693 -746 807 0
-651 -693 -747 807 0
-651 -693 -748 807 0
-651 -693 -749 807 0
-651 -693 -750 807 0
-651 -693 -751 807 0
-651 -693 -752 807 0
-651 -693 -753 807 0
-651 -693 -754 807 0
-651 -693 -755 807 0
-651 -694 -730 807 0
-651 -694 -731 807 0
-651 -694 -732 807 0
-651 -694 -733 807 0
-651 -694 -734 807 0
-651 -694 -735 807 0
-651 -694 -736 807 0
-651 -694 -737 807 0
-651 -694 -738 807 0
-651 -694 -739 807 0
-651 -694 -740 807 0
-651 -694 -741 807 0
-651 -694 -742 807 0
-651 -694 -743 807 0
-651 -694 -744 807 0
-651 -694 -745 807 0
-651 -694 -746 807 0
-651 -694 -747 807 0
-651 -694 -748 807 0
-651 -694 -749 807 0
-651 -694 -750 807 0
-651 -694 -751 807 0
-651 -694 -752 807 0
-651 -694 -753 807 0
-651 -694 -754 807 0
-651 -694 -755 807 0
-651 -695 -730 807 0
-651 -695 -731 807 0
-651 -695 -732 807 0
-651 -695 -733 807 0
-651 -695 -734 807 0
-651 -695 -735 807 0
-651 -695 -736 807 0
-651 -695 -737 807 0
-651 -695 -738 807 0
-651 -695 -739 807 0
-651 -695 -740 807 0
-651 -695 -741 807 0
-651 -695 -742 807 0
-651 -695 -743 807 0
-651 -695 -744 807 0
-651 -695 -745 807 0
-651 -695 -746 807 0
-651 -695 -747 807 0
-651 -695 -748 807 0
-651 -695 -749 807 0
-651 -695 -750 807 0
-651 -695 -751 807 0
-651 -695 -752 807 0
-651 -695 -753 807 0
-651 -695 -754 807 0
-651 -695 -755 807 0
-651 -696 -730 807 0
-651 -696 -731 807 0
-651 -696 -732 807 0
-651 -696 -733 807 0
-651 -696 -734 807 0
-651 -696 -735 807 0
-651 -696 -736 807 0
-651 -696 -737 807 0
-651 -696 -738 807 0
-651 -696 -739 807 0
-651 -696 -740 807 0
-651 -696 -741 807 0
-651 -696 -742 807 0
-651 -696 -743 807 0
-651 -696 -744 807 0
-651 -696 -745 807 0
-651 -696 -746 807 0
-651 -696 -747 807 0
-651 -696 -748 807 0
-651 -696 -749 807 0
-651 -696 -750 807 0
-651 -696 -751 807 0
-651 -696 -752 807 0
-651 -696 -753 807 0
-651 -696 -754 807 0
-651 -696 -755 807 0
-651 -697 -730 807 0
-651 -697 -731 807 0
-651 -697 -732 807 0
-651 -697 -733 807 0
-651 -697 -734 807 0
-651 -697 -735 807 0
-651 -697 -736 807 0
-651 -697 -737 807 0
-651 -697 -738 807 0
-651 -697 -739 807 0
-651 -697 -740 807 0
-651 -697 -741 807 0
-651 -697 -742 807 0
-651 -697 -743 807 0
-651 -697 -744 807 0
-651 -697 -745 807 0
-651 -697 -746 807 0
-651 -697 -747 807 0
-651 -697 -748 807 0
-651 -697 -749 807 0
-651 -697 -750 807 0
-651 -697 -751 807 0
-651 -697 -752 807 0
-651 -697 -753 807 0
-651 -697 -754 807 0
-651 -697 -755 807 0
-651 -698 -730 807 0
-651 -698 -731 807 0
-651 -698 -732 807 0
-651 -698 -733 807 0
-651 -698 -734 807 0
-651 -698 -735 807 0
-651 -698 -736 807 0
-651 -698 -737 807 0
-651 -698 -738 807 0
-651 -698 -739 807 0
-651 -698 -740 807 0
-651 -698 -741 807 0
-651 -698 -742 807 0
-651 -698 -743 807 0
-651 -698 -744 807 0
-651 -698 -745 807 0
-651 -698 -746 807 0
-651 -698 -747 807 0
-651 -698 -748 807 0
-651 -698 -749 807 0
-651 -698 -750 807 0
-651 -698 -751 807 0
-651 -698 -752 807 0
-651 -698 -753 807 0
-651 -698 -754 807 0
-651 -698 -755 807 0
-651 -699 -730 807 0
-651 -699 -731 807 0
-651 -699 -732 807 0
-651 -699 -733 807 0
-651 -699 -734 807 0
-651 -699 -735 807 0
-651 -699 -736 807 0
-651 -699 -737 807 0
-651 -699 -738 807 0
-651 -699 -739 807 0
-651 -699 -740 807 0
-651 -699 -741 807 0
-651 -699 -742 807 0
-651 -699 -743 807 0
-651 -699 -744 807 0
-651 -699 -745 807 0
-651 -699 -746 807 0
-651 -699 -747 807 0
-651 -699 -748 807 0
-651 -699 -749 807 0
-651 -699 -750 807 0
-651 -699 -751 807 0
-651 -699 -752 807 0
-651 -699 -753 807 0
-651 -699 -754 807 0
-651 -699 -755 807 0
-651 -700 -730 807 0
-651 -700 -731 807 0
-651 -700 -732 807 0
-651 -700 -733 807 0
-651 -700 -734 807 0
-651 -700 -735 807 0
-651 -700 -736 807 0
-651 -700 -737 807 0
-651 -700 -738 807 0
-651 -700 -739 807 0
-651 -700 -740 807 0
-651 -700 -741 807 0
-651 -700 -742 807 0
-651 -700 -743 807 0
-651 -700 -744 807 0
-651 -700 -745 807 0
-651 -700 -746 807 0
-651 -700 -747 807 0
-651 -700 -748 807 0
-651 -700 -749 807 0
-651 -700 -750 807 0
-651 -700 -751 807 0
-651 -700 -752 807 0
-651 -700 -753 807 0
-651 -700 -754 807 0
-651 -700 -755 807 0
-651 -701 -730 807 0
-651 -701 -731 807 0
-651 -701 -732 807 0
-651 -701 -733 807 0
-651 -701 -734 807 0
-651 -701 -735 807 0
-651 -701 -736 807 0
-651 -701 -737 807 0
-651 -701 -738 807 0
-651 -701 -739 807 0
-651 -701 -740 807 0
-651 -701 -741 807 0
-651 -701 -742 807 0
-651 -701 -743 807 0
-651 -701 -744 807 0
-651 -701 -745 807 0
-651 -701 -746 807 0
-651 -701 -747 807 0
-651 -701 -748 807 0
-651 -701 -749 807 0
-651 -701 -750 807 0
-651 -701 -751 807 0
-651 -701 -752 807 0
-651 -701 -753 807 0
-651 -701 -754 807 0
-651 -701 -755 807 0
-651 -702 -730 807 0
-651 -702 -731 807 0
-651 -702 -732 807 0
-651 -702 -733 807 0
-651 -702 -734 807 0
-651 -702 -735 807 0
-651 -702 -736 807 0
-651 -702 -737 807 0
-651 -702 -738 807 0
-651 -702 -739 807 0
-651 -702 -740 807 0
-651 -702 -741 807 0
-651 -702 -742 807 0
-651 -702 -743 807 0
-651 -702 -744 807 0
-651 -702 -745 807 0
-651 -702 -746 807 0
-651 -702 -747 807 0
-651 -702 -748 807 0
-651 -702 -749 807 0
-651 -702 -750 807 0
-651 -702 -751 807 0
-651 -702 -752 807 0
-651 -702 -753 807 0
-651 -702 -754 807 0
-651 -702 -755 807 0
-651 -703 -730 807 0
-651 -703 -731 807 0
-651 -703 -732 807 0
-651 -703 -733 807 0
-651 -703 -734 807 0
-651 -703 -735 807 0
-651 -703 -736 807 0
-651 -703 -737 807 0
-651 -703 -738 807 0
-651 -703 -739 807 0
-651 -703 -740 807 0
-651 -703 -741 807 0
-651 -703 -742 807 0
-651 -703 -743 807 0
-651 -703 -744 807 0
-651 -703 -745 807 0
-651 -703 -746 807 0
-651 -703 -747 807 0
-651 -703 -748 807 0
-651 -703 -749 807 0
-651 -703 -750 807 0
-651 -703 -751 807 0
-651 -703 -752 807 0
-651 -703 -753 807 0
-651 -703 -754 807 0
-651 -703 -755 807 0
-782 0
-783 0
-784 0
-785 0
-786 0
-787 0
-788 0
-789 0
-790 0
-791 0
-678 0
-679 0
-730 0
-731 0
-732 0
-626 0
-627 0
-628 0
834 835 836 0
-834 -626 0
-834 -627 0
-834 -628 0
-834 -629 0
-835 629 0
-835 -678 0
-835 -679 0
-835 -680 0
-836 629 0
-836 680 0
-836 -730 0
-836 -731 0
-836 -732 0
-836 -733 0
-68 -730 0
-71 -730 0
-74 -730 0
-77 -730 0
-80 -730 0
-68 -71 -731 0
-68 -74 -731 0
-68 -77 -731 0
-68 -80 -731 0
-71 -74 -731 0
-71 -77 -731 0
-71 -80 -731 0
-74 -77 -731 0
-74 -80 -731 0
-77 -80 -731 0
-68 -71 -74 -732 0
-68 -71 -77 -732 0
-68 -71 -80 -732 0
-68 -74 -77 -732 0
-68 -74 -80 -732 0
-68 -77 -80 -732 0
-71 -74 -77 -732 0
-71 -74 -80 -732 0
-71 -77 -80 -732 0
-74 -77 -80 -732 0
-68 -71 -74 -77 -733 0
-68 -71 -74 -80 -733 0
-68 -71 -77 -80 -733 0
-68 -74 -77 -80 -733 0
-71 -74 -77 -80 -733 0
-68 -71 -74 -77 -80 -734 0
-9 837 0
-4 838 0
-837 838 0
-4 -837 0
-7 839 0
-838 839 0
-7 -838 0
-5 840 0
-839 840 0
-5 -839 0
-8 841 0
-840 841 0
-8 -840 0
-3 842 0
-6 843 0
-842 843 0
-6 -842 0
-1 844 0
-843 844 0
-1 -843 0
-2 845 0
-844 845 0
-2 -844 0
-14 846 0
-10 847 0
-846 847 0
-10 -846 0
-12 848 0
-847 848 0
-12 -847 0
-11 849 0
-848 849 0
-11 -848 0
-13 850 0
-849 850 0
-13 -849 0
-15 851 0
-16 852 0
-851 852 0
-16 -851 0
-9 853 0
-14 854 0
-853 854 0
-14 -853 0
-37 855 0
-42 856 0
-855 856 0
-42 -855 0
-22 857 0
-856 857 0
-22 -856 0
-28 858 0
-857 858 0
-28 -857 0
-4 859 0
-10 860 0
-859 860 0
-10 -859 0
-33 861 0
-38 862 0
-861 862 0
-38 -861 0
-18 863 0
-862 863 0
-18 -862 0
-24 864 0
-863 864 0
-24 -863 0
-7 865 0
-12 866 0
-865 866 0
-12 -865 0
-35 867 0
-40 868 0
-867 868 0
-40 -867 0
-20 869 0
-868 869 0
-20 -868 0
-26 870 0
-869 870 0
-26 -869 0
-5 871 0
-11 872 0
-871 872 0
-11 -871 0
-34 873 0
-39 874 0
-873 874 0
-39 -873 0
-19 875 0
-874 875 0
-19 -874 0
-25 876 0
-875 876 0
-25 -875 0
-8 877 0
-13 878 0
-877 878 0
-13 -877 0
-36 879 0
-41 880 0
-879 880 0
-41 -879 0
-21 881 0
-880 881 0
-21 -880 0
-27 882 0
-881 882 0
-27 -881 0
-32 883 0
-29 884 0
-883 884 0
-29 -883 0
-30 885 0
-884 885 0
-30 -884 0
-31 886 0
-885 886 0
-31 -885 0
-17 887 0
-23 888 0
-887 888 0
-23 -887 0
-37 889 0
-33 890 0
-889 890 0
-33 -889 0
-35 891 0
-890 891 0
-35 -890 0
-34 892 0
-891 892 0
-34 -891 0
-36 893 0
-892 893 0
-36 -892 0
-42 894 0
-38 895 0
-894 895 0
-38 -894 0
-40 896 0
-895 896 0
-40 -895 0
-39 897 0
-896 897 0
-39 -896 0
-41 898 0
-897 898 0
-41 -897 0
-1 899 0
-15 900 0
-899 900 0
-15 -899 0
-22 901 0
-18 902 0
-901 902 0
-18 -901 0
-20 903 0
-902 903 0
-20 -902 0
-19 904 0
-903 904 0
-19 -903 0
-21 905 0
-904 905 0
-21 -904 0
-2 906 0
-16 907 0
-906 907 0
-16 -906 0
-28 908 0
-24 909 0
-908 909 0
-24 -908 0
-26 910 0
-909 910 0
-26 -909 0
-25 911 0
-910 911 0
-25 -910 0
-27 912 0
-911 912 0
-27 -911 0
-9 -4 0
-9 -7 0
-9 -5 0
-9 -8 0
-4 -7 0
-4 -5 0
-4 -8 0
-7 -5 0
-7 -8 0
-5 -8 0
-3 -6 0
-3 -1 0
-3 -2 0
-6 -1 0
-6 -2 0
-1 -2 0
-14 -10 0
-14 -12 0
-14 -11 0
-14 -13 0
-10 -12 0
-10 -11 0
-10 -13 0
-12 -11 0
-12 -13 0
-11 -13 0
-15 -16 0
-9 -14 0
-9 -32 0
-14 -32 0
-14 -37 0
-14 -42 0
-14 -22 0
-14 -28 0
-32 -37 0
-32 -42 0
-37 -42 0
-37 -22 0
-37 -28 0
-42 -22 0
-42 -28 0
-22 -28 0
-4 -10 0
-4 -29 0
-10 -29 0
-10 -33 0
-10 -38 0
-10 -18 0
-10 -24 0
-29 -33 0
-29 -38 0
-33 -38 0
-33 -18 0
-33 -24 0
-38 -18 0
-38 -24 0
-18 -24 0
-7 -12 0
-12 -35 0
-12 -40 0
-12 -20 0
-12 -26 0
-35 -40 0
-35 -20 0
-35 -26 0
-40 -20 0
-40 -26 0
-20 -26 0
-5 -11 0
-5 -30 0
-11 -30 0
-11 -34 0
-11 -39 0
-11 -19 0
-11 -25 0
-30 -34 0
-30 -39 0
-34 -39 0
-34 -19 0
-34 -25 0
-39 -19 0
-39 -25 0
-19 -25 0
-8 -13 0
-8 -31 0
-13 -31 0
-13 -36 0
-13 -41 0
-13 -21 0
-13 -27 0
-31 -36 0
-31 -41 0
-36 -41 0
-36 -21 0
-36 -27 0
-41 -21 0
-41 -27 0
-21 -27 0
-32 -29 0
-32 -30 0
-32 -31 0
-29 -30 0
-29 -31 0
-30 -31 0
-17 -23 0
-37 -33 0
-37 -35 0
-37 -34 0
-37 -36 0
-33 -35 0
-33 -34 0
-33 -36 0
-35 -34 0
-35 -36 0
-34 -36 0
-42 -38 0
-42 -40 0
-42 -39 0
-42 -41 0
-38 -40 0
-38 -39 0
-38 -41 0
-40 -39 0
-40 -41 0
-39 -41 0
-1 -15 0
-1 -17 0
-15 -22 0
-15 -18 0
-15 -20 0
-15 -19 0
-15 -21 0
-15 -17 0
-22 -18 0
-22 -20 0
-22 -19 0
-22 -21 0
-18 -20 0
-18 -19 0
-18 -21 0
-20 -19 0
-20 -21 0
-20 -17 0
-19 -21 0
-2 -16 0
-2 -23 0
-16 -28 0
-16 -24 0
-16 -26 0
-16 -25 0
-16 -27 0
-16 -23 0
-28 -24 0
-28 -26 0
-28 -25 0
-28 -27 0
-24 -26 0
-24 -25 0
-24 -27 0
-26 -25 0
-26 -27 0
-26 -23 0
-25 -27 0
-4 -57 69 0
-4 57 -69 0
-4 -58 70 0
-4 58 -70 0
-4 -59 71 0
-4 59 -71 0
-4 -44 48 0
-4 44 -48 0
-4 -96 100 0
-4 96 -100 0
-4 -109 113 0
-4 109 -113 0
-4 -122 130 0
-4 122 -130 0
-4 -123 131 0
-4 123 -131 0
-4 -417 421 0
-4 417 -421 0
-4 -193 197 0
-4 193 -197 0
-4 -207 211 0
-4 207 -211 0
-4 -221 225 0
-4 221 -225 0
-4 -235 239 0
-4 235 -239 0
-4 -249 253 0
-4 249 -253 0
-4 -263 267 0
-4 263 -267 0
-4 -277 281 0
-4 277 -281 0
-4 -291 295 0
-4 291 -295 0
-38 -69 87 0
-38 69 -87 0
-38 -70 88 0
-38 70 -88 0
-38 -71 89 0
-38 71 -89 0
-38 -48 54 0
-38 48 -54 0
-38 -100 106 0
-38 100 -106 0
-38 -113 119 0
-38 113 -119 0
-38 -130 142 0
-38 130 -142 0
-38 -131 143 0
-38 131 -143 0
-38 -421 427 0
-38 421 -427 0
-38 -479 484 0
-38 479 -484 0
-38 -488 493 0
-38 488 -493 0
-38 -497 502 0
-38 497 -502 0
-38 -506 511 0
-38 506 -511 0
-38 -193 291 0
-38 193 -291 0
-38 -194 292 0
-38 194 -292 0
-38 -195 293 0
-38 195 -293 0
-38 -196 294 0
-38 196 -294 0
-38 -197 295 0
-38 197 -295 0
-38 -198 296 0
-38 198 -296 0
-38 -199 297 0
-38 199 -297 0
-38 -200 298 0
-38 200 -298 0
-38 -201 299 0
-38 201 -299 0
-38 -202 300 0
-38 202 -300 0
-38 -203 301 0
-38 203 -301 0
-38 -204 302 0
-38 204 -302 0
-38 -205 303 0
-38 205 -303 0
-38 -206 304 0
-38 206 -304 0
-38 -197 203 0
-38 197 -203 0
-38 -211 217 0
-38 211 -217 0
-38 -225 231 0
-38 225 -231 0
-38 -239 245 0
-38 239 -245 0
-38 -253 259 0
-38 253 -259 0
-38 -267 273 0
-38 267 -273 0
-38 -281 287 0
-38 281 -287 0
-38 -295 301 0
-38 295 -301 0
-24 -93 69 0
-24 93 -69 0
-24 -94 70 0
-24 94 -70 0
-24 -95 71 0
-24 95 -71 0
-24 -56 48 0
-24 56 -48 0
-24 -108 100 0
-24 108 -100 0
-24 -121 113 0
-24 121 -113 0
-24 -146 130 0
-24 146 -130 0
-24 -147 131 0
-24 147 -131 0
-24 -429 421 0
-24 429 -421 0
-24 -486 479 0
-24 486 -479 0
-24 -495 488 0
-24 495 -488 0
-24 -504 497 0
-24 504 -497 0
-24 -513 506 0
-24 513 -506 0
-24 -205 197 0
-24 205 -197 0
-24 -219 211 0
-24 219 -211 0
-24 -233 225 0
-24 233 -225 0
-24 -247 239 0
-24 247 -239 0
-24 -261 253 0
-24 261 -253 0
-24 -275 267 0
-24 275 -267 0
-24 -289 281 0
-24 289 -281 0
-24 -303 295 0
-24 303 -295 0
-11 -60 75 0
-11 60 -75 0
-11 -61 76 0
-11 61 -76 0
-11 -62 77 0
-11 62 -77 0
-11 -45 50 0
-11 45 -50 0
-11 -97 102 0
-11 97 -102 0
-11 -110 115 0
-11 110 -115 0
-11 -124 134 0
-11 124 -134 0
-11 -125 135 0
-11 125 -135 0
-11 -418 423 0
-11 418 -423 0
-11 -194 199 0
-11 194 -199 0
-11 -208 213 0
-11 208 -213 0
-11 -222 227 0
-11 222 -227 0
-11 -236 241 0
-11 236 -241 0
-11 -250 255 0
-11 250 -255 0
-11 -264 269 0
-11 264 -269 0
-11 -278 283 0
-11 278 -283 0
-11 -292 297 0
-11 292 -297 0
-2 -93 57 0
-2 93 -57 0
-2 -94 58 0
-2 94 -58 0
-2 -95 59 0
-2 95 -59 0
-2 -56 44 0
-2 56 -44 0
-2 -108 96 0
-2 108 -96 0
-2 -121 109 0
-2 121 -109 0
-2 -146 122 0
-2 146 -122 0
-2 -147 123 0
-2 147 -123 0
-2 -429 417 0
-2 429 -417 0
-2 -205 193 0
-2 205 -193 0
-2 -219 207 0
-2 219 -207 0
-2 -233 221 0
-2 233 -221 0
-2 -247 235 0
-2 247 -235 0
-2 -261 249 0
-2 261 -249 0
-2 -275 263 0
-2 275 -263 0
-2 -289 277 0
-2 289 -277 0
-2 -303 291 0
-2 303 -291 0
-20 -72 90 0
-20 72 -90 0
-20 -73 91 0
-20 73 -91 0
-20 -74 92 0
-20 74 -92 0
-20 -49 55 0
-20 49 -55 0
-20 -101 107 0
-20 101 -107 0
-20 -114 120 0
-20 114 -120 0
-20 -132 144 0
-20 132 -144 0
-20 -133 145 0
-20 133 -145 0
-20 -422 428 0
-20 422 -428 0
-20 -480 485 0
-20 480 -485 0
-20 -489 494 0
-20 489 -494 0
-20 -498 503 0
-20 498 -503 0
-20 -507 512 0
-20 507 -512 0
-20 -198 204 0
-20 198 -204 0
-20 -212 218 0
-20 212 -218 0
-20 -226 232 0
-20 226 -232 0
-20 -240 246 0
-20 240 -246 0
-20 -254 260 0
-20 254 -260 0
-20 -268 274 0
-20 268 -274 0
-20 -282 288 0
-20 282 -288 0
-20 -296 302 0
-20 296 -302 0
-40 -72 87 0
-40 72 -87 0
-40 -73 88 0
-40 73 -88 0
-40 -74 89 0
-40 74 -89 0
-40 -49 54 0
-40 49 -54 0
-40 -101 106 0
-40 101 -106 0
-40 -114 119 0
-40 114 -119 0
-40 -132 142 0
-40 132 -142 0
-40 -133 143 0
-40 133 -143 0
-40 -422 427 0
-40 422 -427 0
-40 -480 484 0
-40 480 -484 0
-40 -489 493 0
-40 489 -493 0
-40 -498 502 0
-40 498 -502 0
-40 -507 511 0
-40 507 -511 0
-40 -235 291 0
-40 235 -291 0
-40 -236 292 0
-40 236 -292 0
-40 -237 293 0
-40 237 -293 0
-40 -238 294 0
-40 238 -294 0
-40 -239 295 0
-40 239 -295 0
-40 -240 296 0
-40 240 -296 0
-40 -241 297 0
-40 241 -297 0
-40 -242 298 0
-40 242 -298 0
-40 -243 299 0
-40 243 -299 0
-40 -244 300 0
-40 244 -300 0
-40 -245 301 0
-40 245 -301 0
-40 -246 302 0
-40 246 -302 0
-40 -247 303 0
-40 247 -303 0
-40 -248 304 0
-40 248 -304 0
-40 -198 203 0
-40 198 -203 0
-40 -212 217 0
-40 212 -217 0
-40 -226 231 0
-40 226 -231 0
-40 -240 245 0
-40 240 -245 0
-40 -254 259 0
-40 254 -259 0
-40 -268 273 0
-40 268 -273 0
-40 -282 287 0
-40 282 -287 0
-40 -296 301 0
-40 296 -301 0
-35 -72 84 0
-35 72 -84 0
-35 -73 85 0
-35 73 -85 0
-35 -74 86 0
-35 74 -86 0
-35 -49 53 0
-35 49 -53 0
-35 -101 105 0
-35 101 -105 0
-35 -114 118 0
-35 114 -118 0
-35 -132 140 0
-35 132 -140 0
-35 -133 141 0
-35 133 -141 0
-35 -422 426 0
-35 422 -426 0
-35 -480 483 0
-35 480 -483 0
-35 -489 492 0
-35 489 -492 0
-35 -498 501 0
-35 498 -501 0
-35 -507 510 0
-35 507 -510 0
-35 -235 277 0
-35 235 -277 0
-35 -236 278 0
-35 236 -278 0
-35 -237 279 0
-35 237 -279 0
-35 -238 280 0
-35 238 -280 0
-35 -239 281 0
-35 239 -281 0
-35 -240 282 0
-35 240 -282 0
-35 -241 283 0
-35 241 -283 0
-35 -242 284 0
-35 242 -284 0
-35 -243 285 0
-35 243 -285 0
-35 -244 286 0
-35 244 -286 0
-35 -245 287 0
-35 245 -287 0
-35 -246 288 0
-35 246 -288 0
-35 -247 289 0
-35 247 -289 0
-35 -248 290 0
-35 248 -290 0
-35 -198 202 0
-35 198 -202 0
-35 -212 216 0
-35 212 -216 0
-35 -226 230 0
-35 226 -230 0
-35 -240 244 0
-35 240 -244 0
-35 -254 258 0
-35 254 -258 0
-35 -268 272 0
-35 268 -272 0
-35 -282 286 0
-35 282 -286 0
-35 -296 300 0
-35 296 -300 0
-16 -93 63 0
-16 93 -63 0
-16 -94 64 0
-16 94 -64 0
-16 -95 65 0
-16 95 -65 0
-16 -56 46 0
-16 56 -46 0
-16 -108 98 0
-16 108 -98 0
-16 -121 111 0
-16 121 -111 0
-16 -146 126 0
-16 146 -126 0
-16 -147 127 0
-16 147 -127 0
-16 -429 419 0
-16 429 -419 0
-16 -205 195 0
-16 205 -195 0
-16 -219 209 0
-16 219 -209 0
-16 -233 223 0
-16 233 -223 0
-16 -247 237 0
-16 247 -237 0
-16 -261 251 0
-16 261 -251 0
-16 -275 265 0
-16 275 -265 0
-16 -289 279 0
-16 289 -279 0
-16 -303 293 0
-16 303 -293 0
-41 -78 87 0
-41 78 -87 0
-41 -79 88 0
-41 79 -88 0
-41 -80 89 0
-41 80 -89 0
-41 -51 54 0
-41 51 -54 0
-41 -103 106 0
-41 103 -106 0
-41 -116 119 0
-41 116 -119 0
-41 -136 142 0
-41 136 -142 0
-41 -137 143 0
-41 137 -143 0
-41 -424 427 0
-41 424 -427 0
-41 -482 484 0
-41 482 -484 0
-41 -491 493 0
-41 491 -493 0
-41 -500 502 0
-41 500 -502 0
-41 -509 511 0
-41 509 -511 0
-41 -249 291 0
-41 249 -291 0
-41 -250 292 0
-41 250 -292 0
-41 -251 293 0
-41 251 -293 0
-41 -252 294 0
-41 252 -294 0
-41 -253 295 0
-41 253 -295 0
-41 -254 296 0
-41 254 -296 0
-41 -255 297 0
-41 255 -297 0
-41 -256 298 0
-41 256 -298 0
-41 -257 299 0
-41 257 -299 0
-41 -258 300 0
-41 258 -300 0
-41 -259 301 0
-41 259 -301 0
-41 -260 302 0
-41 260 -302 0
-41 -261 303 0
-41 261 -303 0
-41 -262 304 0
-41 262 -304 0
-41 -200 203 0
-41 200 -203 0
-41 -214 217 0
-41 214 -217 0
-41 -228 231 0
-41 228 -231 0
-41 -242 245 0
-41 242 -245 0
-41 -256 259 0
-41 256 -259 0
-41 -270 273 0
-41 270 -273 0
-41 -284 287 0
-41 284 -287 0
-41 -298 301 0
-41 298 -301 0
-8 -78 57 0
-8 78 -57 0
-8 -79 58 0
-8 79 -58 0
-8 -80 59 0
-8 80 -59 0
-8 -51 44 0
-8 51 -44 0
-8 -103 96 0
-8 103 -96 0
-8 -116 109 0
-8 116 -109 0
-8 -136 122 0
-8 136 -122 0
-8 -137 123 0
-8 137 -123 0
-8 -424 417 0
-8 424 -417 0
-8 -200 193 0
-8 200 -193 0
-8 -214 207 0
-8 214 -207 0
-8 -228 221 0
-8 228 -221 0
-8 -242 235 0
-8 242 -235 0
-8 -256 249 0
-8 256 -249 0
-8 -270 263 0
-8 270 -263 0
-8 -284 277 0
-8 284 -277 0
-8 -298 291 0
-8 298 -291 0
-27 -93 78 0
-27 93 -78 0
-27 -94 79 0
-27 94 -79 0
-27 -95 80 0
-27 95 -80 0
-27 -56 51 0
-27 56 -51 0
-27 -108 103 0
-27 108 -103 0
-27 -121 116 0
-27 121 -116 0
-27 -146 136 0
-27 146 -136 0
-27 -147 137 0
-27 147 -137 0
-27 -429 424 0
-27 429 -424 0
-27 -486 482 0
-27 486 -482 0
-27 -495 491 0
-27 495 -491 0
-27 -504 500 0
-27 504 -500 0
-27 -513 509 0
-27 513 -509 0
-27 -205 200 0
-27 205 -200 0
-27 -219 214 0
-27 219 -214 0
-27 -233 228 0
-27 233 -228 0
-27 -247 242 0
-27 247 -242 0
-27 -261 256 0
-27 261 -256 0
-27 -275 270 0
-27 275 -270 0
-27 -289 284 0
-27 289 -284 0
-27 -303 298 0
-27 303 -298 0
-25 -93 75 0
-25 93 -75 0
-25 -94 76 0
-25 94 -76 0
-25 -95 77 0
-25 95 -77 0
-25 -56 50 0
-25 56 -50 0
-25 -108 102 0
-25 108 -102 0
-25 -121 115 0
-25 121 -115 0
-25 -146 134 0
-25 146 -134 0
-25 -147 135 0
-25 147 -135 0
-25 -429 423 0
-25 429 -423 0
-25 -486 481 0
-25 486 -481 0
-25 -495 490 0
-25 495 -490 0
-25 -504 499 0
-25 504 -499 0
-25 -513 508 0
-25 513 -508 0
-25 -205 199 0
-25 205 -199 0
-25 -219 213 0
-25 219 -213 0
-25 -233 227 0
-25 233 -227 0
-25 -247 241 0
-25 247 -241 0
-25 -261 255 0
-25 261 -255 0
-25 -275 269 0
-25 275 -269 0
-25 -289 283 0
-25 289 -283 0
-25 -303 297 0
-25 303 -297 0
-23 -93 81 0
-23 93 -81 0
-23 -94 82 0
-23 94 -82 0
-23 -95 83 0
-23 95 -83 0
-23 -56 52 0
-23 56 -52 0
-23 -108 104 0
-23 108 -104 0
-23 -121 117 0
-23 121 -117 0
-23 -146 138 0
-23 146 -138 0
-23 -147 139 0
-23 147 -139 0
-23 -429 425 0
-23 429 -425 0
-23 -205 201 0
-23 205 -201 0
-23 -219 215 0
-23 219 -215 0
-23 -233 229 0
-23 233 -229 0
-23 -247 243 0
-23 247 -243 0
-23 -261 257 0
-23 261 -257 0
-23 -275 271 0
-23 275 -271 0
-23 -289 285 0
-23 289 -285 0
-23 -303 299 0
-23 303 -299 0
-12 -60 72 0
-12 60 -72 0
-12 -61 73 0
-12 61 -73 0
-12 -62 74 0
-12 62 -74 0
-12 -45 49 0
-12 45 -49 0
-12 -97 101 0
-12 97 -101 0
-12 -110 114 0
-12 110 -114 0
-12 -124 132 0
-12 124 -132 0
-12 -125 133 0
-12 125 -133 0
-12 -418 422 0
-12 418 -422 0
-12 -194 198 0
-12 194 -198 0
-12 -208 212 0
-12 208 -212 0
-12 -222 226 0
-12 222 -226 0
-12 -236 240 0
-12 236 -240 0
-12 -250 254 0
-12 250 -254 0
-12 -264 268 0
-12 264 -268 0
-12 -278 282 0
-12 278 -282 0
-12 -292 296 0
-12 292 -296 0
-28 -66 93 0
-28 66 -93 0
-28 -67 94 0
-28 67 -94 0
-28 -68 95 0
-28 68 -95 0
-28 -47 56 0
-28 47 -56 0
-28 -99 108 0
-28 99 -108 0
-28 -112 121 0
-28 112 -121 0
-28 -128 146 0
-28 128 -146 0
-28 -129 147 0
-28 129 -147 0
-28 -420 429 0
-28 420 -429 0
-28 -478 486 0
-28 478 -486 0
-28 -487 495 0
-28 487 -495 0
-28 -496 504 0
-28 496 -504 0
-28 -505 513 0
-28 505 -513 0
-28 -196 205 0
-28 196 -205 0
-28 -210 219 0
-28 210 -219 0
-28 -224 233 0
-28 224 -233 0
-28 -238 247 0
-28 238 -247 0
-28 -252 261 0
-28 252 -261 0
-28 -266 275 0
-28 266 -275 0
-28 -280 289 0
-28 280 -289 0
-28 -294 303 0
-28 294 -303 0
-7 -72 57 0
-7 72 -57 0
-7 -73 58 0
-7 73 -58 0
-7 -74 59 0
-7 74 -59 0
-7 -49 44 0
-7 49 -44 0
-7 -101 96 0
-7 101 -96 0
-7 -114 109 0
-7 114 -109 0
-7 -132 122 0
-7 132 -122 0
-7 -133 123 0
-7 133 -123 0
-7 -422 417 0
-7 422 -417 0
-7 -198 193 0
-7 198 -193 0
-7 -212 207 0
-7 212 -207 0
-7 -226 221 0
-7 226 -221 0
-7 -240 235 0
-7 240 -235 0
-7 -254 249 0
-7 254 -249 0
-7 -268 263 0
-7 268 -263 0
-7 -282 277 0
-7 282 -277 0
-7 -296 291 0
-7 296 -291 0
-33 -84 69 0
-33 84 -69 0
-33 -85 70 0
-33 85 -70 0
-33 -86 71 0
-33 86 -71 0
-33 -53 48 0
-33 53 -48 0
-33 -105 100 0
-33 105 -100 0
-33 -118 113 0
-33 118 -113 0
-33 -140 130 0
-33 140 -130 0
-33 -141 131 0
-33 141 -131 0
-33 -426 421 0
-33 426 -421 0
-33 -483 479 0
-33 483 -479 0
-33 -492 488 0
-33 492 -488 0
-33 -501 497 0
-33 501 -497 0
-33 -510 506 0
-33 510 -506 0
-33 -277 193 0
-33 277 -193 0
-33 -278 194 0
-33 278 -194 0
-33 -279 195 0
-33 279 -195 0
-33 -280 196 0
-33 280 -196 0
-33 -281 197 0
-33 281 -197 0
-33 -282 198 0
-33 282 -198 0
-33 -283 199 0
-33 283 -199 0
-33 -284 200 0
-33 284 -200 0
-33 -285 201 0
-33 285 -201 0
-33 -286 202 0
-33 286 -202 0
-33 -287 203 0
-33 287 -203 0
-33 -288 204 0
-33 288 -204 0
-33 -289 205 0
-33 289 -205 0
-33 -290 206 0
-33 290 -206 0
-33 -202 197 0
-33 202 -197 0
-33 -216 211 0
-33 216 -211 0
-33 -230 225 0
-33 230 -225 0
-33 -244 239 0
-33 244 -239 0
-33 -258 253 0
-33 258 -253 0
-33 -272 267 0
-33 272 -267 0
-33 -286 281 0
-33 286 -281 0
-33 -300 295 0
-33 300 -295 0
-18 -90 69 0
-18 90 -69 0
-18 -91 70 0
-18 91 -70 0
-18 -92 71 0
-18 92 -71 0
-18 -55 48 0
-18 55 -48 0
-18 -107 100 0
-18 107 -100 0
-18 -120 113 0
-18 120 -113 0
-18 -144 130 0
-18 144 -130 0
-18 -145 131 0
-18 145 -131 0
-18 -428 421 0
-18 428 -421 0
-18 -485 479 0
-18 485 -479 0
-18 -494 488 0
-18 494 -488 0
-18 -503 497 0
-18 503 -497 0
-18 -512 506 0
-18 512 -506 0
-18 -204 197 0
-18 204 -197 0
-18 -218 211 0
-18 218 -211 0
-18 -232 225 0
-18 232 -225 0
-18 -246 239 0
-18 246 -239 0
-18 -260 253 0
-18 260 -253 0
-18 -274 267 0
-18 274 -267 0
-18 -288 281 0
-18 288 -281 0
-18 -302 295 0
-18 302 -295 0
-32 -66 81 0
-32 66 -81 0
-32 -67 82 0
-32 67 -82 0
-32 -68 83 0
-32 68 -83 0
-32 -47 52 0
-32 47 -52 0
-32 -99 104 0
-32 99 -104 0
-32 -112 117 0
-32 112 -117 0
-32 -128 138 0
-32 128 -138 0
-32 -129 139 0
-32 129 -139 0
-32 -420 425 0
-32 420 -425 0
-32 -221 263 0
-32 221 -263 0
-32 -222 264 0
-32 222 -264 0
-32 -223 265 0
-32 223 -265 0
-32 -224 266 0
-32 224 -266 0
-32 -225 267 0
-32 225 -267 0
-32 -226 268 0
-32 226 -268 0
-32 -227 269 0
-32 227 -269 0
-32 -228 270 0
-32 228 -270 0
-32 -229 271 0
-32 229 -271 0
-32 -230 272 0
-32 230 -272 0
-32 -231 273 0
-32 231 -273 0
-32 -232 274 0
-32 232 -274 0
-32 -233 275 0
-32 233 -275 0
-32 -234 276 0
-32 234 -276 0
-32 -196 201 0
-32 196 -201 0
-32 -210 215 0
-32 210 -215 0
-32 -224 229 0
-32 224 -229 0
-32 -238 243 0
-32 238 -243 0
-32 -252 257 0
-32 252 -257 0
-32 -266 271 0
-32 266 -271 0
-32 -280 285 0
-32 280 -285 0
-32 -294 299 0
-32 294 -299 0
-13 -60 78 0
-13 60 -78 0
-13 -61 79 0
-13 61 -79 0
-13 -62 80 0
-13 62 -80 0
-13 -45 51 0
-13 45 -51 0
-13 -97 103 0
-13 97 -103 0
-13 -110 116 0
-13 110 -116 0
-13 -124 136 0
-13 124 -136 0
-13 -125 137 0
-13 125 -137 0
-13 -418 424 0
-13 418 -424 0
-13 -194 200 0
-13 194 -200 0
-13 -208 214 0
-13 208 -214 0
-13 -222 228 0
-13 222 -228 0
-13 -236 242 0
-13 236 -242 0
-13 -250 256 0
-13 250 -256 0
-13 -264 270 0
-13 264 -270 0
-13 -278 284 0
-13 278 -284 0
-13 -292 298 0
-13 292 -298 0
-30 -75 81 0
-30 75 -81 0
-30 -76 82 0
-30 76 -82 0
-30 -77 83 0
-30 77 -83 0
-30 -50 52 0
-30 50 -52 0
-30 -102 104 0
-30 102 -104 0
-30 -115 117 0
-30 115 -117 0
-30 -134 138 0
-30 134 -138 0
-30 -135 139 0
-30 135 -139 0
-30 -423 425 0
-30 423 -425 0
-30 -207 263 0
-30 207 -263 0
-30 -208 264 0
-30 208 -264 0
-30 -209 265 0
-30 209 -265 0
-30 -210 266 0
-30 210 -266 0
-30 -211 267 0
-30 211 -267 0
-30 -212 268 0
-30 212 -268 0
-30 -213 269 0
-30 213 -269 0
-30 -214 270 0
-30 214 -270 0
-30 -215 271 0
-30 215 -271 0
-30 -216 272 0
-30 216 -272 0
-30 -217 273 0
-30 217 -273 0
-30 -218 274 0
-30 218 -274 0
-30 -219 275 0
-30 219 -275 0
-30 -220 276 0
-30 220 -276 0
-30 -199 201 0
-30 199 -201 0
-30 -213 215 0
-30 213 -215 0
-30 -227 229 0
-30 227 -229 0
-30 -241 243 0
-30 241 -243 0
-30 -255 257 0
-30 255 -257 0
-30 -269 271 0
-30 269 -271 0
-30 -283 285 0
-30 283 -285 0
-30 -297 299 0
-30 297 -299 0
-1 -57 90 0
-1 57 -90 0
-1 -58 91 0
-1 58 -91 0
-1 -59 92 0
-1 59 -92 0
-1 -44 55 0
-1 44 -55 0
-1 -96 107 0
-1 96 -107 0
-1 -109 120 0
-1 109 -120 0
-1 -122 144 0
-1 122 -144 0
-1 -123 145 0
-1 123 -145 0
-1 -417 428 0
-1 417 -428 0
-1 -193 204 0
-1 193 -204 0
-1 -207 218 0
-1 207 -218 0
-1 -221 232 0
-1 221 -232 0
-1 -235 246 0
-1 235 -246 0
-1 -249 260 0
-1 249 -260 0
-1 -263 274 0
-1 263 -274 0
-1 -277 288 0
-1 277 -288 0
-1 -291 302 0
-1 291 -302 0
-3 -57 84 0
-3 57 -84 0
-3 -58 85 0
-3 58 -85 0
-3 -59 86 0
-3 59 -86 0
-3 -44 53 0
-3 44 -53 0
-3 -96 105 0
-3 96 -105 0
-3 -109 118 0
-3 109 -118 0
-3 -122 140 0
-3 122 -140 0
-3 -123 141 0
-3 123 -141 0
-3 -417 426 0
-3 417 -426 0
-3 -193 202 0
-3 193 -202 0
-3 -207 216 0
-3 207 -216 0
-3 -221 230 0
-3 221 -230 0
-3 -235 244 0
-3 235 -244 0
-3 -249 258 0
-3 249 -258 0
-3 -263 272 0
-3 263 -272 0
-3 -277 286 0
-3 277 -286 0
-3 -291 300 0
-3 291 -300 0
-42 -66 87 0
-42 66 -87 0
-42 -67 88 0
-42 67 -88 0
-42 -68 89 0
-42 68 -89 0
-42 -47 54 0
-42 47 -54 0
-42 -99 106 0
-42 99 -106 0
-42 -112 119 0
-42 112 -119 0
-42 -128 142 0
-42 128 -142 0
-42 -129 143 0
-42 129 -143 0
-42 -420 427 0
-42 420 -427 0
-42 -478 484 0
-42 478 -484 0
-42 -487 493 0
-42 487 -493 0
-42 -496 502 0
-42 496 -502 0
-42 -505 511 0
-42 505 -511 0
-42 -221 291 0
-42 221 -291 0
-42 -222 292 0
-42 222 -292 0
-42 -223 293 0
-42 223 -293 0
-42 -224 294 0
-42 224 -294 0
-42 -225 295 0
-42 225 -295 0
-42 -226 296 0
-42 226 -296 0
-42 -227 297 0
-42 227 -297 0
-42 -228 298 0
-42 228 -298 0
-42 -229 299 0
-42 229 -299 0
-42 -230 300 0
-42 230 -300 0
-42 -231 301 0
-42 231 -301 0
-42 -232 302 0
-42 232 -302 0
-42 -233 303 0
-42 233 -303 0
-42 -234 304 0
-42 234 -304 0
-42 -196 203 0
-42 196 -203 0
-42 -210 217 0
-42 210 -217 0
-42 -224 231 0
-42 224 -231 0
-42 -238 245 0
-42 238 -245 0
-42 -252 259 0
-42 252 -259 0
-42 -266 273 0
-42 266 -273 0
-42 -280 287 0
-42 280 -287 0
-42 -294 301 0
-42 294 -301 0
-6 -57 87 0
-6 57 -87 0
-6 -58 88 0
-6 58 -88 0
-6 -59 89 0
-6 59 -89 0
-6 -44 54 0
-6 44 -54 0
-6 -96 106 0
-6 96 -106 0
-6 -109 119 0
-6 109 -119 0
-6 -122 142 0
-6 122 -142 0
-6 -123 143 0
-6 123 -143 0
-6 -417 427 0
-6 417 -427 0
-6 -193 203 0
-6 193 -203 0
-6 -207 217 0
-6 207 -217 0
-6 -221 231 0
-6 221 -231 0
-6 -235 245 0
-6 235 -245 0
-6 -249 259 0
-6 249 -259 0
-6 -263 273 0
-6 263 -273 0
-6 -277 287 0
-6 277 -287 0
-6 -291 301 0
-6 291 -301 0
-31 -78 81 0
-31 78 -81 0
-31 -79 82 0
-31 79 -82 0
-31 -80 83 0
-31 80 -83 0
-31 -51 52 0
-31 51 -52 0
-31 -103 104 0
-31 103 -104 0
-31 -116 117 0
-31 116 -117 0
-31 -136 138 0
-31 136 -138 0
-31 -137 139 0
-31 137 -139 0
-31 -424 425 0
-31 424 -425 0
-31 -249 263 0
-31 249 -263 0
-31 -250 264 0
-31 250 -264 0
-31 -251 265 0
-31 251 -265 0
-31 -252 266 0
-31 252 -266 0
-31 -253 267 0
-31 253 -267 0
-31 -254 268 0
-31 254 -268 0
-31 -255 269 0
-31 255 -269 0
-31 -256 270 0
-31 256 -270 0
-31 -257 271 0
-31 257 -271 0
-31 -258 272 0
-31 258 -272 0
-31 -259 273 0
-31 259 -273 0
-31 -260 274 0
-31 260 -274 0
-31 -261 275 0
-31 261 -275 0
-31 -262 276 0
-31 262 -276 0
-31 -200 201 0
-31 200 -201 0
-31 -214 215 0
-31 214 -215 0
-31 -228 229 0
-31 228 -229 0
-31 -242 243 0
-31 242 -243 0
-31 -256 257 0
-31 256 -257 0
-31 -270 271 0
-31 270 -271 0
-31 -284 285 0
-31 284 -285 0
-31 -298 299 0
-31 298 -299 0
-15 -63 90 0
-15 63 -90 0
-15 -64 91 0
-15 64 -91 0
-15 -65 92 0
-15 65 -92 0
-15 -46 55 0
-15 46 -55 0
-15 -98 107 0
-15 98 -107 0
-15 -111 120 0
-15 111 -120 0
-15 -126 144 0
-15 126 -144 0
-15 -127 145 0
-15 127 -145 0
-15 -419 428 0
-15 419 -428 0
-15 -195 204 0
-15 195 -204 0
-15 -209 218 0
-15 209 -218 0
-15 -223 232 0
-15 223 -232 0
-15 -237 246 0
-15 237 -246 0
-15 -251 260 0
-15 251 -260 0
-15 -265 274 0
-15 265 -274 0
-15 -279 288 0
-15 279 -288 0
-15 -293 302 0
-15 293 -302 0
-5 -57 75 0
-5 57 -75 0
-5 -58 76 0
-5 58 -76 0
-5 -59 77 0
-5 59 -77 0
-5 -44 50 0
-5 44 -50 0
-5 -96 102 0
-5 96 -102 0
-5 -109 115 0
-5 109 -115 0
-5 -122 134 0
-5 122 -134 0
-5 -123 135 0
-5 123 -135 0
-5 -417 423 0
-5 417 -423 0
-5 -193 199 0
-5 193 -199 0
-5 -207 213 0
-5 207 -213 0
-5 -221 227 0
-5 221 -227 0
-5 -235 241 0
-5 235 -241 0
-5 -249 255 0
-5 249 -255 0
-5 -263 269 0
-5 263 -269 0
-5 -277 283 0
-5 277 -283 0
-5 -291 297 0
-5 291 -297 0
-39 -75 87 0
-39 75 -87 0
-39 -76 88 0
-39 76 -88 0
-39 -77 89 0
-39 77 -89 0
-39 -50 54 0
-39 50 -54 0
-39 -102 106 0
-39 102 -106 0
-39 -115 119 0
-39 115 -119 0
-39 -134 142 0
-39 134 -142 0
-39 -135 143 0
-39 135 -143 0
-39 -423 427 0
-39 423 -427 0
-39 -481 484 0
-39 481 -484 0
-39 -490 493 0
-39 490 -493 0
-39 -499 502 0
-39 499 -502 0
-39 -508 511 0
-39 508 -511 0
-39 -207 291 0
-39 207 -291 0
-39 -208 292 0
-39 208 -292 0
-39 -209 293 0
-39 209 -293 0
-39 -210 294 0
-39 210 -294 0
-39 -211 295 0
-39 211 -295 0
-39 -212 296 0
-39 212 -296 0
-39 -213 297 0
-39 213 -297 0
-39 -214 298 0
-39 214 -298 0
-39 -215 299 0
-39 215 -299 0
-39 -216 300 0
-39 216 -300 0
-39 -217 301 0
-39 217 -301 0
-39 -218 302 0
-39 218 -302 0
-39 -219 303 0
-39 219 -303 0
-39 -220 304 0
-39 220 -304 0
-39 -199 203 0
-39 199 -203 0
-39 -213 217 0
-39 213 -217 0
-39 -227 231 0
-39 227 -231 0
-39 -241 245 0
-39 241 -245 0
-39 -255 259 0
-39 255 -259 0
-39 -269 273 0
-39 269 -273 0
-39 -283 287 0
-39 283 -287 0
-39 -297 301 0
-39 297 -301 0
-19 -90 75 0
-19 90 -75 0
-19 -91 76 0
-19 91 -76 0
-19 -92 77 0
-19 92 -77 0
-19 -55 50 0
-19 55 -50 0
-19 -107 102 0
-19 107 -102 0
-19 -120 115 0
-19 120 -115 0
-19 -144 134 0
-19 144 -134 0
-19 -145 135 0
-19 145 -135 0
-19 -428 423 0
-19 428 -423 0
-19 -485 481 0
-19 485 -481 0
-19 -494 490 0
-19 494 -490 0
-19 -503 499 0
-19 503 -499 0
-19 -512 508 0
-19 512 -508 0
-19 -204 199 0
-19 204 -199 0
-19 -218 213 0
-19 218 -213 0
-19 -232 227 0
-19 232 -227 0
-19 -246 241 0
-19 246 -241 0
-19 -260 255 0
-19 260 -255 0
-19 -274 269 0
-19 274 -269 0
-19 -288 283 0
-19 288 -283 0
-19 -302 297 0
-19 302 -297 0
-34 -75 84 0
-34 75 -84 0
-34 -76 85 0
-34 76 -85 0
-34 -77 86 0
-34 77 -86 0
-34 -50 53 0
-34 50 -53 0
-34 -102 105 0
-34 102 -105 0
-34 -115 118 0
-34 115 -118 0
-34 -134 140 0
-34 134 -140 0
-34 -135 141 0
-34 135 -141 0
-34 -423 426 0
-34 423 -426 0
-34 -481 483 0
-34 481 -483 0
-34 -490 492 0
-34 490 -492 0
-34 -499 501 0
-34 499 -501 0
-34 -508 510 0
-34 508 -510 0
-34 -207 277 0
-34 207 -277 0
-34 -208 278 0
-34 208 -278 0
-34 -209 279 0
-34 209 -279 0
-34 -210 280 0
-34 210 -280 0
-34 -211 281 0
-34 211 -281 0
-34 -212 282 0
-34 212 -282 0
-34 -213 283 0
-34 213 -283 0
-34 -214 284 0
-34 214 -284 0
-34 -215 285 0
-34 215 -285 0
-34 -216 286 0
-34 216 -286 0
-34 -217 287 0
-34 217 -287 0
-34 -218 288 0
-34 218 -288 0
-34 -219 289 0
-34 219 -289 0
-34 -220 290 0
-34 220 -290 0
-34 -199 202 0
-34 199 -202 0
-34 -213 216 0
-34 213 -216 0
-34 -227 230 0
-34 227 -230 0
-34 -241 244 0
-34 241 -244 0
-34 -255 258 0
-34 255 -258 0
-34 -269 272 0
-34 269 -272 0
-34 -283 286 0
-34 283 -286 0
-34 -297 300 0
-34 297 -300 0
-10 -60 69 0
-10 60 -69 0
-10 -61 70 0
-10 61 -70 0
-10 -62 71 0
-10 62 -71 0
-10 -45 48 0
-10 45 -48 0
-10 -97 100 0
-10 97 -100 0
-10 -110 113 0
-10 110 -113 0
-10 -124 130 0
-10 124 -130 0
-10 -125 131 0
-10 125 -131 0
-10 -418 421 0
-10 418 -421 0
-10 -194 197 0
-10 194 -197 0
-10 -208 211 0
-10 208 -211 0
-10 -222 225 0
-10 222 -225 0
-10 -236 239 0
-10 236 -239 0
-10 -250 253 0
-10 250 -253 0
-10 -264 267 0
-10 264 -267 0
-10 -278 281 0
-10 278 -281 0
-10 -292 295 0
-10 292 -295 0
-26 -93 72 0
-26 93 -72 0
-26 -94 73 0
-26 94 -73 0
-26 -95 74 0
-26 95 -74 0
-26 -56 49 0
-26 56 -49 0
-26 -108 101 0
-26 108 -101 0
-26 -121 114 0
-26 121 -114 0
-26 -146 132 0
-26 146 -132 0
-26 -147 133 0
-26 147 -133 0
-26 -429 422 0
-26 429 -422 0
-26 -486 480 0
-26 486 -480 0
-26 -495 489 0
-26 495 -489 0
-26 -504 498 0
-26 504 -498 0
-26 -513 507 0
-26 513 -507 0
-26 -205 198 0
-26 205 -198 0
-26 -219 212 0
-26 219 -212 0
-26 -233 226 0
-26 233 -226 0
-26 -247 240 0
-26 247 -240 0
-26 -261 254 0
-26 261 -254 0
-26 -275 268 0
-26 275 -268 0
-26 -289 282 0
-26 289 -282 0
-26 -303 296 0
-26 303 -296 0
-9 -66 57 0
-9 66 -57 0
-9 -67 58 0
-9 67 -58 0
-9 -68 59 0
-9 68 -59 0
-9 -47 44 0
-9 47 -44 0
-9 -99 96 0
-9 99 -96 0
-9 -112 109 0
-9 112 -109 0
-9 -128 122 0
-9 128 -122 0
-9 -129 123 0
-9 129 -123 0
-9 -420 417 0
-9 420 -417 0
-9 -196 193 0
-9 196 -193 0
-9 -210 207 0
-9 210 -207 0
-9 -224 221 0
-9 224 -221 0
-9 -238 235 0
-9 238 -235 0
-9 -252 249 0
-9 252 -249 0
-9 -266 263 0
-9 266 -263 0
-9 -280 277 0
-9 280 -277 0
-9 -294 291 0
-9 294 -291 0
-37 -66 84 0
-37 66 -84 0
-37 -67 85 0
-37 67 -85 0
-37 -68 86 0
-37 68 -86 0
-37 -47 53 0
-37 47 -53 0
-37 -99 105 0
-37 99 -105 0
-37 -112 118 0
-37 112 -118 0
-37 -128 140 0
-37 128 -140 0
-37 -129 141 0
-37 129 -141 0
-37 -420 426 0
-37 420 -426 0
-37 -478 483 0
-37 478 -483 0
-37 -487 492 0
-37 487 -492 0
-37 -496 501 0
-37 496 -501 0
-37 -505 510 0
-37 505 -510 0
-37 -221 277 0
-37 221 -277 0
-37 -222 278 0
-37 222 -278 0
-37 -223 279 0
-37 223 -279 0
-37 -224 280 0
-37 224 -280 0
-37 -225 281 0
-37 225 -281 0
-37 -226 282 0
-37 226 -282 0
-37 -227 283 0
-37 227 -283 0
-37 -228 284 0
-37 228 -284 0
-37 -229 285 0
-37 229 -285 0
-37 -230 286 0
-37 230 -286 0
-37 -231 287 0
-37 231 -287 0
-37 -232 288 0
-37 232 -288 0
-37 -233 289 0
-37 233 -289 0
-37 -234 290 0
-37 234 -290 0
-37 -196 202 0
-37 196 -202 0
-37 -210 216 0
-37 210 -216 0
-37 -224 230 0
-37 224 -230 0
-37 -238 244 0
-37 238 -244 0
-37 -252 258 0
-37 252 -258 0
-37 -266 272 0
-37 266 -272 0
-37 -280 286 0
-37 280 -286 0
-37 -294 300 0
-37 294 -300 0
-22 -66 90 0
-22 66 -90 0
-22 -67 91 0
-22 67 -91 0
-22 -68 92 0
-22 68 -92 0
-22 -47 55 0
-22 47 -55 0
-22 -99 107 0
-22 99 -107 0
-22 -112 120 0
-22 112 -120 0
-22 -128 144 0
-22 128 -144 0
-22 -129 145 0
-22 129 -145 0
-22 -420 428 0
-22 420 -428 0
-22 -478 485 0
-22 478 -485 0
-22 -487 494 0
-22 487 -494 0
-22 -496 503 0
-22 496 -503 0
-22 -505 512 0
-22 505 -512 0
-22 -196 204 0
-22 196 -204 0
-22 -210 218 0
-22 210 -218 0
-22 -224 232 0
-22 224 -232 0
-22 -238 246 0
-22 238 -246 0
-22 -252 260 0
-22 252 -260 0
-22 -266 274 0
-22 266 -274 0
-22 -280 288 0
-22 280 -288 0
-22 -294 302 0
-22 294 -302 0
-36 -78 84 0
-36 78 -84 0
-36 -79 85 0
-36 79 -85 0
-36 -80 86 0
-36 80 -86 0
-36 -51 53 0
-36 51 -53 0
-36 -103 105 0
-36 103 -105 0
-36 -116 118 0
-36 116 -118 0
-36 -136 140 0
-36 136 -140 0
-36 -137 141 0
-36 137 -141 0
-36 -424 426 0
-36 424 -426 0
-36 -482 483 0
-36 482 -483 0
-36 -491 492 0
-36 491 -492 0
-36 -500 501 0
-36 500 -501 0
-36 -509 510 0
-36 509 -510 0
-36 -249 277 0
-36 249 -277 0
-36 -250 278 0
-36 250 -278 0
-36 -251 279 0
-36 251 -279 0
-36 -252 280 0
-36 252 -280 0
-36 -253 281 0
-36 253 -281 0
-36 -254 282 0
-36 254 -282 0
-36 -255 283 0
-36 255 -283 0
-36 -256 284 0
-36 256 -284 0
-36 -257 285 0
-36 257 -285 0
-36 -258 286 0
-36 258 -286 0
-36 -259 287 0
-36 259 -287 0
-36 -260 288 0
-36 260 -288 0
-36 -261 289 0
-36 261 -289 0
-36 -262 290 0
-36 262 -290 0
-36 -200 202 0
-36 200 -202 0
-36 -214 216 0
-36 214 -216 0
-36 -228 230 0
-36 228 -230 0
-36 -242 244 0
-36 242 -244 0
-36 -256 258 0
-36 256 -258 0
-36 -270 272 0
-36 270 -272 0
-36 -284 286 0
-36 284 -286 0
-36 -298 300 0
-36 298 -300 0
-21 -78 90 0
-21 78 -90 0
-21 -79 91 0
-21 79 -91 0
-21 -80 92 0
-21 80 -92 0
-21 -51 55 0
-21 51 -55 0
-21 -103 107 0
-21 103 -107 0
-21 -116 120 0
-21 116 -120 0
-21 -136 144 0
-21 136 -144 0
-21 -137 145 0
-21 137 -145 0
-21 -424 428 0
-21 424 -428 0
-21 -482 485 0
-21 482 -485 0
-21 -491 494 0
-21 491 -494 0
-21 -500 503 0
-21 500 -503 0
-21 -509 512 0
-21 509 -512 0
-21 -200 204 0
-21 200 -204 0
-21 -214 218 0
-21 214 -218 0
-21 -228 232 0
-21 228 -232 0
-21 -242 246 0
-21 242 -246 0
-21 -256 260 0
-21 256 -260 0
-21 -270 274 0
-21 270 -274 0
-21 -284 288 0
-21 284 -288 0
-21 -298 302 0
-21 298 -302 0
-29 -69 81 0
-29 69 -81 0
-29 -70 82 0
-29 70 -82 0
-29 -71 83 0
-29 71 -83 0
-29 -48 52 0
-29 48 -52 0
-29 -100 104 0
-29 100 -104 0
-29 -113 117 0
-29 113 -117 0
-29 -130 138 0
-29 130 -138 0
-29 -131 139 0
-29 131 -139 0
-29 -421 425 0
-29 421 -425 0
-29 -193 263 0
-29 193 -263 0
-29 -194 264 0
-29 194 -264 0
-29 -195 265 0
-29 195 -265 0
-29 -196 266 0
-29 196 -266 0
-29 -197 267 0
-29 197 -267 0
-29 -198 268 0
-29 198 -268 0
-29 -199 269 0
-29 199 -269 0
-29 -200 270 0
-29 200 -270 0
-29 -201 271 0
-29 201 -271 0
-29 -202 272 0
-29 202 -272 0
-29 -203 273 0
-29 203 -273 0
-29 -204 274 0
-29 204 -274 0
-29 -205 275 0
-29 205 -275 0
-29 -206 276 0
-29 206 -276 0
-29 -197 201 0
-29 197 -201 0
-29 -211 215 0
-29 211 -215 0
-29 -225 229 0
-29 225 -229 0
-29 -239 243 0
-29 239 -243 0
-29 -253 257 0
-29 253 -257 0
-29 -267 271 0
-29 267 -271 0
-29 -281 285 0
-29 281 -285 0
-29 -295 299 0
-29 295 -299 0
-17 -90 81 0
-17 90 -81 0
-17 -91 82 0
-17 91 -82 0
-17 -92 83 0
-17 92 -83 0
-17 -55 52 0
-17 55 -52 0
-17 -107 104 0
-17 107 -104 0
-17 -120 117 0
-17 120 -117 0
-17 -144 138 0
-17 144 -138 0
-17 -145 139 0
-17 145 -139 0
-17 -428 425 0
-17 428 -425 0
-17 -204 201 0
-17 204 -201 0
-17 -218 215 0
-17 218 -215 0
-17 -232 229 0
-17 232 -229 0
-17 -246 243 0
-17 246 -243 0
-17 -260 257 0
-17 260 -257 0
-17 -274 271 0
-17 274 -271 0
-17 -288 285 0
-17 288 -285 0
-17 -302 299 0
-17 302 -299 0
-14 -60 66 0
-14 60 -66 0
-14 -61 67 0
-14 61 -67 0
-14 -62 68 0
-14 62 -68 0
-14 -45 47 0
-14 45 -47 0
-14 -97 99 0
-14 97 -99 0
-14 -110 112 0
-14 110 -112 0
-14 -124 128 0
-14 124 -128 0
-14 -125 129 0
-14 125 -129 0
-14 -418 420 0
-14 418 -420 0
-14 -194 196 0
-14 194 -196 0
-14 -208 210 0
-14 208 -210 0
-14 -222 224 0
-14 222 -224 0
-14 -236 238 0
-14 236 -238 0
-14 -250 252 0
-14 250 -252 0
-14 -264 266 0
-14 264 -266 0
-14 -278 280 0
-14 278 -280 0
-14 -292 294 0
-14 292 -294 0
-9 -37 3 0
-37 -3 9 0
-3 -9 37 0
-9 -42 6 0
-42 -6 9 0
-6 -9 42 0
-9 -22 1 0
-22 -1 9 0
-1 -9 22 0
-9 -28 2 0
-28 -2 9 0
-2 -9 28 0
-4 -33 3 0
-33 -3 4 0
-3 -4 33 0
-4 -38 6 0
-38 -6 4 0
-6 -4 38 0
-4 -18 1 0
-18 -1 4 0
-1 -4 18 0
-4 -24 2 0
-24 -2 4 0
-2 -4 24 0
-7 -35 3 0
-35 -3 7 0
-3 -7 35 0
-7 -40 6 0
-40 -6 7 0
-6 -7 40 0
-7 -20 1 0
-20 -1 7 0
-1 -7 20 0
-7 -26 2 0
-26 -2 7 0
-2 -7 26 0
-5 -34 3 0
-34 -3 5 0
-3 -5 34 0
-5 -39 6 0
-39 -6 5 0
-6 -5 39 0
-5 -19 1 0
-19 -1 5 0
-1 -5 19 0
-5 -25 2 0
-25 -2 5 0
-2 -5 25 0
-8 -36 3 0
-36 -3 8 0
-3 -8 36 0
-8 -41 6 0
-41 -6 8 0
-6 -8 41 0
-8 -21 1 0
-21 -1 8 0
-1 -8 21 0
-8 -27 2 0
-27 -2 8 0
-2 -8 27 0
-32 -17 22 0
-17 -22 32 0
-22 -32 17 0
-32 -23 28 0
-23 -28 32 0
-28 -32 23 0
-29 -17 18 0
-17 -18 29 0
-18 -29 17 0
-29 -23 24 0
-23 -24 29 0
-24 -29 23 0
-30 -17 19 0
-17 -19 30 0
-19 -30 17 0
-30 -23 25 0
-23 -25 30 0
-25 -30 23 0
-31 -17 21 0
-17 -21 31 0
-21 -31 17 0
-31 -23 27 0
-23 -27 31 0
-27 -31 23 0
-140 -142 -193 58 0
-140 -142 -195 64 0
-140 -142 -196 67 14 0
-140 -142 -197 70 10 0
-140 -142 -198 73 12 0
-140 -142 -199 76 11 0
-140 -142 -200 79 13 0
-140 -142 -201 82 0
-140 -142 -202 85 0
-140 -142 -203 88 0
-140 -142 -204 91 0
-140 -142 -205 94 0
-141 -143 -207 58 0
-141 -143 -209 64 0
-141 -143 -210 67 14 0
-141 -143 -211 70 10 0
-141 -143 -212 73 12 0
-141 -143 -213 76 11 0
-141 -143 -214 79 13 0
-141 -143 -215 82 0
-141 -143 -216 85 0
-141 -143 -217 88 0
-141 -143 -218 91 0
-141 -143 -219 94 0
-426 -427 -43 -193 58 0
-426 -427 43 -235 58 0
-426 -427 -43 -195 64 0
-426 -427 43 -237 64 0
-426 -427 -43 -196 67 14 0
-426 -427 43 -238 67 14 0
-426 -427 -43 -197 70 10 0
-426 -427 43 -239 70 10 0
-426 -427 -43 -198 73 12 0
-426 -427 43 -240 73 12 0
-426 -427 -43 -199 76 11 0
-426 -427 43 -241 76 11 0
-426 -427 -43 -200 79 13 0
-426 -427 43 -242 79 13 0
-426 -427 -43 -201 82 0
-426 -427 43 -243 82 0
-426 -427 -43 -202 85 0
-426 -427 43 -244 85 0
-426 -427 -43 -203 88 0
-426 -427 43 -245 88 0
-426 -427 -43 -204 91 0
-426 -427 43 -246 91 0
-426 -427 -43 -205 94 0
-426 -427 43 -247 94 0
-492 -493 0
-510 -511 0
-483 -484 -193 58 0
-501 -502 -207 58 0
-483 -484 -195 64 0
-501 -502 -209 64 0
-483 -484 -196 67 14 0
-501 -502 -210 67 14 0
-483 -484 -197 70 10 0
-501 -502 -211 70 10 0
-483 -484 -198 73 12 0
-501 -502 -212 73 12 0
-483 -484 -199 76 11 0
-501 -502 -213 76 11 0
-483 -484 -200 79 13 0
-501 -502 -214 79 13 0
-483 -484 -201 82 0
-501 -502 -215 82 0
-483 -484 -202 85 0
-501 -502 -216 85 0
-483 -484 -203 88 0
-501 -502 -217 88 0
-483 -484 -204 91 0
-501 -502 -218 91 0
-483 -484 -205 94 0
-501 -502 -219 94 0
-196 -478 0
-210 -496 0
-197 -479 0
-211 -497 0
-198 -480 0
-212 -498 0
-199 -481 0
-213 -499 0
-200 -482 0
-214 -500 0
-202 -483 0
-216 -501 0
-203 -484 0
-217 -502 0
-204 -485 0
-218 -503 0
-205 -486 0
-219 -504 0
-494 -15 0
-512 -15 0
-495 -16 0
-513 -16 0
-913 -478 128 0
-913 478 -128 0
913 -478 -128 0
-915 -496 129 0
-915 496 -129 0
915 -496 -129 0
-914 -487 112 0
914 -487 -112 0
-916 -505 112 0
916 -505 -112 0
-913 -479 130 0
-913 479 -130 0
913 -479 -130 0
-915 -497 131 0
-915 497 -131 0
915 -497 -131 0
-914 -488 113 0
914 -488 -113 0
-916 -506 113 0
916 -506 -113 0
-913 -480 132 0
-913 480 -132 0
913 -480 -132 0
-915 -498 133 0
-915 498 -133 0
915 -498 -133 0
-914 -489 114 0
914 -489 -114 0
-916 -507 114 0
916 -507 -114 0
-913 -481 134 0
-913 481 -134 0
913 -481 -134 0
-915 -499 135 0
-915 499 -135 0
915 -499 -135 0
-914 -490 115 0
914 -490 -115 0
-916 -508 115 0
916 -508 -115 0
-913 -482 136 0
-913 482 -136 0
913 -482 -136 0
-915 -500 137 0
-915 500 -137 0
915 -500 -137 0
-914 -491 116 0
914 -491 -116 0
-916 -509 116 0
916 -509 -116 0
-913 -483 140 0
-913 483 -140 0
913 -483 -140 0
-915 -501 141 0
-915 501 -141 0
915 -501 -141 0
-914 -492 118 0
914 -492 -118 0
-916 -510 118 0
916 -510 -118 0
-913 -484 142 0
-913 484 -142 0
913 -484 -142 0
-915 -502 143 0
-915 502 -143 0
915 -502 -143 0
-914 -493 119 0
914 -493 -119 0
-916 -511 119 0
916 -511 -119 0
-913 -485 144 0
-913 485 -144 0
913 -485 -144 0
-915 -503 145 0
-915 503 -145 0
915 -503 -145 0
-914 -494 120 0
914 -494 -120 0
-916 -512 120 0
916 -512 -120 0
-913 -486 146 0
-913 486 -146 0
913 -486 -146 0
-915 -504 147 0
-915 504 -147 0
915 -504 -147 0
-914 -495 121 0
914 -495 -121 0
-916 -513 121 0
916 -513 -121 0
-914 488 0
-916 506 0
-914 489 0
-916 507 0
-914 490 0
-916 508 0
-914 491 0
-916 509 0
917 918 919 920 0
-917 918 919 920 0
-918 917 919 920 0
-919 917 918 920 0
-920 917 918 919 0
-917 921 0
-918 923 0
-921 923 0
-918 -921 924 0
-922 924 0
-918 -922 0
-919 925 0
-923 925 0
-919 -923 926 0
-924 926 0
-919 -924 0
-920 927 0
-925 927 0
-920 -925 928 0
-926 928 0
-920 -926 0
-917 -84 0
-918 -87 0
-919 -90 0
-920 -93 0
650 0
680 0
733 0
