p cnf 551 18081
7 0
8 0
9 0
-10 0
-11 0
-12 1 0
-1 12 0
-13 2 0
-2 13 0
7 14 15 16 0
7 -14 -15 0
7 -14 -16 0
7 -15 -16 0
-7 -14 0
-7 -15 0
-7 -16 0
8 17 18 19 0
8 -17 -18 0
8 -17 -19 0
8 -18 -19 0
-8 -17 0
-8 -18 0
-8 -19 0
9 20 21 22 0
9 -20 -21 0
9 -20 -22 0
9 -21 -22 0
-9 -20 0
-9 -21 0
-9 -22 0
10 23 24 25 0
10 -23 -24 0
10 -23 -25 0
10 -24 -25 0
-10 -23 0
-10 -24 0
-10 -25 0
11 26 27 28 0
11 -26 -27 0
11 -26 -28 0
11 -27 -28 0
-11 -26 0
-11 -27 0
-11 -28 0
12 29 30 31 0
12 -29 -30 0
12 -29 -31 0
12 -30 -31 0
-12 -29 0
-12 -30 0
-12 -31 0
13 32 33 34 0
13 -32 -33 0
13 -32 -34 0
13 -33 -34 0
-13 -32 0
-13 -33 0
-13 -34 0
24 0
27 0
-29 0
-32 0
38 0
39 0
40 0
41 0
-36 0
48 0
51 0
-48 56 0
-50 60 0
-56 60 0
-50 -56 61 0
-57 61 0
-50 -57 62 0
-58 62 0
-50 -58 63 0
-59 63 0
-50 -59 0
-42 64 0
-60 64 0
-42 -60 65 0
-61 65 0
-42 -61 66 0
-62 66 0
-42 -62 67 0
-63 67 0
-42 -63 0
-44 68 0
-64 68 0
-44 -64 69 0
-65 69 0
-44 -65 70 0
-66 70 0
-44 -66 71 0
-67 71 0
-44 -67 0
-46 72 0
-68 72 0
-46 -68 73 0
-69 73 0
-46 -69 74 0
-70 74 0
-46 -70 75 0
-71 75 0
-46 -71 0
-49 76 0
-51 80 0
-76 80 0
-51 -76 81 0
-77 81 0
-51 -77 82 0
-78 82 0
-51 -78 83 0
-79 83 0
-51 -79 0
-43 84 0
-80 84 0
-43 -80 85 0
-81 85 0
-43 -81 86 0
-82 86 0
-43 -82 87 0
-83 87 0
-43 -83 0
-45 88 0
-84 88 0
-45 -84 89 0
-85 89 0
-45 -85 90 0
-86 90 0
-45 -86 91 0
-87 91 0
-45 -87 0
-47 92 0
-88 92 0
-47 -88 93 0
-89 93 0
-47 -89 94 0
-90 94 0
-47 -90 95 0
-91 95 0
-47 -91 0
-42 -44 -46 0
-43 -45 -47 0
96 97 0
-96 -50 0
-97 -49 0
98 99 100 101 102 103 104 105 0
-98 130 0
-99 131 0
-130 131 0
-99 -130 0
-100 132 0
-131 132 0
-100 -131 0
-101 133 0
-132 133 0
-101 -132 0
-102 134 0
-133 134 0
-102 -133 0
-103 135 0
-134 135 0
-103 -134 0
-104 136 0
-135 136 0
-104 -135 0
-105 137 0
-136 137 0
-105 -136 0
106 107 108 109 110 111 112 113 0
-106 138 0
-107 139 0
-138 139 0
-107 -138 0
-108 140 0
-139 140 0
-108 -139 0
-109 141 0
-140 141 0
-109 -140 0
-110 142 0
-141 142 0
-110 -141 0
-111 143 0
-142 143 0
-111 -142 0
-112 144 0
-143 144 0
-112 -143 0
-113 145 0
-144 145 0
-113 -144 0
114 115 116 117 118 119 120 121 0
-114 146 0
-115 147 0
-146 147 0
-115 -146 0
-116 148 0
-147 148 0
-116 -147 0
-117 149 0
-148 149 0
-117 -148 0
-118 150 0
-149 150 0
-118 -149 0
-119 151 0
-150 151 0
-119 -150 0
-120 152 0
-151 152 0
-120 -151 0
-121 153 0
-152 153 0
-121 -152 0
122 123 124 125 126 127 128 129 0
-122 154 0
-123 155 0
-154 155 0
-123 -154 0
-124 156 0
-155 156 0
-124 -155 0
-125 157 0
-156 157 0
-125 -156 0
-126 158 0
-157 158 0
-126 -157 0
-127 159 0
-158 159 0
-127 -158 0
-128 160 0
-159 160 0
-128 -159 0
-129 161 0
-160 161 0
-129 -160 0
-101 0
-110 0
-119 0
-128 0
-4 -118 0
-4 -111 0
-6 -126 0
-6 -112 0
-1 -114 0
-3 -117 0
-3 -103 0
-5 -125 0
-5 -104 0
-2 -122 0
-98 0
-99 0
-100 0
-106 0
-107 0
-108 0
-114 0
-115 0
-116 0
-122 0
-123 0
-124 0
-98 -106 0
-99 -107 0
-100 -108 0
-101 -109 0
-102 -110 0
-103 -111 0
-104 -112 0
-98 -42 0
-106 -43 0
-99 -44 0
-107 -45 0
-100 -46 0
-108 -47 0
-101 -48 0
-109 -49 0
-102 -50 0
-110 -51 0
-103 -52 0
-111 -53 0
-104 -54 0
-112 -55 0
-162 0
-163 0
-164 0
-98 162 0
-99 163 0
-100 164 0
-101 165 0
-102 166 0
-103 167 0
-104 168 0
-106 162 0
-107 163 0
-108 164 0
-109 165 0
-110 166 0
-111 167 0
-112 168 0
-114 162 0
-115 163 0
-116 164 0
-117 165 0
-118 166 0
-119 167 0
-120 168 0
-122 162 0
-123 163 0
-124 164 0
-125 165 0
-126 166 0
-127 167 0
-128 168 0
-171 0
-174 0
-181 175 0
-181 176 0
-175 -176 181 0
-182 177 0
-182 178 0
-177 -178 182 0
183 184 0
185 186 0
187 188 0
189 190 0
191 192 193 194 195 196 197 198 199 200 201 202 203 204 205 206 207 208 209 210 211 212 213 214 215 0
-191 216 0
-192 217 0
-216 217 0
-192 -216 0
-193 218 0
-217 218 0
-193 -217 0
-194 219 0
-218 219 0
-194 -218 0
-195 220 0
-219 220 0
-195 -219 0
-196 221 0
-220 221 0
-196 -220 0
-197 222 0
-221 222 0
-197 -221 0
-198 223 0
-222 223 0
-198 -222 0
-199 224 0
-223 224 0
-199 -223 0
-200 225 0
-224 225 0
-200 -224 0
-201 226 0
-225 226 0
-201 -225 0
-202 227 0
-226 227 0
-202 -226 0
-203 228 0
-227 228 0
-203 -227 0
-204 229 0
-228 229 0
-204 -228 0
-205 230 0
-229 230 0
-205 -229 0
-206 231 0
-230 231 0
-206 -230 0
-207 232 0
-231 232 0
-207 -231 0
-208 233 0
-232 233 0
-208 -232 0
-209 234 0
-233 234 0
-209 -233 0
-210 235 0
-234 235 0
-210 -234 0
-211 236 0
-235 236 0
-211 -235 0
-212 237 0
-236 237 0
-212 -236 0
-213 238 0
-237 238 0
-213 -237 0
-214 239 0
-238 239 0
-214 -238 0
-215 240 0
-239 240 0
-215 -239 0
241 242 243 244 245 246 247 248 249 250 251 252 253 254 255 256 257 258 259 260 261 262 263 264 265 0
-241 266 0
-242 267 0
-266 267 0
-242 -266 0
-243 268 0
-267 268 0
-243 -267 0
-244 269 0
-268 269 0
-244 -268 0
-245 270 0
-269 270 0
-245 -269 0
-246 271 0
-270 271 0
-246 -270 0
-247 272 0
-271 272 0
-247 -271 0
-248 273 0
-272 273 0
-248 -272 0
-249 274 0
-273 274 0
-249 -273 0
-250 275 0
-274 275 0
-250 -274 0
-251 276 0
-275 276 0
-251 -275 0
-252 277 0
-276 277 0
-252 -276 0
-253 278 0
-277 278 0
-253 -277 0
-254 279 0
-278 279 0
-254 -278 0
-255 280 0
-279 280 0
-255 -279 0
-256 281 0
-280 281 0
-256 -280 0
-257 282 0
-281 282 0
-257 -281 0
-258 283 0
-282 283 0
-258 -282 0
-259 284 0
-283 284 0
-259 -283 0
-260 285 0
-284 285 0
-260 -284 0
-261 286 0
-285 286 0
-261 -285 0
-262 287 0
-286 287 0
-262 -286 0
-263 288 0
-287 288 0
-263 -287 0
-264 289 0
-288 289 0
-264 -288 0
-265 290 0
-289 290 0
-265 -289 0
291 292 293 294 295 296 297 298 299 300 301 302 303 304 305 306 307 308 309 310 311 312 313 314 315 0
-291 316 0
-292 317 0
-316 317 0
-292 -316 0
-293 318 0
-317 318 0
-293 -317 0
-294 319 0
-318 319 0
-294 -318 0
-295 320 0
-319 320 0
-295 -319 0
-296 321 0
-320 321 0
-296 -320 0
-297 322 0
-321 322 0
-297 -321 0
-298 323 0
-322 323 0
-298 -322 0
-299 324 0
-323 324 0
-299 -323 0
-300 325 0
-324 325 0
-300 -324 0
-301 326 0
-325 326 0
-301 -325 0
-302 327 0
-326 327 0
-302 -326 0
-303 328 0
-327 328 0
-303 -327 0
-304 329 0
-328 329 0
-304 -328 0
-305 330 0
-329 330 0
-305 -329 0
-306 331 0
-330 331 0
-306 -330 0
-307 332 0
-331 332 0
-307 -331 0
-308 333 0
-332 333 0
-308 -332 0
-309 334 0
-333 334 0
-309 -333 0
-310 335 0
-334 335 0
-310 -334 0
-311 336 0
-335 336 0
-311 -335 0
-312 337 0
-336 337 0
-312 -336 0
-313 338 0
-337 338 0
-313 -337 0
-314 339 0
-338 339 0
-314 -338 0
-315 340 0
-339 340 0
-315 -339 0
341 342 343 344 345 346 347 348 349 350 351 352 353 354 355 356 357 358 359 360 361 362 363 364 365 0
-341 366 0
-342 367 0
-366 367 0
-342 -366 0
-343 368 0
-367 368 0
-343 -367 0
-344 369 0
-368 369 0
-344 -368 0
-345 370 0
-369 370 0
-345 -369 0
-346 371 0
-370 371 0
-346 -370 0
-347 372 0
-371 372 0
-347 -371 0
-348 373 0
-372 373 0
-348 -372 0
-349 374 0
-373 374 0
-349 -373 0
-350 375 0
-374 375 0
-350 -374 0
-351 376 0
-375 376 0
-351 -375 0
-352 377 0
-376 377 0
-352 -376 0
-353 378 0
-377 378 0
-353 -377 0
-354 379 0
-378 379 0
-354 -378 0
-355 380 0
-379 380 0
-355 -379 0
-356 381 0
-380 381 0
-356 -380 0
-357 382 0
-381 382 0
-357 -381 0
-358 383 0
-382 383 0
-358 -382 0
-359 384 0
-383 384 0
-359 -383 0
-360 385 0
-384 385 0
-360 -384 0
-361 386 0
-385 386 0
-361 -385 0
-362 387 0
-386 387 0
-362 -386 0
-363 388 0
-387 388 0
-363 -387 0
-364 389 0
-388 389 0
-364 -388 0
-365 390 0
-389 390 0
-365 -389 0
391 392 393 394 395 396 397 398 399 400 401 402 403 404 405 406 407 408 409 410 411 412 413 414 415 0
-391 416 0
-392 417 0
-416 417 0
-392 -416 0
-393 418 0
-417 418 0
-393 -417 0
-394 419 0
-418 419 0
-394 -418 0
-395 420 0
-419 420 0
-395 -419 0
-396 421 0
-420 421 0
-396 -420 0
-397 422 0
-421 422 0
-397 -421 0
-398 423 0
-422 423 0
-398 -422 0
-399 424 0
-423 424 0
-399 -423 0
-400 425 0
-424 425 0
-400 -424 0
-401 426 0
-425 426 0
-401 -425 0
-402 427 0
-426 427 0
-402 -426 0
-403 428 0
-427 428 0
-403 -427 0
-404 429 0
-428 429 0
-404 -428 0
-405 430 0
-429 430 0
-405 -429 0
-406 431 0
-430 431 0
-406 -430 0
-407 432 0
-431 432 0
-407 -431 0
-408 433 0
-432 433 0
-408 -432 0
-409 434 0
-433 434 0
-409 -433 0
-410 435 0
-434 435 0
-410 -434 0
-411 436 0
-435 436 0
-411 -435 0
-412 437 0
-436 437 0
-412 -436 0
-413 438 0
-437 438 0
-413 -437 0
-414 439 0
-438 439 0
-414 -438 0
-415 440 0
-439 440 0
-415 -439 0
441 442 443 444 445 446 447 448 449 450 451 452 453 454 455 456 457 458 459 460 461 462 463 464 465 0
-441 466 0
-442 467 0
-466 467 0
-442 -466 0
-443 468 0
-467 468 0
-443 -467 0
-444 469 0
-468 469 0
-444 -468 0
-445 470 0
-469 470 0
-445 -469 0
-446 471 0
-470 471 0
-446 -470 0
-447 472 0
-471 472 0
-447 -471 0
-448 473 0
-472 473 0
-448 -472 0
-449 474 0
-473 474 0
-449 -473 0
-450 475 0
-474 475 0
-450 -474 0
-451 476 0
-475 476 0
-451 -475 0
-452 477 0
-476 477 0
-452 -476 0
-453 478 0
-477 478 0
-453 -477 0
-454 479 0
-478 479 0
-454 -478 0
-455 480 0
-479 480 0
-455 -479 0
-456 481 0
-480 481 0
-456 -480 0
-457 482 0
-481 482 0
-457 -481 0
-458 483 0
-482 483 0
-458 -482 0
-459 484 0
-483 484 0
-459 -483 0
-460 485 0
-484 485 0
-460 -484 0
-461 486 0
-485 486 0
-461 -485 0
-462 487 0
-486 487 0
-462 -486 0
-463 488 0
-487 488 0
-463 -487 0
-464 489 0
-488 489 0
-464 -488 0
-465 490 0
-489 490 0
-465 -489 0
491 492 493 494 495 496 497 498 499 500 501 502 503 504 505 506 507 508 509 510 511 512 513 514 515 0
-491 516 0
-492 517 0
-516 517 0
-492 -516 0
-493 518 0
-517 518 0
-493 -517 0
-494 519 0
-518 519 0
-494 -518 0
-495 520 0
-519 520 0
-495 -519 0
-496 521 0
-520 521 0
-496 -520 0
-497 522 0
-521 522 0
-497 -521 0
-498 523 0
-522 523 0
-498 -522 0
-499 524 0
-523 524 0
-499 -523 0
-500 525 0
-524 525 0
-500 -524 0
-501 526 0
-525 526 0
-501 -525 0
-502 527 0
-526 527 0
-502 -526 0
-503 528 0
-527 528 0
-503 -527 0
-504 529 0
-528 529 0
-504 -528 0
-505 530 0
-529 530 0
-505 -529 0
-506 531 0
-530 531 0
-506 -530 0
-507 532 0
-531 532 0
-507 -531 0
-508 533 0
-532 533 0
-508 -532 0
-509 534 0
-533 534 0
-509 -533 0
-510 535 0
-534 535 0
-510 -534 0
-511 536 0
-535 536 0
-511 -535 0
-512 537 0
-536 537 0
-512 -536 0
-513 538 0
-537 538 0
-513 -537 0
-514 539 0
-538 539 0
-514 -538 0
-515 540 0
-539 540 0
-515 -539 0
-191 -241 -291 344 0
-191 -241 -292 345 0
-191 -241 -293 346 0
-191 -241 -294 347 0
-191 -241 -295 348 0
-191 -241 -296 349 0
-191 -241 -297 350 0
-191 -241 -298 351 0
-191 -241 -299 352 0
-191 -241 -300 353 0
-191 -241 -301 354 0
-191 -241 -302 355 0
-191 -241 -303 356 0
-191 -241 -304 357 0
-191 -241 -305 358 0
-191 -241 -306 359 0
-191 -241 -307 360 0
-191 -241 -308 361 0
-191 -241 -309 362 0
-191 -241 -310 363 0
-191 -241 -311 364 0
-191 -241 -312 365 0
-191 -241 -313 0
-191 -241 -314 0
-191 -241 -315 0
-191 -242 -291 345 0
-191 -242 -292 346 0
-191 -242 -293 347 0
-191 -242 -294 348 0
-191 -242 -295 349 0
-191 -242 -296 350 0
-191 -242 -297 351 0
-191 -242 -298 352 0
-191 -242 -299 353 0
-191 -242 -300 354 0
-191 -242 -301 355 0
-191 -242 -302 356 0
-191 -242 -303 357 0
-191 -242 -304 358 0
-191 -242 -305 359 0
-191 -242 -306 360 0
-191 -242 -307 361 0
-191 -242 -308 362 0
-191 -242 -309 363 0
-191 -242 -310 364 0
-191 -242 -311 365 0
-191 -242 -312 0
-191 -242 -313 0
-191 -242 -314 0
-191 -242 -315 0
-191 -243 -291 346 0
-191 -243 -292 347 0
-191 -243 -293 348 0
-191 -243 -294 349 0
-191 -243 -295 350 0
-191 -243 -296 351 0
-191 -243 -297 352 0
-191 -243 -298 353 0
-191 -243 -299 354 0
-191 -243 -300 355 0
-191 -243 -301 356 0
-191 -243 -302 357 0
-191 -243 -303 358 0
-191 -243 -304 359 0
-191 -243 -305 360 0
-191 -243 -306 361 0
-191 -243 -307 362 0
-191 -243 -308 363 0
-191 -243 -309 364 0
-191 -243 -310 365 0
-191 -243 -311 0
-191 -243 -312 0
-191 -243 -313 0
-191 -243 -314 0
-191 -243 -315 0
-191 -244 -291 347 0
-191 -244 -292 348 0
-191 -244 -293 349 0
-191 -244 -294 350 0
-191 -244 -295 351 0
-191 -244 -296 352 0
-191 -244 -297 353 0
-191 -244 -298 354 0
-191 -244 -299 355 0
-191 -244 -300 356 0
-191 -244 -301 357 0
-191 -244 -302 358 0
-191 -244 -303 359 0
-191 -244 -304 360 0
-191 -244 -305 361 0
-191 -244 -306 362 0
-191 -244 -307 363 0
-191 -244 -308 364 0
-191 -244 -309 365 0
-191 -244 -310 0
-191 -244 -311 0
-191 -244 -312 0
-191 -244 -313 0
-191 -244 -314 0
-191 -244 -315 0
-191 -245 -291 348 0
-191 -245 -292 349 0
-191 -245 -293 350 0
-191 -245 -294 351 0
-191 -245 -295 352 0
-191 -245 -296 353 0
-191 -245 -297 354 0
-191 -245 -298 355 0
-191 -245 -299 356 0
-191 -245 -300 357 0
-191 -245 -301 358 0
-191 -245 -302 359 0
-191 -245 -303 360 0
-191 -245 -304 361 0
-191 -245 -305 362 0
-191 -245 -306 363 0
-191 -245 -307 364 0
-191 -245 -308 365 0
-191 -245 -309 0
-191 -245 -310 0
-191 -245 -311 0
-191 -245 -312 0
-191 -245 -313 0
-191 -245 -314 0
-191 -245 -315 0
-191 -246 -291 349 0
-191 -246 -292 350 0
-191 -246 -293 351 0
-191 -246 -294 352 0
-191 -246 -295 353 0
-191 -246 -296 354 0
-191 -246 -297 355 0
-191 -246 -298 356 0
-191 -246 -299 357 0
-191 -246 -300 358 0
-191 -246 -301 359 0
-191 -246 -302 360 0
-191 -246 -303 361 0
-191 -246 -304 362 0
-191 -246 -305 363 0
-191 -246 -306 364 0
-191 -246 -307 365 0
-191 -246 -308 0
-191 -246 -309 0
-191 -246 -310 0
-191 -246 -311 0
-191 -246 -312 0
-191 -246 -313 0
-191 -246 -314 0
-191 -246 -315 0
-191 -247 -291 350 0
-191 -247 -292 351 0
-191 -247 -293 352 0
-191 -247 -294 353 0
-191 -247 -295 354 0
-191 -247 -296 355 0
-191 -247 -297 356 0
-191 -247 -298 357 0
-191 -247 -299 358 0
-191 -247 -300 359 0
-191 -247 -301 360 0
-191 -247 -302 361 0
-191 -247 -303 362 0
-191 -247 -304 363 0
-191 -247 -305 364 0
-191 -247 -306 365 0
-191 -247 -307 0
-191 -247 -308 0
-191 -247 -309 0
-191 -247 -310 0
-191 -247 -311 0
-191 -247 -312 0
-191 -247 -313 0
-191 -247 -314 0
-191 -247 -315 0
-191 -248 -291 351 0
-191 -248 -292 352 0
-191 -248 -293 353 0
-191 -248 -294 354 0
-191 -248 -295 355 0
-191 -248 -296 356 0
-191 -248 -297 357 0
-191 -248 -298 358 0
-191 -248 -299 359 0
-191 -248 -300 360 0
-191 -248 -301 361 0
-191 -248 -302 362 0
-191 -248 -303 363 0
-191 -248 -304 364 0
-191 -248 -305 365 0
-191 -248 -306 0
-191 -248 -307 0
-191 -248 -308 0
-191 -248 -309 0
-191 -248 -310 0
-191 -248 -311 0
-191 -248 -312 0
-191 -248 -313 0
-191 -248 -314 0
-191 -248 -315 0
-191 -249 -291 352 0
-191 -249 -292 353 0
-191 -249 -293 354 0
-191 -249 -294 355 0
-191 -249 -295 356 0
-191 -249 -296 357 0
-191 -249 -297 358 0
-191 -249 -298 359 0
-191 -249 -299 360 0
-191 -249 -300 361 0
-191 -249 -301 362 0
-191 -249 -302 363 0
-191 -249 -303 364 0
-191 -249 -304 365 0
-191 -249 -305 0
-191 -249 -306 0
-191 -249 -307 0
-191 -249 -308 0
-191 -249 -309 0
-191 -249 -310 0
-191 -249 -311 0
-191 -249 -312 0
-191 -249 -313 0
-191 -249 -314 0
-191 -249 -315 0
-191 -250 -291 353 0
-191 -250 -292 354 0
-191 -250 -293 355 0
-191 -250 -294 356 0
-191 -250 -295 357 0
-191 -250 -296 358 0
-191 -250 -297 359 0
-191 -250 -298 360 0
-191 -250 -299 361 0
-191 -250 -300 362 0
-191 -250 -301 363 0
-191 -250 -302 364 0
-191 -250 -303 365 0
-191 -250 -304 0
-191 -250 -305 0
-191 -250 -306 0
-191 -250 -307 0
-191 -250 -308 0
-191 -250 -309 0
-191 -250 -310 0
-191 -250 -311 0
-191 -250 -312 0
-191 -250 -313 0
-191 -250 -314 0
-191 -250 -315 0
-191 -251 -291 354 0
-191 -251 -292 355 0
-191 -251 -293 356 0
-191 -251 -294 357 0
-191 -251 -295 358 0
-191 -251 -296 359 0
-191 -251 -297 360 0
-191 -251 -298 361 0
-191 -251 -299 362 0
-191 -251 -300 363 0
-191 -251 -301 364 0
-191 -251 -302 365 0
-191 -251 -303 0
-191 -251 -304 0
-191 -251 -305 0
-191 -251 -306 0
-191 -251 -307 0
-191 -251 -308 0
-191 -251 -309 0
-191 -251 -310 0
-191 -251 -311 0
-191 -251 -312 0
-191 -251 -313 0
-191 -251 -314 0
-191 -251 -315 0
-191 -252 -291 355 0
-191 -252 -292 356 0
-191 -252 -293 357 0
-191 -252 -294 358 0
-191 -252 -295 359 0
-191 -252 -296 360 0
-191 -252 -297 361 0
-191 -252 -298 362 0
-191 -252 -299 363 0
-191 -252 -300 364 0
-191 -252 -301 365 0
-191 -252 -302 0
-191 -252 -303 0
-191 -252 -304 0
-191 -252 -305 0
-191 -252 -306 0
-191 -252 -307 0
-191 -252 -308 0
-191 -252 -309 0
-191 -252 -310 0
-191 -252 -311 0
-191 -252 -312 0
-191 -252 -313 0
-191 -252 -314 0
-191 -252 -315 0
-191 -253 -291 356 0
-191 -253 -292 357 0
-191 -253 -293 358 0
-191 -253 -294 359 0
-191 -253 -295 360 0
-191 -253 -296 361 0
-191 -253 -297 362 0
-191 -253 -298 363 0
-191 -253 -299 364 0
-191 -253 -300 365 0
-191 -253 -301 0
-191 -253 -302 0
-191 -253 -303 0
-191 -253 -304 0
-191 -253 -305 0
-191 -253 -306 0
-191 -253 -307 0
-191 -253 -308 0
-191 -253 -309 0
-191 -253 -310 0
-191 -253 -311 0
-191 -253 -312 0
-191 -253 -313 0
-191 -253 -314 0
-191 -253 -315 0
-191 -254 -291 357 0
-191 -254 -292 358 0
-191 -254 -293 359 0
-191 -254 -294 360 0
-191 -254 -295 361 0
-191 -254 -296 362 0
-191 -254 -297 363 0
-191 -254 -298 364 0
-191 -254 -299 365 0
-191 -254 -300 0
-191 -254 -301 0
-191 -254 -302 0
-191 -254 -303 0
-191 -254 -304 0
-191 -254 -305 0
-191 -254 -306 0
-191 -254 -307 0
-191 -254 -308 0
-191 -254 -309 0
-191 -254 -310 0
-191 -254 -311 0
-191 -254 -312 0
-191 -254 -313 0
-191 -254 -314 0
-191 -254 -315 0
-191 -255 -291 358 0
-191 -255 -292 359 0
-191 -255 -293 360 0
-191 -255 -294 361 0
-191 -255 -295 362 0
-191 -255 -296 363 0
-191 -255 -297 364 0
-191 -255 -298 365 0
-191 -255 -299 0
-191 -255 -300 0
-191 -255 -301 0
-191 -255 -302 0
-191 -255 -303 0
-191 -255 -304 0
-191 -255 -305 0
-191 -255 -306 0
-191 -255 -307 0
-191 -255 -308 0
-191 -255 -309 0
-191 -255 -310 0
-191 -255 -311 0
-191 -255 -312 0
-191 -255 -313 0
-191 -255 -314 0
-191 -255 -315 0
-191 -256 -291 359 0
-191 -256 -292 360 0
-191 -256 -293 361 0
-191 -256 -294 362 0
-191 -256 -295 363 0
-191 -256 -296 364 0
-191 -256 -297 365 0
-191 -256 -298 0
-191 -256 -299 0
-191 -256 -300 0
-191 -256 -301 0
-191 -256 -302 0
-191 -256 -303 0
-191 -256 -304 0
-191 -256 -305 0
-191 -256 -306 0
-191 -256 -307 0
-191 -256 -308 0
-191 -256 -309 0
-191 -256 -310 0
-191 -256 -311 0
-191 -256 -312 0
-191 -256 -313 0
-191 -256 -314 0
-191 -256 -315 0
-191 -257 -291 360 0
-191 -257 -292 361 0
-191 -257 -293 362 0
-191 -257 -294 363 0
-191 -257 -295 364 0
-191 -257 -296 365 0
-191 -257 -297 0
-191 -257 -298 0
-191 -257 -299 0
-191 -257 -300 0
-191 -257 -301 0
-191 -257 -302 0
-191 -257 -303 0
-191 -257 -304 0
-191 -257 -305 0
-191 -257 -306 0
-191 -257 -307 0
-191 -257 -308 0
-191 -257 -309 0
-191 -257 -310 0
-191 -257 -311 0
-191 -257 -312 0
-191 -257 -313 0
-191 -257 -314 0
-191 -257 -315 0
-191 -258 -291 361 0
-191 -258 -292 362 0
-191 -258 -293 363 0
-191 -258 -294 364 0
-191 -258 -295 365 0
-191 -258 -296 0
-191 -258 -297 0
-191 -258 -298 0
-191 -258 -299 0
-191 -258 -300 0
-191 -258 -301 0
-191 -258 -302 0
-191 -258 -303 0
-191 -258 -304 0
-191 -258 -305 0
-191 -258 -306 0
-191 -258 -307 0
-191 -258 -308 0
-191 -258 -309 0
-191 -258 -310 0
-191 -258 -311 0
-191 -258 -312 0
-191 -258 -313 0
-191 -258 -314 0
-191 -258 -315 0
-191 -259 -291 362 0
-191 -259 -292 363 0
-191 -259 -293 364 0
-191 -259 -294 365 0
-191 -259 -295 0
-191 -259 -296 0
-191 -259 -297 0
-191 -259 -298 0
-191 -259 -299 0
-191 -259 -300 0
-191 -259 -301 0
-191 -259 -302 0
-191 -259 -303 0
-191 -259 -304 0
-191 -259 -305 0
-191 -259 -306 0
-191 -259 -307 0
-191 -259 -308 0
-191 -259 -309 0
-191 -259 -310 0
-191 -259 -311 0
-191 -259 -312 0
-191 -259 -313 0
-191 -259 -314 0
-191 -259 -315 0
-191 -260 -291 363 0
-191 -260 -292 364 0
-191 -260 -293 365 0
-191 -260 -294 0
-191 -260 -295 0
-191 -260 -296 0
-191 -260 -297 0
-191 -260 -298 0
-191 -260 -299 0
-191 -260 -300 0
-191 -260 -301 0
-191 -260 -302 0
-191 -260 -303 0
-191 -260 -304 0
-191 -260 -305 0
-191 -260 -306 0
-191 -260 -307 0
-191 -260 -308 0
-191 -260 -309 0
-191 -260 -310 0
-191 -260 -311 0
-191 -260 -312 0
-191 -260 -313 0
-191 -260 -314 0
-191 -260 -315 0
-191 -261 -291 364 0
-191 -261 -292 365 0
-191 -261 -293 0
-191 -261 -294 0
-191 -261 -295 0
-191 -261 -296 0
-191 -261 -297 0
-191 -261 -298 0
-191 -261 -299 0
-191 -261 -300 0
-191 -261 -301 0
-191 -261 -302 0
-191 -261 -303 0
-191 -261 -304 0
-191 -261 -305 0
-191 -261 -306 0
-191 -261 -307 0
-191 -261 -308 0
-191 -261 -309 0
-191 -261 -310 0
-191 -261 -311 0
-191 -261 -312 0
-191 -261 -313 0
-191 -261 -314 0
-191 -261 -315 0
-191 -262 -291 365 0
-191 -262 -292 0
-191 -262 -293 0
-191 -262 -294 0
-191 -262 -295 0
-191 -262 -296 0
-191 -262 -297 0
-191 -262 -298 0
-191 -262 -299 0
-191 -262 -300 0
-191 -262 -301 0
-191 -262 -302 0
-191 -262 -303 0
-191 -262 -304 0
-191 -262 -305 0
-191 -262 -306 0
-191 -262 -307 0
-191 -262 -308 0
-191 -262 -309 0
-191 -262 -310 0
-191 -262 -311 0
-191 -262 -312 0
-191 -262 -313 0
-191 -262 -314 0
-191 -262 -315 0
-191 -263 -291 0
-191 -263 -292 0
-191 -263 -293 0
-191 -263 -294 0
-191 -263 -295 0
-191 -263 -296 0
-191 -263 -297 0
-191 -263 -298 0
-191 -263 -299 0
-191 -263 -300 0
-191 -263 -301 0
-191 -263 -302 0
-191 -263 -303 0
-191 -263 -304 0
-191 -263 -305 0
-191 -263 -306 0
-191 -263 -307 0
-191 -263 -308 0
-191 -263 -309 0
-191 -263 -310 0
-191 -263 -311 0
-191 -263 -312 0
-191 -263 -313 0
-191 -263 -314 0
-191 -263 -315 0
-191 -264 -291 0
-191 -264 -292 0
-191 -264 -293 0
-191 -264 -294 0
-191 -264 -295 0
-191 -264 -296 0
-191 -264 -297 0
-191 -264 -298 0
-191 -264 -299 0
-191 -264 -300 0
-191 -264 -301 0
-191 -264 -302 0
-191 -264 -303 0
-191 -264 -304 0
-191 -264 -305 0
-191 -264 -306 0
-191 -264 -307 0
-191 -264 -308 0
-191 -264 -309 0
-191 -264 -310 0
-191 -264 -311 0
-191 -264 -312 0
-191 -264 -313 0
-191 -264 -314 0
-191 -264 -315 0
-191 -265 -291 0
-191 -265 -292 0
-191 -265 -293 0
-191 -265 -294 0
-191 -265 -295 0
-191 -265 -296 0
-191 -265 -297 0
-191 -265 -298 0
-191 -265 -299 0
-191 -265 -300 0
-191 -265 -301 0
-191 -265 -302 0
-191 -265 -303 0
-191 -265 -304 0
-191 -265 -305 0
-191 -265 -306 0
-191 -265 -307 0
-191 -265 -308 0
-191 -265 -309 0
-191 -265 -310 0
-191 -265 -311 0
-191 -265 -312 0
-191 -265 -313 0
-191 -265 -314 0
-191 -265 -315 0
-192 -241 -291 345 0
-192 -241 -292 346 0
-192 -241 -293 347 0
-192 -241 -294 348 0
-192 -241 -295 349 0
-192 -241 -296 350 0
-192 -241 -297 351 0
-192 -241 -298 352 0
-192 -241 -299 353 0
-192 -241 -300 354 0
-192 -241 -301 355 0
-192 -241 -302 356 0
-192 -241 -303 357 0
-192 -241 -304 358 0
-192 -241 -305 359 0
-192 -241 -306 360 0
-192 -241 -307 361 0
-192 -241 -308 362 0
-192 -241 -309 363 0
-192 -241 -310 364 0
-192 -241 -311 365 0
-192 -241 -312 0
-192 -241 -313 0
-192 -241 -314 0
-192 -241 -315 0
-192 -242 -291 346 0
-192 -242 -292 347 0
-192 -242 -293 348 0
-192 -242 -294 349 0
-192 -242 -295 350 0
-192 -242 -296 351 0
-192 -242 -297 352 0
-192 -242 -298 353 0
-192 -242 -299 354 0
-192 -242 -300 355 0
-192 -242 -301 356 0
-192 -242 -302 357 0
-192 -242 -303 358 0
-192 -242 -304 359 0
-192 -242 -305 360 0
-192 -242 -306 361 0
-192 -242 -307 362 0
-192 -242 -308 363 0
-192 -242 -309 364 0
-192 -242 -310 365 0
-192 -242 -311 0
-192 -242 -312 0
-192 -242 -313 0
-192 -242 -314 0
-192 -242 -315 0
-192 -243 -291 347 0
-192 -243 -292 348 0
-192 -243 -293 349 0
-192 -243 -294 350 0
-192 -243 -295 351 0
-192 -243 -296 352 0
-192 -243 -297 353 0
-192 -243 -298 354 0
-192 -243 -299 355 0
-192 -243 -300 356 0
-192 -243 -301 357 0
-192 -243 -302 358 0
-192 -243 -303 359 0
-192 -243 -304 360 0
-192 -243 -305 361 0
-192 -243 -306 362 0
-192 -243 -307 363 0
-192 -243 -308 364 0
-192 -243 -309 365 0
-192 -243 -310 0
-192 -243 -311 0
-192 -243 -312 0
-192 -243 -313 0
-192 -243 -314 0
-192 -243 -315 0
-192 -244 -291 348 0
-192 -244 -292 349 0
-192 -244 -293 350 0
-192 -244 -294 351 0
-192 -244 -295 352 0
-192 -244 -296 353 0
-192 -244 -297 354 0
-192 -244 -298 355 0
-192 -244 -299 356 0
-192 -244 -300 357 0
-192 -244 -301 358 0
-192 -244 -302 359 0
-192 -244 -303 360 0
-192 -244 -304 361 0
-192 -244 -305 362 0
-192 -244 -306 363 0
-192 -244 -307 364 0
-192 -244 -308 365 0
-192 -244 -309 0
-192 -244 -310 0
-192 -244 -311 0
-192 -244 -312 0
-192 -244 -313 0
-192 -244 -314 0
-192 -244 -315 0
-192 -245 -291 349 0
-192 -245 -292 350 0
-192 -245 -293 351 0
-192 -245 -294 352 0
-192 -245 -295 353 0
-192 -245 -296 354 0
-192 -245 -297 355 0
-192 -245 -298 356 0
-192 -245 -299 357 0
-192 -245 -300 358 0
-192 -245 -301 359 0
-192 -245 -302 360 0
-192 -245 -303 361 0
-192 -245 -304 362 0
-192 -245 -305 363 0
-192 -245 -306 364 0
-192 -245 -307 365 0
-192 -245 -308 0
-192 -245 -309 0
-192 -245 -310 0
-192 -245 -311 0
-192 -245 -312 0
-192 -245 -313 0
-192 -245 -314 0
-192 -245 -315 0
-192 -246 -291 350 0
-192 -246 -292 351 0
-192 -246 -293 352 0
-192 -246 -294 353 0
-192 -246 -295 354 0
-192 -246 -296 355 0
-192 -246 -297 356 0
-192 -246 -298 357 0
-192 -246 -299 358 0
-192 -246 -300 359 0
-192 -246 -301 360 0
-192 -246 -302 361 0
-192 -246 -303 362 0
-192 -246 -304 363 0
-192 -246 -305 364 0
-192 -246 -306 365 0
-192 -246 -307 0
-192 -246 -308 0
-192 -246 -309 0
-192 -246 -310 0
-192 -246 -311 0
-192 -246 -312 0
-192 -246 -313 0
-192 -246 -314 0
-192 -246 -315 0
-192 -247 -291 351 0
-192 -247 -292 352 0
-192 -247 -293 353 0
-192 -247 -294 354 0
-192 -247 -295 355 0
-192 -247 -296 356 0
-192 -247 -297 357 0
-192 -247 -298 358 0
-192 -247 -299 359 0
-192 -247 -300 360 0
-192 -247 -301 361 0
-192 -247 -302 362 0
-192 -247 -303 363 0
-192 -247 -304 364 0
-192 -247 -305 365 0
-192 -247 -306 0
-192 -247 -307 0
-192 -247 -308 0
-192 -247 -309 0
-192 -247 -310 0
-192 -247 -311 0
-192 -247 -312 0
-192 -247 -313 0
-192 -247 -314 0
-192 -247 -315 0
-192 -248 -291 352 0
-192 -248 -292 353 0
-192 -248 -293 354 0
-192 -248 -294 355 0
-192 -248 -295 356 0
-192 -248 -296 357 0
-192 -248 -297 358 0
-192 -248 -298 359 0
-192 -248 -299 360 0
-192 -248 -300 361 0
-192 -248 -301 362 0
-192 -248 -302 363 0
-192 -248 -303 364 0
-192 -248 -304 365 0
-192 -248 -305 0
-192 -248 -306 0
-192 -248 -307 0
-192 -248 -308 0
-192 -248 -309 0
-192 -248 -310 0
-192 -248 -311 0
-192 -248 -312 0
-192 -248 -313 0
-192 -248 -314 0
-192 -248 -315 0
-192 -249 -291 353 0
-192 -249 -292 354 0
-192 -249 -293 355 0
-192 -249 -294 356 0
-192 -249 -295 357 0
-192 -249 -296 358 0
-192 -249 -297 359 0
-192 -249 -298 360 0
-192 -249 -299 361 0
-192 -249 -300 362 0
-192 -249 -301 363 0
-192 -249 -302 364 0
-192 -249 -303 365 0
-192 -249 -304 0
-192 -249 -305 0
-192 -249 -306 0
-192 -249 -307 0
-192 -249 -308 0
-192 -249 -309 0
-192 -249 -310 0
-192 -249 -311 0
-192 -249 -312 0
-192 -249 -313 0
-192 -249 -314 0
-192 -249 -315 0
-192 -250 -291 354 0
-192 -250 -292 355 0
-192 -250 -293 356 0
-192 -250 -294 357 0
-192 -250 -295 358 0
-192 -250 -296 359 0
-192 -250 -297 360 0
-192 -250 -298 361 0
-192 -250 -299 362 0
-192 -250 -300 363 0
-192 -250 -301 364 0
-192 -250 -302 365 0
-192 -250 -303 0
-192 -250 -304 0
-192 -250 -305 0
-192 -250 -306 0
-192 -250 -307 0
-192 -250 -308 0
-192 -250 -309 0
-192 -250 -310 0
-192 -250 -311 0
-192 -250 -312 0
-192 -250 -313 0
-192 -250 -314 0
-192 -250 -315 0
-192 -251 -291 355 0
-192 -251 -292 356 0
-192 -251 -293 357 0
-192 -251 -294 358 0
-192 -251 -295 359 0
-192 -251 -296 360 0
-192 -251 -297 361 0
-192 -251 -298 362 0
-192 -251 -299 363 0
-192 -251 -300 364 0
-192 -251 -301 365 0
-192 -251 -302 0
-192 -251 -303 0
-192 -251 -304 0
-192 -251 -305 0
-192 -251 -306 0
-192 -251 -307 0
-192 -251 -308 0
-192 -251 -309 0
-192 -251 -310 0
-192 -251 -311 0
-192 -251 -312 0
-192 -251 -313 0
-192 -251 -314 0
-192 -251 -315 0
-192 -252 -291 356 0
-192 -252 -292 357 0
-192 -252 -293 358 0
-192 -252 -294 359 0
-192 -252 -295 360 0
-192 -252 -296 361 0
-192 -252 -297 362 0
-192 -252 -298 363 0
-192 -252 -299 364 0
-192 -252 -300 365 0
-192 -252 -301 0
-192 -252 -302 0
-192 -252 -303 0
-192 -252 -304 0
-192 -252 -305 0
-192 -252 -306 0
-192 -252 -307 0
-192 -252 -308 0
-192 -252 -309 0
-192 -252 -310 0
-192 -252 -311 0
-192 -252 -312 0
-192 -252 -313 0
-192 -252 -314 0
-192 -252 -315 0
-192 -253 -291 357 0
-192 -253 -292 358 0
-192 -253 -293 359 0
-192 -253 -294 360 0
-192 -253 -295 361 0
-192 -253 -296 362 0
-192 -253 -297 363 0
-192 -253 -298 364 0
-192 -253 -299 365 0
-192 -253 -300 0
-192 -253 -301 0
-192 -253 -302 0
-192 -253 -303 0
-192 -253 -304 0
-192 -253 -305 0
-192 -253 -306 0
-192 -253 -307 0
-192 -253 -308 0
-192 -253 -309 0
-192 -253 -310 0
-192 -253 -311 0
-192 -253 -312 0
-192 -253 -313 0
-192 -253 -314 0
-192 -253 -315 0
-192 -254 -291 358 0
-192 -254 -292 359 0
-192 -254 -293 360 0
-192 -254 -294 361 0
-192 -254 -295 362 0
-192 -254 -296 363 0
-192 -254 -297 364 0
-192 -254 -298 365 0
-192 -254 -299 0
-192 -254 -300 0
-192 -254 -301 0
-192 -254 -302 0
-192 -254 -303 0
-192 -254 -304 0
-192 -254 -305 0
-192 -254 -306 0
-192 -254 -307 0
-192 -254 -308 0
-192 -254 -309 0
-192 -254 -310 0
-192 -254 -311 0
-192 -254 -312 0
-192 -254 -313 0
-192 -254 -314 0
-192 -254 -315 0
-192 -255 -291 359 0
-192 -255 -292 360 0
-192 -255 -293 361 0
-192 -255 -294 362 0
-192 -255 -295 363 0
-192 -255 -296 364 0
-192 -255 -297 365 0
-192 -255 -298 0
-192 -255 -299 0
-192 -255 -300 0
-192 -255 -301 0
-192 -255 -302 0
-192 -255 -303 0
-192 -255 -304 0
-192 -255 -305 0
-192 -255 -306 0
-192 -255 -307 0
-192 -255 -308 0
-192 -255 -309 0
-192 -255 -310 0
-192 -255 -311 0
-192 -255 -312 0
-192 -255 -313 0
-192 -255 -314 0
-192 -255 -315 0
-192 -256 -291 360 0
-192 -256 -292 361 0
-192 -256 -293 362 0
-192 -256 -294 363 0
-192 -256 -295 364 0
-192 -256 -296 365 0
-192 -256 -297 0
-192 -256 -298 0
-192 -256 -299 0
-192 -256 -300 0
-192 -256 -301 0
-192 -256 -302 0
-192 -256 -303 0
-192 -256 -304 0
-192 -256 -305 0
-192 -256 -306 0
-192 -256 -307 0
-192 -256 -308 0
-192 -256 -309 0
-192 -256 -310 0
-192 -256 -311 0
-192 -256 -312 0
-192 -256 -313 0
-192 -256 -314 0
-192 -256 -315 0
-192 -257 -291 361 0
-192 -257 -292 362 0
-192 -257 -293 363 0
-192 -257 -294 364 0
-192 -257 -295 365 0
-192 -257 -296 0
-192 -257 -297 0
-192 -257 -298 0
-192 -257 -299 0
-192 -257 -300 0
-192 -257 -301 0
-192 -257 -302 0
-192 -257 -303 0
-192 -257 -304 0
-192 -257 -305 0
-192 -257 -306 0
-192 -257 -307 0
-192 -257 -308 0
-192 -257 -309 0
-192 -257 -310 0
-192 -257 -311 0
-192 -257 -312 0
-192 -257 -313 0
-192 -257 -314 0
-192 -257 -315 0
-192 -258 -291 362 0
-192 -258 -292 363 0
-192 -258 -293 364 0
-192 -258 -294 365 0
-192 -258 -295 0
-192 -258 -296 0
-192 -258 -297 0
-192 -258 -298 0
-192 -258 -299 0
-192 -258 -300 0
-192 -258 -301 0
-192 -258 -302 0
-192 -258 -303 0
-192 -258 -304 0
-192 -258 -305 0
-192 -258 -306 0
-192 -258 -307 0
-192 -258 -308 0
-192 -258 -309 0
-192 -258 -310 0
-192 -258 -311 0
-192 -258 -312 0
-192 -258 -313 0
-192 -258 -314 0
-192 -258 -315 0
-192 -259 -291 363 0
-192 -259 -292 364 0
-192 -259 -293 365 0
-192 -259 -294 0
-192 -259 -295 0
-192 -259 -296 0
-192 -259 -297 0
-192 -259 -298 0
-192 -259 -299 0
-192 -259 -300 0
-192 -259 -301 0
-192 -259 -302 0
-192 -259 -303 0
-192 -259 -304 0
-192 -259 -305 0
-192 -259 -306 0
-192 -259 -307 0
-192 -259 -308 0
-192 -259 -309 0
-192 -259 -310 0
-192 -259 -311 0
-192 -259 -312 0
-192 -259 -313 0
-192 -259 -314 0
-192 -259 -315 0
-192 -260 -291 364 0
-192 -260 -292 365 0
-192 -260 -293 0
-192 -260 -294 0
-192 -260 -295 0
-192 -260 -296 0
-192 -260 -297 0
-192 -260 -298 0
-192 -260 -299 0
-192 -260 -300 0
-192 -260 -301 0
-192 -260 -302 0
-192 -260 -303 0
-192 -260 -304 0
-192 -260 -305 0
-192 -260 -306 0
-192 -260 -307 0
-192 -260 -308 0
-192 -260 -309 0
-192 -260 -310 0
-192 -260 -311 0
-192 -260 -312 0
-192 -260 -313 0
-192 -260 -314 0
-192 -260 -315 0
-192 -261 -291 365 0
-192 -261 -292 0
-192 -261 -293 0
-192 -261 -294 0
-192 -261 -295 0
-192 -261 -296 0
-192 -261 -297 0
-192 -261 -298 0
-192 -261 -299 0
-192 -261 -300 0
-192 -261 -301 0
-192 -261 -302 0
-192 -261 -303 0
-192 -261 -304 0
-192 -261 -305 0
-192 -261 -306 0
-192 -261 -307 0
-192 -261 -308 0
-192 -261 -309 0
-192 -261 -310 0
-192 -261 -311 0
-192 -261 -312 0
-192 -261 -313 0
-192 -261 -314 0
-192 -261 -315 0
-192 -262 -291 0
-192 -262 -292 0
-192 -262 -293 0
-192 -262 -294 0
-192 -262 -295 0
-192 -262 -296 0
-192 -262 -297 0
-192 -262 -298 0
-192 -262 -299 0
-192 -262 -300 0
-192 -262 -301 0
-192 -262 -302 0
-192 -262 -303 0
-192 -262 -304 0
-192 -262 -305 0
-192 -262 -306 0
-192 -262 -307 0
-192 -262 -308 0
-192 -262 -309 0
-192 -262 -310 0
-192 -262 -311 0
-192 -262 -312 0
-192 -262 -313 0
-192 -262 -314 0
-192 -262 -315 0
-192 -263 -291 0
-192 -263 -292 0
-192 -263 -293 0
-192 -263 -294 0
-192 -263 -295 0
-192 -263 -296 0
-192 -263 -297 0
-192 -263 -298 0
-192 -263 -299 0
-192 -263 -300 0
-192 -263 -301 0
-192 -263 -302 0
-192 -263 -303 0
-192 -263 -304 0
-192 -263 -305 0
-192 -263 -306 0
-192 -263 -307 0
-192 -263 -308 0
-192 -263 -309 0
-192 -263 -310 0
-192 -263 -311 0
-192 -263 -312 0
-192 -263 -313 0
-192 -263 -314 0
-192 -263 -315 0
-192 -264 -291 0
-192 -264 -292 0
-192 -264 -293 0
-192 -264 -294 0
-192 -264 -295 0
-192 -264 -296 0
-192 -264 -297 0
-192 -264 -298 0
-192 -264 -299 0
-192 -264 -300 0
-192 -264 -301 0
-192 -264 -302 0
-192 -264 -303 0
-192 -264 -304 0
-192 -264 -305 0
-192 -264 -306 0
-192 -264 -307 0
-192 -264 -308 0
-192 -264 -309 0
-192 -264 -310 0
-192 -264 -311 0
-192 -264 -312 0
-192 -264 -313 0
-192 -264 -314 0
-192 -264 -315 0
-192 -265 -291 0
-192 -265 -292 0
-192 -265 -293 0
-192 -265 -294 0
-192 -265 -295 0
-192 -265 -296 0
-192 -265 -297 0
-192 -265 -298 0
-192 -265 -299 0
-192 -265 -300 0
-192 -265 -301 0
-192 -265 -302 0
-192 -265 -303 0
-192 -265 -304 0
-192 -265 -305 0
-192 -265 -306 0
-192 -265 -307 0
-192 -265 -308 0
-192 -265 -309 0
-192 -265 -310 0
-192 -265 -311 0
-192 -265 -312 0
-192 -265 -313 0
-192 -265 -314 0
-192 -265 -315 0
-193 -241 -291 346 0
-193 -241 -292 347 0
-193 -241 -293 348 0
-193 -241 -294 349 0
-193 -241 -295 350 0
-193 -241 -296 351 0
-193 -241 -297 352 0
-193 -241 -298 353 0
-193 -241 -299 354 0
-193 -241 -300 355 0
-193 -241 -301 356 0
-193 -241 -302 357 0
-193 -241 -303 358 0
-193 -241 -304 359 0
-193 -241 -305 360 0
-193 -241 -306 361 0
-193 -241 -307 362 0
-193 -241 -308 363 0
-193 -241 -309 364 0
-193 -241 -310 365 0
-193 -241 -311 0
-193 -241 -312 0
-193 -241 -313 0
-193 -241 -314 0
-193 -241 -315 0
-193 -242 -291 347 0
-193 -242 -292 348 0
-193 -242 -293 349 0
-193 -242 -294 350 0
-193 -242 -295 351 0
-193 -242 -296 352 0
-193 -242 -297 353 0
-193 -242 -298 354 0
-193 -242 -299 355 0
-193 -242 -300 356 0
-193 -242 -301 357 0
-193 -242 -302 358 0
-193 -242 -303 359 0
-193 -242 -304 360 0
-193 -242 -305 361 0
-193 -242 -306 362 0
-193 -242 -307 363 0
-193 -242 -308 364 0
-193 -242 -309 365 0
-193 -242 -310 0
-193 -242 -311 0
-193 -242 -312 0
-193 -242 -313 0
-193 -242 -314 0
-193 -242 -315 0
-193 -243 -291 348 0
-193 -243 -292 349 0
-193 -243 -293 350 0
-193 -243 -294 351 0
-193 -243 -295 352 0
-193 -243 -296 353 0
-193 -243 -297 354 0
-193 -243 -298 355 0
-193 -243 -299 356 0
-193 -243 -300 357 0
-193 -243 -301 358 0
-193 -243 -302 359 0
-193 -243 -303 360 0
-193 -243 -304 361 0
-193 -243 -305 362 0
-193 -243 -306 363 0
-193 -243 -307 364 0
-193 -243 -308 365 0
-193 -243 -309 0
-193 -243 -310 0
-193 -243 -311 0
-193 -243 -312 0
-193 -243 -313 0
-193 -243 -314 0
-193 -243 -315 0
-193 -244 -291 349 0
-193 -244 -292 350 0
-193 -244 -293 351 0
-193 -244 -294 352 0
-193 -244 -295 353 0
-193 -244 -296 354 0
-193 -244 -297 355 0
-193 -244 -298 356 0
-193 -244 -299 357 0
-193 -244 -300 358 0
-193 -244 -301 359 0
-193 -244 -302 360 0
-193 -244 -303 361 0
-193 -244 -304 362 0
-193 -244 -305 363 0
-193 -244 -306 364 0
-193 -244 -307 365 0
-193 -244 -308 0
-193 -244 -309 0
-193 -244 -310 0
-193 -244 -311 0
-193 -244 -312 0
-193 -244 -313 0
-193 -244 -314 0
-193 -244 -315 0
-193 -245 -291 350 0
-193 -245 -292 351 0
-193 -245 -293 352 0
-193 -245 -294 353 0
-193 -245 -295 354 0
-193 -245 -296 355 0
-193 -245 -297 356 0
-193 -245 -298 357 0
-193 -245 -299 358 0
-193 -245 -300 359 0
-193 -245 -301 360 0
-193 -245 -302 361 0
-193 -245 -303 362 0
-193 -245 -304 363 0
-193 -245 -305 364 0
-193 -245 -306 365 0
-193 -245 -307 0
-193 -245 -308 0
-193 -245 -309 0
-193 -245 -310 0
-193 -245 -311 0
-193 -245 -312 0
-193 -245 -313 0
-193 -245 -314 0
-193 -245 -315 0
-193 -246 -291 351 0
-193 -246 -292 352 0
-193 -246 -293 353 0
-193 -246 -294 354 0
-193 -246 -295 355 0
-193 -246 -296 356 0
-193 -246 -297 357 0
-193 -246 -298 358 0
-193 -246 -299 359 0
-193 -246 -300 360 0
-193 -246 -301 361 0
-193 -246 -302 362 0
-193 -246 -303 363 0
-193 -246 -304 364 0
-193 -246 -305 365 0
-193 -246 -306 0
-193 -246 -307 0
-193 -246 -308 0
-193 -246 -309 0
-193 -246 -310 0
-193 -246 -311 0
-193 -246 -312 0
-193 -246 -313 0
-193 -246 -314 0
-193 -246 -315 0
-193 -247 -291 352 0
-193 -247 -292 353 0
-193 -247 -293 354 0
-193 -247 -294 355 0
-193 -247 -295 356 0
-193 -247 -296 357 0
-193 -247 -297 358 0
-193 -247 -298 359 0
-193 -247 -299 360 0
-193 -247 -300 361 0
-193 -247 -301 362 0
-193 -247 -302 363 0
-193 -247 -303 364 0
-193 -247 -304 365 0
-193 -247 -305 0
-193 -247 -306 0
-193 -247 -307 0
-193 -247 -308 0
-193 -247 -309 0
-193 -247 -310 0
-193 -247 -311 0
-193 -247 -312 0
-193 -247 -313 0
-193 -247 -314 0
-193 -247 -315 0
-193 -248 -291 353 0
-193 -248 -292 354 0
-193 -248 -293 355 0
-193 -248 -294 356 0
-193 -248 -295 357 0
-193 -248 -296 358 0
-193 -248 -297 359 0
-193 -248 -298 360 0
-193 -248 -299 361 0
-193 -248 -300 362 0
-193 -248 -301 363 0
-193 -248 -302 364 0
-193 -248 -303 365 0
-193 -248 -304 0
-193 -248 -305 0
-193 -248 -306 0
-193 -248 -307 0
-193 -248 -308 0
-193 -248 -309 0
-193 -248 -310 0
-193 -248 -311 0
-193 -248 -312 0
-193 -248 -313 0
-193 -248 -314 0
-193 -248 -315 0
-193 -249 -291 354 0
-193 -249 -292 355 0
-193 -249 -293 356 0
-193 -249 -294 357 0
-193 -249 -295 358 0
-193 -249 -296 359 0
-193 -249 -297 360 0
-193 -249 -298 361 0
-193 -249 -299 362 0
-193 -249 -300 363 0
-193 -249 -301 364 0
-193 -249 -302 365 0
-193 -249 -303 0
-193 -249 -304 0
-193 -249 -305 0
-193 -249 -306 0
-193 -249 -307 0
-193 -249 -308 0
-193 -249 -309 0
-193 -249 -310 0
-193 -249 -311 0
-193 -249 -312 0
-193 -249 -313 0
-193 -249 -314 0
-193 -249 -315 0
-193 -250 -291 355 0
-193 -250 -292 356 0
-193 -250 -293 357 0
-193 -250 -294 358 0
-193 -250 -295 359 0
-193 -250 -296 360 0
-193 -250 -297 361 0
-193 -250 -298 362 0
-193 -250 -299 363 0
-193 -250 -300 364 0
-193 -250 -301 365 0
-193 -250 -302 0
-193 -250 -303 0
-193 -250 -304 0
-193 -250 -305 0
-193 -250 -306 0
-193 -250 -307 0
-193 -250 -308 0
-193 -250 -309 0
-193 -250 -310 0
-193 -250 -311 0
-193 -250 -312 0
-193 -250 -313 0
-193 -250 -314 0
-193 -250 -315 0
-193 -251 -291 356 0
-193 -251 -292 357 0
-193 -251 -293 358 0
-193 -251 -294 359 0
-193 -251 -295 360 0
-193 -251 -296 361 0
-193 -251 -297 362 0
-193 -251 -298 363 0
-193 -251 -299 364 0
-193 -251 -300 365 0
-193 -251 -301 0
-193 -251 -302 0
-193 -251 -303 0
-193 -251 -304 0
-193 -251 -305 0
-193 -251 -306 0
-193 -251 -307 0
-193 -251 -308 0
-193 -251 -309 0
-193 -251 -310 0
-193 -251 -311 0
-193 -251 -312 0
-193 -251 -313 0
-193 -251 -314 0
-193 -251 -315 0
-193 -252 -291 357 0
-193 -252 -292 358 0
-193 -252 -293 359 0
-193 -252 -294 360 0
-193 -252 -295 361 0
-193 -252 -296 362 0
-193 -252 -297 363 0
-193 -252 -298 364 0
-193 -252 -299 365 0
-193 -252 -300 0
-193 -252 -301 0
-193 -252 -302 0
-193 -252 -303 0
-193 -252 -304 0
-193 -252 -305 0
-193 -252 -306 0
-193 -252 -307 0
-193 -252 -308 0
-193 -252 -309 0
-193 -252 -310 0
-193 -252 -311 0
-193 -252 -312 0
-193 -252 -313 0
-193 -252 -314 0
-193 -252 -315 0
-193 -253 -291 358 0
-193 -253 -292 359 0
-193 -253 -293 360 0
-193 -253 -294 361 0
-193 -253 -295 362 0
-193 -253 -296 363 0
-193 -253 -297 364 0
-193 -253 -298 365 0
-193 -253 -299 0
-193 -253 -300 0
-193 -253 -301 0
-193 -253 -302 0
-193 -253 -303 0
-193 -253 -304 0
-193 -253 -305 0
-193 -253 -306 0
-193 -253 -307 0
-193 -253 -308 0
-193 -253 -309 0
-193 -253 -310 0
-193 -253 -311 0
-193 -253 -312 0
-193 -253 -313 0
-193 -253 -314 0
-193 -253 -315 0
-193 -254 -291 359 0
-193 -254 -292 360 0
-193 -254 -293 361 0
-193 -254 -294 362 0
-193 -254 -295 363 0
-193 -254 -296 364 0
-193 -254 -297 365 0
-193 -254 -298 0
-193 -254 -299 0
-193 -254 -300 0
-193 -254 -301 0
-193 -254 -302 0
-193 -254 -303 0
-193 -254 -304 0
-193 -254 -305 0
-193 -254 -306 0
-193 -254 -307 0
-193 -254 -308 0
-193 -254 -309 0
-193 -254 -310 0
-193 -254 -311 0
-193 -254 -312 0
-193 -254 -313 0
-193 -254 -314 0
-193 -254 -315 0
-193 -255 -291 360 0
-193 -255 -292 361 0
-193 -255 -293 362 0
-193 -255 -294 363 0
-193 -255 -295 364 0
-193 -255 -296 365 0
-193 -255 -297 0
-193 -255 -298 0
-193 -255 -299 0
-193 -255 -300 0
-193 -255 -301 0
-193 -255 -302 0
-193 -255 -303 0
-193 -255 -304 0
-193 -255 -305 0
-193 -255 -306 0
-193 -255 -307 0
-193 -255 -308 0
-193 -255 -309 0
-193 -255 -310 0
-193 -255 -311 0
-193 -255 -312 0
-193 -255 -313 0
-193 -255 -314 0
-193 -255 -315 0
-193 -256 -291 361 0
-193 -256 -292 362 0
-193 -256 -293 363 0
-193 -256 -294 364 0
-193 -256 -295 365 0
-193 -256 -296 0
-193 -256 -297 0
-193 -256 -298 0
-193 -256 -299 0
-193 -256 -300 0
-193 -256 -301 0
-193 -256 -302 0
-193 -256 -303 0
-193 -256 -304 0
-193 -256 -305 0
-193 -256 -306 0
-193 -256 -307 0
-193 -256 -308 0
-193 -256 -309 0
-193 -256 -310 0
-193 -256 -311 0
-193 -256 -312 0
-193 -256 -313 0
-193 -256 -314 0
-193 -256 -315 0
-193 -257 -291 362 0
-193 -257 -292 363 0
-193 -257 -293 364 0
-193 -257 -294 365 0
-193 -257 -295 0
-193 -257 -296 0
-193 -257 -297 0
-193 -257 -298 0
-193 -257 -299 0
-193 -257 -300 0
-193 -257 -301 0
-193 -257 -302 0
-193 -257 -303 0
-193 -257 -304 0
-193 -257 -305 0
-193 -257 -306 0
-193 -257 -307 0
-193 -257 -308 0
-193 -257 -309 0
-193 -257 -310 0
-193 -257 -311 0
-193 -257 -312 0
-193 -257 -313 0
-193 -257 -314 0
-193 -257 -315 0
-193 -258 -291 363 0
-193 -258 -292 364 0
-193 -258 -293 365 0
-193 -258 -294 0
-193 -258 -295 0
-193 -258 -296 0
-193 -258 -297 0
-193 -258 -298 0
-193 -258 -299 0
-193 -258 -300 0
-193 -258 -301 0
-193 -258 -302 0
-193 -258 -303 0
-193 -258 -304 0
-193 -258 -305 0
-193 -258 -306 0
-193 -258 -307 0
-193 -258 -308 0
-193 -258 -309 0
-193 -258 -310 0
-193 -258 -311 0
-193 -258 -312 0
-193 -258 -313 0
-193 -258 -314 0
-193 -258 -315 0
-193 -259 -291 364 0
-193 -259 -292 365 0
-193 -259 -293 0
-193 -259 -294 0
-193 -259 -295 0
-193 -259 -296 0
-193 -259 -297 0
-193 -259 -298 0
-193 -259 -299 0
-193 -259 -300 0
-193 -259 -301 0
-193 -259 -302 0
-193 -259 -303 0
-193 -259 -304 0
-193 -259 -305 0
-193 -259 -306 0
-193 -259 -307 0
-193 -259 -308 0
-193 -259 -309 0
-193 -259 -310 0
-193 -259 -311 0
-193 -259 -312 0
-193 -259 -313 0
-193 -259 -314 0
-193 -259 -315 0
-193 -260 -291 365 0
-193 -260 -292 0
-193 -260 -293 0
-193 -260 -294 0
-193 -260 -295 0
-193 -260 -296 0
-193 -260 -297 0
-193 -260 -298 0
-193 -260 -299 0
-193 -260 -300 0
-193 -260 -301 0
-193 -260 -302 0
-193 -260 -303 0
-193 -260 -304 0
-193 -260 -305 0
-193 -260 -306 0
-193 -260 -307 0
-193 -260 -308 0
-193 -260 -309 0
-193 -260 -310 0
-193 -260 -311 0
-193 -260 -312 0
-193 -260 -313 0
-193 -260 -314 0
-193 -260 -315 0
-193 -261 -291 0
-193 -261 -292 0
-193 -261 -293 0
-193 -261 -294 0
-193 -261 -295 0
-193 -261 -296 0
-193 -261 -297 0
-193 -261 -298 0
-193 -261 -299 0
-193 -261 -300 0
-193 -261 -301 0
-193 -261 -302 0
-193 -261 -303 0
-193 -261 -304 0
-193 -261 -305 0
-193 -261 -306 0
-193 -261 -307 0
-193 -261 -308 0
-193 -261 -309 0
-193 -261 -310 0
-193 -261 -311 0
-193 -261 -312 0
-193 -261 -313 0
-193 -261 -314 0
-193 -261 -315 0
-193 -262 -291 0
-193 -262 -292 0
-193 -262 -293 0
-193 -262 -294 0
-193 -262 -295 0
-193 -262 -296 0
-193 -262 -297 0
-193 -262 -298 0
-193 -262 -299 0
-193 -262 -300 0
-193 -262 -301 0
-193 -262 -302 0
-193 -262 -303 0
-193 -262 -304 0
-193 -262 -305 0
-193 -262 -306 0
-193 -262 -307 0
-193 -262 -308 0
-193 -262 -309 0
-193 -262 -310 0
-193 -262 -311 0
-193 -262 -312 0
-193 -262 -313 0
-193 -262 -314 0
-193 -262 -315 0
-193 -263 -291 0
-193 -263 -292 0
-193 -263 -293 0
-193 -263 -294 0
-193 -263 -295 0
-193 -263 -296 0
-193 -263 -297 0
-193 -263 -298 0
-193 -263 -299 0
-193 -263 -300 0
-193 -263 -301 0
-193 -263 -302 0
-193 -263 -303 0
-193 -263 -304 0
-193 -263 -305 0
-193 -263 -306 0
-193 -263 -307 0
-193 -263 -308 0
-193 -263 -309 0
-193 -263 -310 0
-193 -263 -311 0
-193 -263 -312 0
-193 -263 -313 0
-193 -263 -314 0
-193 -263 -315 0
-193 -264 -291 0
-193 -264 -292 0
-193 -264 -293 0
-193 -264 -294 0
-193 -264 -295 0
-193 -264 -296 0
-193 -264 -297 0
-193 -264 -298 0
-193 -264 -299 0
-193 -264 -300 0
-193 -264 -301 0
-193 -264 -302 0
-193 -264 -303 0
-193 -264 -304 0
-193 -264 -305 0
-193 -264 -306 0
-193 -264 -307 0
-193 -264 -308 0
-193 -264 -309 0
-193 -264 -310 0
-193 -264 -311 0
-193 -264 -312 0
-193 -264 -313 0
-193 -264 -314 0
-193 -264 -315 0
-193 -265 -291 0
-193 -265 -292 0
-193 -265 -293 0
-193 -265 -294 0
-193 -265 -295 0
-193 -265 -296 0
-193 -265 -297 0
-193 -265 -298 0
-193 -265 -299 0
-193 -265 -300 0
-193 -265 -301 0
-193 -265 -302 0
-193 -265 -303 0
-193 -265 -304 0
-193 -265 -305 0
-193 -265 -306 0
-193 -265 -307 0
-193 -265 -308 0
-193 -265 -309 0
-193 -265 -310 0
-193 -265 -311 0
-193 -265 -312 0
-193 -265 -313 0
-193 -265 -314 0
-193 -265 -315 0
-194 -241 -291 347 0
-194 -241 -292 348 0
-194 -241 -293 349 0
-194 -241 -294 350 0
-194 -241 -295 351 0
-194 -241 -296 352 0
-194 -241 -297 353 0
-194 -241 -298 354 0
-194 -241 -299 355 0
-194 -241 -300 356 0
-194 -241 -301 357 0
-194 -241 -302 358 0
-194 -241 -303 359 0
-194 -241 -304 360 0
-194 -241 -305 361 0
-194 -241 -306 362 0
-194 -241 -307 363 0
-194 -241 -308 364 0
-194 -241 -309 365 0
-194 -241 -310 0
-194 -241 -311 0
-194 -241 -312 0
-194 -241 -313 0
-194 -241 -314 0
-194 -241 -315 0
-194 -242 -291 348 0
-194 -242 -292 349 0
-194 -242 -293 350 0
-194 -242 -294 351 0
-194 -242 -295 352 0
-194 -242 -296 353 0
-194 -242 -297 354 0
-194 -242 -298 355 0
-194 -242 -299 356 0
-194 -242 -300 357 0
-194 -242 -301 358 0
-194 -242 -302 359 0
-194 -242 -303 360 0
-194 -242 -304 361 0
-194 -242 -305 362 0
-194 -242 -306 363 0
-194 -242 -307 364 0
-194 -242 -308 365 0
-194 -242 -309 0
-194 -242 -310 0
-194 -242 -311 0
-194 -242 -312 0
-194 -242 -313 0
-194 -242 -314 0
-194 -242 -315 0
-194 -243 -291 349 0
-194 -243 -292 350 0
-194 -243 -293 351 0
-194 -243 -294 352 0
-194 -243 -295 353 0
-194 -243 -296 354 0
-194 -243 -297 355 0
-194 -243 -298 356 0
-194 -243 -299 357 0
-194 -243 -300 358 0
-194 -243 -301 359 0
-194 -243 -302 360 0
-194 -243 -303 361 0
-194 -243 -304 362 0
-194 -243 -305 363 0
-194 -243 -306 364 0
-194 -243 -307 365 0
-194 -243 -308 0
-194 -243 -309 0
-194 -243 -310 0
-194 -243 -311 0
-194 -243 -312 0
-194 -243 -313 0
-194 -243 -314 0
-194 -243 -315 0
-194 -244 -291 350 0
-194 -244 -292 351 0
-194 -244 -293 352 0
-194 -244 -294 353 0
-194 -244 -295 354 0
-194 -244 -296 355 0
-194 -244 -297 356 0
-194 -244 -298 357 0
-194 -244 -299 358 0
-194 -244 -300 359 0
-194 -244 -301 360 0
-194 -244 -302 361 0
-194 -244 -303 362 0
-194 -244 -304 363 0
-194 -244 -305 364 0
-194 -244 -306 365 0
-194 -244 -307 0
-194 -244 -308 0
-194 -244 -309 0
-194 -244 -310 0
-194 -244 -311 0
-194 -244 -312 0
-194 -244 -313 0
-194 -244 -314 0
-194 -244 -315 0
-194 -245 -291 351 0
-194 -245 -292 352 0
-194 -245 -293 353 0
-194 -245 -294 354 0
-194 -245 -295 355 0
-194 -245 -296 356 0
-194 -245 -297 357 0
-194 -245 -298 358 0
-194 -245 -299 359 0
-194 -245 -300 360 0
-194 -245 -301 361 0
-194 -245 -302 362 0
-194 -245 -303 363 0
-194 -245 -304 364 0
-194 -245 -305 365 0
-194 -245 -306 0
-194 -245 -307 0
-194 -245 -308 0
-194 -245 -309 0
-194 -245 -310 0
-194 -245 -311 0
-194 -245 -312 0
-194 -245 -313 0
-194 -245 -314 0
-194 -245 -315 0
-194 -246 -291 352 0
-194 -246 -292 353 0
-194 -246 -293 354 0
-194 -246 -294 355 0
-194 -246 -295 356 0
-194 -246 -296 357 0
-194 -246 -297 358 0
-194 -246 -298 359 0
-194 -246 -299 360 0
-194 -246 -300 361 0
-194 -246 -301 362 0
-194 -246 -302 363 0
-194 -246 -303 364 0
-194 -246 -304 365 0
-194 -246 -305 0
-194 -246 -306 0
-194 -246 -307 0
-194 -246 -308 0
-194 -246 -309 0
-194 -246 -310 0
-194 -246 -311 0
-194 -246 -312 0
-194 -246 -313 0
-194 -246 -314 0
-194 -246 -315 0
-194 -247 -291 353 0
-194 -247 -292 354 0
-194 -247 -293 355 0
-194 -247 -294 356 0
-194 -247 -295 357 0
-194 -247 -296 358 0
-194 -247 -297 359 0
-194 -247 -298 360 0
-194 -247 -299 361 0
-194 -247 -300 362 0
-194 -247 -301 363 0
-194 -247 -302 364 0
-194 -247 -303 365 0
-194 -247 -304 0
-194 -247 -305 0
-194 -247 -306 0
-194 -247 -307 0
-194 -247 -308 0
-194 -247 -309 0
-194 -247 -310 0
-194 -247 -311 0
-194 -247 -312 0
-194 -247 -313 0
-194 -247 -314 0
-194 -247 -315 0
-194 -248 -291 354 0
-194 -248 -292 355 0
-194 -248 -293 356 0
-194 -248 -294 357 0
-194 -248 -295 358 0
-194 -248 -296 359 0
-194 -248 -297 360 0
-194 -248 -298 361 0
-194 -248 -299 362 0
-194 -248 -300 363 0
-194 -248 -301 364 0
-194 -248 -302 365 0
-194 -248 -303 0
-194 -248 -304 0
-194 -248 -305 0
-194 -248 -306 0
-194 -248 -307 0
-194 -248 -308 0
-194 -248 -309 0
-194 -248 -310 0
-194 -248 -311 0
-194 -248 -312 0
-194 -248 -313 0
-194 -248 -314 0
-194 -248 -315 0
-194 -249 -291 355 0
-194 -249 -292 356 0
-194 -249 -293 357 0
-194 -249 -294 358 0
-194 -249 -295 359 0
-194 -249 -296 360 0
-194 -249 -297 361 0
-194 -249 -298 362 0
-194 -249 -299 363 0
-194 -249 -300 364 0
-194 -249 -301 365 0
-194 -249 -302 0
-194 -249 -303 0
-194 -249 -304 0
-194 -249 -305 0
-194 -249 -306 0
-194 -249 -307 0
-194 -249 -308 0
-194 -249 -309 0
-194 -249 -310 0
-194 -249 -311 0
-194 -249 -312 0
-194 -249 -313 0
-194 -249 -314 0
-194 -249 -315 0
-194 -250 -291 356 0
-194 -250 -292 357 0
-194 -250 -293 358 0
-194 -250 -294 359 0
-194 -250 -295 360 0
-194 -250 -296 361 0
-194 -250 -297 362 0
-194 -250 -298 363 0
-194 -250 -299 364 0
-194 -250 -300 365 0
-194 -250 -301 0
-194 -250 -302 0
-194 -250 -303 0
-194 -250 -304 0
-194 -250 -305 0
-194 -250 -306 0
-194 -250 -307 0
-194 -250 -308 0
-194 -250 -309 0
-194 -250 -310 0
-194 -250 -311 0
-194 -250 -312 0
-194 -250 -313 0
-194 -250 -314 0
-194 -250 -315 0
-194 -251 -291 357 0
-194 -251 -292 358 0
-194 -251 -293 359 0
-194 -251 -294 360 0
-194 -251 -295 361 0
-194 -251 -296 362 0
-194 -251 -297 363 0
-194 -251 -298 364 0
-194 -251 -299 365 0
-194 -251 -300 0
-194 -251 -301 0
-194 -251 -302 0
-194 -251 -303 0
-194 -251 -304 0
-194 -251 -305 0
-194 -251 -306 0
-194 -251 -307 0
-194 -251 -308 0
-194 -251 -309 0
-194 -251 -310 0
-194 -251 -311 0
-194 -251 -312 0
-194 -251 -313 0
-194 -251 -314 0
-194 -251 -315 0
-194 -252 -291 358 0
-194 -252 -292 359 0
-194 -252 -293 360 0
-194 -252 -294 361 0
-194 -252 -295 362 0
-194 -252 -296 363 0
-194 -252 -297 364 0
-194 -252 -298 365 0
-194 -252 -299 0
-194 -252 -300 0
-194 -252 -301 0
-194 -252 -302 0
-194 -252 -303 0
-194 -252 -304 0
-194 -252 -305 0
-194 -252 -306 0
-194 -252 -307 0
-194 -252 -308 0
-194 -252 -309 0
-194 -252 -310 0
-194 -252 -311 0
-194 -252 -312 0
-194 -252 -313 0
-194 -252 -314 0
-194 -252 -315 0
-194 -253 -291 359 0
-194 -253 -292 360 0
-194 -253 -293 361 0
-194 -253 -294 362 0
-194 -253 -295 363 0
-194 -253 -296 364 0
-194 -253 -297 365 0
-194 -253 -298 0
-194 -253 -299 0
-194 -253 -300 0
-194 -253 -301 0
-194 -253 -302 0
-194 -253 -303 0
-194 -253 -304 0
-194 -253 -305 0
-194 -253 -306 0
-194 -253 -307 0
-194 -253 -308 0
-194 -253 -309 0
-194 -253 -310 0
-194 -253 -311 0
-194 -253 -312 0
-194 -253 -313 0
-194 -253 -314 0
-194 -253 -315 0
-194 -254 -291 360 0
-194 -254 -292 361 0
-194 -254 -293 362 0
-194 -254 -294 363 0
-194 -254 -295 364 0
-194 -254 -296 365 0
-194 -254 -297 0
-194 -254 -298 0
-194 -254 -299 0
-194 -254 -300 0
-194 -254 -301 0
-194 -254 -302 0
-194 -254 -303 0
-194 -254 -304 0
-194 -254 -305 0
-194 -254 -306 0
-194 -254 -307 0
-194 -254 -308 0
-194 -254 -309 0
-194 -254 -310 0
-194 -254 -311 0
-194 -254 -312 0
-194 -254 -313 0
-194 -254 -314 0
-194 -254 -315 0
-194 -255 -291 361 0
-194 -255 -292 362 0
-194 -255 -293 363 0
-194 -255 -294 364 0
-194 -255 -295 365 0
-194 -255 -296 0
-194 -255 -297 0
-194 -255 -298 0
-194 -255 -299 0
-194 -255 -300 0
-194 -255 -301 0
-194 -255 -302 0
-194 -255 -303 0
-194 -255 -304 0
-194 -255 -305 0
-194 -255 -306 0
-194 -255 -307 0
-194 -255 -308 0
-194 -255 -309 0
-194 -255 -310 0
-194 -255 -311 0
-194 -255 -312 0
-194 -255 -313 0
-194 -255 -314 0
-194 -255 -315 0
-194 -256 -291 362 0
-194 -256 -292 363 0
-194 -256 -293 364 0
-194 -256 -294 365 0
-194 -256 -295 0
-194 -256 -296 0
-194 -256 -297 0
-194 -256 -298 0
-194 -256 -299 0
-194 -256 -300 0
-194 -256 -301 0
-194 -256 -302 0
-194 -256 -303 0
-194 -256 -304 0
-194 -256 -305 0
-194 -256 -306 0
-194 -256 -307 0
-194 -256 -308 0
-194 -256 -309 0
-194 -256 -310 0
-194 -256 -311 0
-194 -256 -312 0
-194 -256 -313 0
-194 -256 -314 0
-194 -256 -315 0
-194 -257 -291 363 0
-194 -257 -292 364 0
-194 -257 -293 365 0
-194 -257 -294 0
-194 -257 -295 0
-194 -257 -296 0
-194 -257 -297 0
-194 -257 -298 0
-194 -257 -299 0
-194 -257 -300 0
-194 -257 -301 0
-194 -257 -302 0
-194 -257 -303 0
-194 -257 -304 0
-194 -257 -305 0
-194 -257 -306 0
-194 -257 -307 0
-194 -257 -308 0
-194 -257 -309 0
-194 -257 -310 0
-194 -257 -311 0
-194 -257 -312 0
-194 -257 -313 0
-194 -257 -314 0
-194 -257 -315 0
-194 -258 -291 364 0
-194 -258 -292 365 0
-194 -258 -293 0
-194 -258 -294 0
-194 -258 -295 0
-194 -258 -296 0
-194 -258 -297 0
-194 -258 -298 0
-194 -258 -299 0
-194 -258 -300 0
-194 -258 -301 0
-194 -258 -302 0
-194 -258 -303 0
-194 -258 -304 0
-194 -258 -305 0
-194 -258 -306 0
-194 -258 -307 0
-194 -258 -308 0
-194 -258 -309 0
-194 -258 -310 0
-194 -258 -311 0
-194 -258 -312 0
-194 -258 -313 0
-194 -258 -314 0
-194 -258 -315 0
-194 -259 -291 365 0
-194 -259 -292 0
-194 -259 -293 0
-194 -259 -294 0
-194 -259 -295 0
-194 -259 -296 0
-194 -259 -297 0
-194 -259 -298 0
-194 -259 -299 0
-194 -259 -300 0
-194 -259 -301 0
-194 -259 -302 0
-194 -259 -303 0
-194 -259 -304 0
-194 -259 -305 0
-194 -259 -306 0
-194 -259 -307 0
-194 -259 -308 0
-194 -259 -309 0
-194 -259 -310 0
-194 -259 -311 0
-194 -259 -312 0
-194 -259 -313 0
-194 -259 -314 0
-194 -259 -315 0
-194 -260 -291 0
-194 -260 -292 0
-194 -260 -293 0
-194 -260 -294 0
-194 -260 -295 0
-194 -260 -296 0
-194 -260 -297 0
-194 -260 -298 0
-194 -260 -299 0
-194 -260 -300 0
-194 -260 -301 0
-194 -260 -302 0
-194 -260 -303 0
-194 -260 -304 0
-194 -260 -305 0
-194 -260 -306 0
-194 -260 -307 0
-194 -260 -308 0
-194 -260 -309 0
-194 -260 -310 0
-194 -260 -311 0
-194 -260 -312 0
-194 -260 -313 0
-194 -260 -314 0
-194 -260 -315 0
-194 -261 -291 0
-194 -261 -292 0
-194 -261 -293 0
-194 -261 -294 0
-194 -261 -295 0
-194 -261 -296 0
-194 -261 -297 0
-194 -261 -298 0
-194 -261 -299 0
-194 -261 -300 0
-194 -261 -301 0
-194 -261 -302 0
-194 -261 -303 0
-194 -261 -304 0
-194 -261 -305 0
-194 -261 -306 0
-194 -261 -307 0
-194 -261 -308 0
-194 -261 -309 0
-194 -261 -310 0
-194 -261 -311 0
-194 -261 -312 0
-194 -261 -313 0
-194 -261 -314 0
-194 -261 -315 0
-194 -262 -291 0
-194 -262 -292 0
-194 -262 -293 0
-194 -262 -294 0
-194 -262 -295 0
-194 -262 -296 0
-194 -262 -297 0
-194 -262 -298 0
-194 -262 -299 0
-194 -262 -300 0
-194 -262 -301 0
-194 -262 -302 0
-194 -262 -303 0
-194 -262 -304 0
-194 -262 -305 0
-194 -262 -306 0
-194 -262 -307 0
-194 -262 -308 0
-194 -262 -309 0
-194 -262 -310 0
-194 -262 -311 0
-194 -262 -312 0
-194 -262 -313 0
-194 -262 -314 0
-194 -262 -315 0
-194 -263 -291 0
-194 -263 -292 0
-194 -263 -293 0
-194 -263 -294 0
-194 -263 -295 0
-194 -263 -296 0
-194 -263 -297 0
-194 -263 -298 0
-194 -263 -299 0
-194 -263 -300 0
-194 -263 -301 0
-194 -263 -302 0
-194 -263 -303 0
-194 -263 -304 0
-194 -263 -305 0
-194 -263 -306 0
-194 -263 -307 0
-194 -263 -308 0
-194 -263 -309 0
-194 -263 -310 0
-194 -263 -311 0
-194 -263 -312 0
-194 -263 -313 0
-194 -263 -314 0
-194 -263 -315 0
-194 -264 -291 0
-194 -264 -292 0
-194 -264 -293 0
-194 -264 -294 0
-194 -264 -295 0
-194 -264 -296 0
-194 -264 -297 0
-194 -264 -298 0
-194 -264 -299 0
-194 -264 -300 0
-194 -264 -301 0
-194 -264 -302 0
-194 -264 -303 0
-194 -264 -304 0
-194 -264 -305 0
-194 -264 -306 0
-194 -264 -307 0
-194 -264 -308 0
-194 -264 -309 0
-194 -264 -310 0
-194 -264 -311 0
-194 -264 -312 0
-194 -264 -313 0
-194 -264 -314 0
-194 -264 -315 0
-194 -265 -291 0
-194 -265 -292 0
-194 -265 -293 0
-194 -265 -294 0
-194 -265 -295 0
-194 -265 -296 0
-194 -265 -297 0
-194 -265 -298 0
-194 -265 -299 0
-194 -265 -300 0
-194 -265 -301 0
-194 -265 -302 0
-194 -265 -303 0
-194 -265 -304 0
-194 -265 -305 0
-194 -265 -306 0
-194 -265 -307 0
-194 -265 -308 0
-194 -265 -309 0
-194 -265 -310 0
-194 -265 -311 0
-194 -265 -312 0
-194 -265 -313 0
-194 -265 -314 0
-194 -265 -315 0
-195 -241 -291 348 0
-195 -241 -292 349 0
-195 -241 -293 350 0
-195 -241 -294 351 0
-195 -241 -295 352 0
-195 -241 -296 353 0
-195 -241 -297 354 0
-195 -241 -298 355 0
-195 -241 -299 356 0
-195 -241 -300 357 0
-195 -241 -301 358 0
-195 -241 -302 359 0
-195 -241 -303 360 0
-195 -241 -304 361 0
-195 -241 -305 362 0
-195 -241 -306 363 0
-195 -241 -307 364 0
-195 -241 -308 365 0
-195 -241 -309 0
-195 -241 -310 0
-195 -241 -311 0
-195 -241 -312 0
-195 -241 -313 0
-195 -241 -314 0
-195 -241 -315 0
-195 -242 -291 349 0
-195 -242 -292 350 0
-195 -242 -293 351 0
-195 -242 -294 352 0
-195 -242 -295 353 0
-195 -242 -296 354 0
-195 -242 -297 355 0
-195 -242 -298 356 0
-195 -242 -299 357 0
-195 -242 -300 358 0
-195 -242 -301 359 0
-195 -242 -302 360 0
-195 -242 -303 361 0
-195 -242 -304 362 0
-195 -242 -305 363 0
-195 -242 -306 364 0
-195 -242 -307 365 0
-195 -242 -308 0
-195 -242 -309 0
-195 -242 -310 0
-195 -242 -311 0
-195 -242 -312 0
-195 -242 -313 0
-195 -242 -314 0
-195 -242 -315 0
-195 -243 -291 350 0
-195 -243 -292 351 0
-195 -243 -293 352 0
-195 -243 -294 353 0
-195 -243 -295 354 0
-195 -243 -296 355 0
-195 -243 -297 356 0
-195 -243 -298 357 0
-195 -243 -299 358 0
-195 -243 -300 359 0
-195 -243 -301 360 0
-195 -243 -302 361 0
-195 -243 -303 362 0
-195 -243 -304 363 0
-195 -243 -305 364 0
-195 -243 -306 365 0
-195 -243 -307 0
-195 -243 -308 0
-195 -243 -309 0
-195 -243 -310 0
-195 -243 -311 0
-195 -243 -312 0
-195 -243 -313 0
-195 -243 -314 0
-195 -243 -315 0
-195 -244 -291 351 0
-195 -244 -292 352 0
-195 -244 -293 353 0
-195 -244 -294 354 0
-195 -244 -295 355 0
-195 -244 -296 356 0
-195 -244 -297 357 0
-195 -244 -298 358 0
-195 -244 -299 359 0
-195 -244 -300 360 0
-195 -244 -301 361 0
-195 -244 -302 362 0
-195 -244 -303 363 0
-195 -244 -304 364 0
-195 -244 -305 365 0
-195 -244 -306 0
-195 -244 -307 0
-195 -244 -308 0
-195 -244 -309 0
-195 -244 -310 0
-195 -244 -311 0
-195 -244 -312 0
-195 -244 -313 0
-195 -244 -314 0
-195 -244 -315 0
-195 -245 -291 352 0
-195 -245 -292 353 0
-195 -245 -293 354 0
-195 -245 -294 355 0
-195 -245 -295 356 0
-195 -245 -296 357 0
-195 -245 -297 358 0
-195 -245 -298 359 0
-195 -245 -299 360 0
-195 -245 -300 361 0
-195 -245 -301 362 0
-195 -245 -302 363 0
-195 -245 -303 364 0
-195 -245 -304 365 0
-195 -245 -305 0
-195 -245 -306 0
-195 -245 -307 0
-195 -245 -308 0
-195 -245 -309 0
-195 -245 -310 0
-195 -245 -311 0
-195 -245 -312 0
-195 -245 -313 0
-195 -245 -314 0
-195 -245 -315 0
-195 -246 -291 353 0
-195 -246 -292 354 0
-195 -246 -293 355 0
-195 -246 -294 356 0
-195 -246 -295 357 0
-195 -246 -296 358 0
-195 -246 -297 359 0
-195 -246 -298 360 0
-195 -246 -299 361 0
-195 -246 -300 362 0
-195 -246 -301 363 0
-195 -246 -302 364 0
-195 -246 -303 365 0
-195 -246 -304 0
-195 -246 -305 0
-195 -246 -306 0
-195 -246 -307 0
-195 -246 -308 0
-195 -246 -309 0
-195 -246 -310 0
-195 -246 -311 0
-195 -246 -312 0
-195 -246 -313 0
-195 -246 -314 0
-195 -246 -315 0
-195 -247 -291 354 0
-195 -247 -292 355 0
-195 -247 -293 356 0
-195 -247 -294 357 0
-195 -247 -295 358 0
-195 -247 -296 359 0
-195 -247 -297 360 0
-195 -247 -298 361 0
-195 -247 -299 362 0
-195 -247 -300 363 0
-195 -247 -301 364 0
-195 -247 -302 365 0
-195 -247 -303 0
-195 -247 -304 0
-195 -247 -305 0
-195 -247 -306 0
-195 -247 -307 0
-195 -247 -308 0
-195 -247 -309 0
-195 -247 -310 0
-195 -247 -311 0
-195 -247 -312 0
-195 -247 -313 0
-195 -247 -314 0
-195 -247 -315 0
-195 -248 -291 355 0
-195 -248 -292 356 0
-195 -248 -293 357 0
-195 -248 -294 358 0
-195 -248 -295 359 0
-195 -248 -296 360 0
-195 -248 -297 361 0
-195 -248 -298 362 0
-195 -248 -299 363 0
-195 -248 -300 364 0
-195 -248 -301 365 0
-195 -248 -302 0
-195 -248 -303 0
-195 -248 -304 0
-195 -248 -305 0
-195 -248 -306 0
-195 -248 -307 0
-195 -248 -308 0
-195 -248 -309 0
-195 -248 -310 0
-195 -248 -311 0
-195 -248 -312 0
-195 -248 -313 0
-195 -248 -314 0
-195 -248 -315 0
-195 -249 -291 356 0
-195 -249 -292 357 0
-195 -249 -293 358 0
-195 -249 -294 359 0
-195 -249 -295 360 0
-195 -249 -296 361 0
-195 -249 -297 362 0
-195 -249 -298 363 0
-195 -249 -299 364 0
-195 -249 -300 365 0
-195 -249 -301 0
-195 -249 -302 0
-195 -249 -303 0
-195 -249 -304 0
-195 -249 -305 0
-195 -249 -306 0
-195 -249 -307 0
-195 -249 -308 0
-195 -249 -309 0
-195 -249 -310 0
-195 -249 -311 0
-195 -249 -312 0
-195 -249 -313 0
-195 -249 -314 0
-195 -249 -315 0
-195 -250 -291 357 0
-195 -250 -292 358 0
-195 -250 -293 359 0
-195 -250 -294 360 0
-195 -250 -295 361 0
-195 -250 -296 362 0
-195 -250 -297 363 0
-195 -250 -298 364 0
-195 -250 -299 365 0
-195 -250 -300 0
-195 -250 -301 0
-195 -250 -302 0
-195 -250 -303 0
-195 -250 -304 0
-195 -250 -305 0
-195 -250 -306 0
-195 -250 -307 0
-195 -250 -308 0
-195 -250 -309 0
-195 -250 -310 0
-195 -250 -311 0
-195 -250 -312 0
-195 -250 -313 0
-195 -250 -314 0
-195 -250 -315 0
-195 -251 -291 358 0
-195 -251 -292 359 0
-195 -251 -293 360 0
-195 -251 -294 361 0
-195 -251 -295 362 0
-195 -251 -296 363 0
-195 -251 -297 364 0
-195 -251 -298 365 0
-195 -251 -299 0
-195 -251 -300 0
-195 -251 -301 0
-195 -251 -302 0
-195 -251 -303 0
-195 -251 -304 0
-195 -251 -305 0
-195 -251 -306 0
-195 -251 -307 0
-195 -251 -308 0
-195 -251 -309 0
-195 -251 -310 0
-195 -251 -311 0
-195 -251 -312 0
-195 -251 -313 0
-195 -251 -314 0
-195 -251 -315 0
-195 -252 -291 359 0
-195 -252 -292 360 0
-195 -252 -293 361 0
-195 -252 -294 362 0
-195 -252 -295 363 0
-195 -252 -296 364 0
-195 -252 -297 365 0
-195 -252 -298 0
-195 -252 -299 0
-195 -252 -300 0
-195 -252 -301 0
-195 -252 -302 0
-195 -252 -303 0
-195 -252 -304 0
-195 -252 -305 0
-195 -252 -306 0
-195 -252 -307 0
-195 -252 -308 0
-195 -252 -309 0
-195 -252 -310 0
-195 -252 -311 0
-195 -252 -312 0
-195 -252 -313 0
-195 -252 -314 0
-195 -252 -315 0
-195 -253 -291 360 0
-195 -253 -292 361 0
-195 -253 -293 362 0
-195 -253 -294 363 0
-195 -253 -295 364 0
-195 -253 -296 365 0
-195 -253 -297 0
-195 -253 -298 0
-195 -253 -299 0
-195 -253 -300 0
-195 -253 -301 0
-195 -253 -302 0
-195 -253 -303 0
-195 -253 -304 0
-195 -253 -305 0
-195 -253 -306 0
-195 -253 -307 0
-195 -253 -308 0
-195 -253 -309 0
-195 -253 -310 0
-195 -253 -311 0
-195 -253 -312 0
-195 -253 -313 0
-195 -253 -314 0
-195 -253 -315 0
-195 -254 -291 361 0
-195 -254 -292 362 0
-195 -254 -293 363 0
-195 -254 -294 364 0
-195 -254 -295 365 0
-195 -254 -296 0
-195 -254 -297 0
-195 -254 -298 0
-195 -254 -299 0
-195 -254 -300 0
-195 -254 -301 0
-195 -254 -302 0
-195 -254 -303 0
-195 -254 -304 0
-195 -254 -305 0
-195 -254 -306 0
-195 -254 -307 0
-195 -254 -308 0
-195 -254 -309 0
-195 -254 -310 0
-195 -254 -311 0
-195 -254 -312 0
-195 -254 -313 0
-195 -254 -314 0
-195 -254 -315 0
-195 -255 -291 362 0
-195 -255 -292 363 0
-195 -255 -293 364 0
-195 -255 -294 365 0
-195 -255 -295 0
-195 -255 -296 0
-195 -255 -297 0
-195 -255 -298 0
-195 -255 -299 0
-195 -255 -300 0
-195 -255 -301 0
-195 -255 -302 0
-195 -255 -303 0
-195 -255 -304 0
-195 -255 -305 0
-195 -255 -306 0
-195 -255 -307 0
-195 -255 -308 0
-195 -255 -309 0
-195 -255 -310 0
-195 -255 -311 0
-195 -255 -312 0
-195 -255 -313 0
-195 -255 -314 0
-195 -255 -315 0
-195 -256 -291 363 0
-195 -256 -292 364 0
-195 -256 -293 365 0
-195 -256 -294 0
-195 -256 -295 0
-195 -256 -296 0
-195 -256 -297 0
-195 -256 -298 0
-195 -256 -299 0
-195 -256 -300 0
-195 -256 -301 0
-195 -256 -302 0
-195 -256 -303 0
-195 -256 -304 0
-195 -256 -305 0
-195 -256 -306 0
-195 -256 -307 0
-195 -256 -308 0
-195 -256 -309 0
-195 -256 -310 0
-195 -256 -311 0
-195 -256 -312 0
-195 -256 -313 0
-195 -256 -314 0
-195 -256 -315 0
-195 -257 -291 364 0
-195 -257 -292 365 0
-195 -257 -293 0
-195 -257 -294 0
-195 -257 -295 0
-195 -257 -296 0
-195 -257 -297 0
-195 -257 -298 0
-195 -257 -299 0
-195 -257 -300 0
-195 -257 -301 0
-195 -257 -302 0
-195 -257 -303 0
-195 -257 -304 0
-195 -257 -305 0
-195 -257 -306 0
-195 -257 -307 0
-195 -257 -308 0
-195 -257 -309 0
-195 -257 -310 0
-195 -257 -311 0
-195 -257 -312 0
-195 -257 -313 0
-195 -257 -314 0
-195 -257 -315 0
-195 -258 -291 365 0
-195 -258 -292 0
-195 -258 -293 0
-195 -258 -294 0
-195 -258 -295 0
-195 -258 -296 0
-195 -258 -297 0
-195 -258 -298 0
-195 -258 -299 0
-195 -258 -300 0
-195 -258 -301 0
-195 -258 -302 0
-195 -258 -303 0
-195 -258 -304 0
-195 -258 -305 0
-195 -258 -306 0
-195 -258 -307 0
-195 -258 -308 0
-195 -258 -309 0
-195 -258 -310 0
-195 -258 -311 0
-195 -258 -312 0
-195 -258 -313 0
-195 -258 -314 0
-195 -258 -315 0
-195 -259 -291 0
-195 -259 -292 0
-195 -259 -293 0
-195 -259 -294 0
-195 -259 -295 0
-195 -259 -296 0
-195 -259 -297 0
-195 -259 -298 0
-195 -259 -299 0
-195 -259 -300 0
-195 -259 -301 0
-195 -259 -302 0
-195 -259 -303 0
-195 -259 -304 0
-195 -259 -305 0
-195 -259 -306 0
-195 -259 -307 0
-195 -259 -308 0
-195 -259 -309 0
-195 -259 -310 0
-195 -259 -311 0
-195 -259 -312 0
-195 -259 -313 0
-195 -259 -314 0
-195 -259 -315 0
-195 -260 -291 0
-195 -260 -292 0
-195 -260 -293 0
-195 -260 -294 0
-195 -260 -295 0
-195 -260 -296 0
-195 -260 -297 0
-195 -260 -298 0
-195 -260 -299 0
-195 -260 -300 0
-195 -260 -301 0
-195 -260 -302 0
-195 -260 -303 0
-195 -260 -304 0
-195 -260 -305 0
-195 -260 -306 0
-195 -260 -307 0
-195 -260 -308 0
-195 -260 -309 0
-195 -260 -310 0
-195 -260 -311 0
-195 -260 -312 0
-195 -260 -313 0
-195 -260 -314 0
-195 -260 -315 0
-195 -261 -291 0
-195 -261 -292 0
-195 -261 -293 0
-195 -261 -294 0
-195 -261 -295 0
-195 -261 -296 0
-195 -261 -297 0
-195 -261 -298 0
-195 -261 -299 0
-195 -261 -300 0
-195 -261 -301 0
-195 -261 -302 0
-195 -261 -303 0
-195 -261 -304 0
-195 -261 -305 0
-195 -261 -306 0
-195 -261 -307 0
-195 -261 -308 0
-195 -261 -309 0
-195 -261 -310 0
-195 -261 -311 0
-195 -261 -312 0
-195 -261 -313 0
-195 -261 -314 0
-195 -261 -315 0
-195 -262 -291 0
-195 -262 -292 0
-195 -262 -293 0
-195 -262 -294 0
-195 -262 -295 0
-195 -262 -296 0
-195 -262 -297 0
-195 -262 -298 0
-195 -262 -299 0
-195 -262 -300 0
-195 -262 -301 0
-195 -262 -302 0
-195 -262 -303 0
-195 -262 -304 0
-195 -262 -305 0
-195 -262 -306 0
-195 -262 -307 0
-195 -262 -308 0
-195 -262 -309 0
-195 -262 -310 0
-195 -262 -311 0
-195 -262 -312 0
-195 -262 -313 0
-195 -262 -314 0
-195 -262 -315 0
-195 -263 -291 0
-195 -263 -292 0
-195 -263 -293 0
-195 -263 -294 0
-195 -263 -295 0
-195 -263 -296 0
-195 -263 -297 0
-195 -263 -298 0
-195 -263 -299 0
-195 -263 -300 0
-195 -263 -301 0
-195 -263 -302 0
-195 -263 -303 0
-195 -263 -304 0
-195 -263 -305 0
-195 -263 -306 0
-195 -263 -307 0
-195 -263 -308 0
-195 -263 -309 0
-195 -263 -310 0
-195 -263 -311 0
-195 -263 -312 0
-195 -263 -313 0
-195 -263 -314 0
-195 -263 -315 0
-195 -264 -291 0
-195 -264 -292 0
-195 -264 -293 0
-195 -264 -294 0
-195 -264 -295 0
-195 -264 -296 0
-195 -264 -297 0
-195 -264 -298 0
-195 -264 -299 0
-195 -264 -300 0
-195 -264 -301 0
-195 -264 -302 0
-195 -264 -303 0
-195 -264 -304 0
-195 -264 -305 0
-195 -264 -306 0
-195 -264 -307 0
-195 -264 -308 0
-195 -264 -309 0
-195 -264 -310 0
-195 -264 -311 0
-195 -264 -312 0
-195 -264 -313 0
-195 -264 -314 0
-195 -264 -315 0
-195 -265 -291 0
-195 -265 -292 0
-195 -265 -293 0
-195 -265 -294 0
-195 -265 -295 0
-195 -265 -296 0
-195 -265 -297 0
-195 -265 -298 0
-195 -265 -299 0
-195 -265 -300 0
-195 -265 -301 0
-195 -265 -302 0
-195 -265 -303 0
-195 -265 -304 0
-195 -265 -305 0
-195 -265 -306 0
-195 -265 -307 0
-195 -265 -308 0
-195 -265 -309 0
-195 -265 -310 0
-195 -265 -311 0
-195 -265 -312 0
-195 -265 -313 0
-195 -265 -314 0
-195 -265 -315 0
-196 -241 -291 349 0
-196 -241 -292 350 0
-196 -241 -293 351 0
-196 -241 -294 352 0
-196 -241 -295 353 0
-196 -241 -296 354 0
-196 -241 -297 355 0
-196 -241 -298 356 0
-196 -241 -299 357 0
-196 -241 -300 358 0
-196 -241 -301 359 0
-196 -241 -302 360 0
-196 -241 -303 361 0
-196 -241 -304 362 0
-196 -241 -305 363 0
-196 -241 -306 364 0
-196 -241 -307 365 0
-196 -241 -308 0
-196 -241 -309 0
-196 -241 -310 0
-196 -241 -311 0
-196 -241 -312 0
-196 -241 -313 0
-196 -241 -314 0
-196 -241 -315 0
-196 -242 -291 350 0
-196 -242 -292 351 0
-196 -242 -293 352 0
-196 -242 -294 353 0
-196 -242 -295 354 0
-196 -242 -296 355 0
-196 -242 -297 356 0
-196 -242 -298 357 0
-196 -242 -299 358 0
-196 -242 -300 359 0
-196 -242 -301 360 0
-196 -242 -302 361 0
-196 -242 -303 362 0
-196 -242 -304 363 0
-196 -242 -305 364 0
-196 -242 -306 365 0
-196 -242 -307 0
-196 -242 -308 0
-196 -242 -309 0
-196 -242 -310 0
-196 -242 -311 0
-196 -242 -312 0
-196 -242 -313 0
-196 -242 -314 0
-196 -242 -315 0
-196 -243 -291 351 0
-196 -243 -292 352 0
-196 -243 -293 353 0
-196 -243 -294 354 0
-196 -243 -295 355 0
-196 -243 -296 356 0
-196 -243 -297 357 0
-196 -243 -298 358 0
-196 -243 -299 359 0
-196 -243 -300 360 0
-196 -243 -301 361 0
-196 -243 -302 362 0
-196 -243 -303 363 0
-196 -243 -304 364 0
-196 -243 -305 365 0
-196 -243 -306 0
-196 -243 -307 0
-196 -243 -308 0
-196 -243 -309 0
-196 -243 -310 0
-196 -243 -311 0
-196 -243 -312 0
-196 -243 -313 0
-196 -243 -314 0
-196 -243 -315 0
-196 -244 -291 352 0
-196 -244 -292 353 0
-196 -244 -293 354 0
-196 -244 -294 355 0
-196 -244 -295 356 0
-196 -244 -296 357 0
-196 -244 -297 358 0
-196 -244 -298 359 0
-196 -244 -299 360 0
-196 -244 -300 361 0
-196 -244 -301 362 0
-196 -244 -302 363 0
-196 -244 -303 364 0
-196 -244 -304 365 0
-196 -244 -305 0
-196 -244 -306 0
-196 -244 -307 0
-196 -244 -308 0
-196 -244 -309 0
-196 -244 -310 0
-196 -244 -311 0
-196 -244 -312 0
-196 -244 -313 0
-196 -244 -314 0
-196 -244 -315 0
-196 -245 -291 353 0
-196 -245 -292 354 0
-196 -245 -293 355 0
-196 -245 -294 356 0
-196 -245 -295 357 0
-196 -245 -296 358 0
-196 -245 -297 359 0
-196 -245 -298 360 0
-196 -245 -299 361 0
-196 -245 -300 362 0
-196 -245 -301 363 0
-196 -245 -302 364 0
-196 -245 -303 365 0
-196 -245 -304 0
-196 -245 -305 0
-196 -245 -306 0
-196 -245 -307 0
-196 -245 -308 0
-196 -245 -309 0
-196 -245 -310 0
-196 -245 -311 0
-196 -245 -312 0
-196 -245 -313 0
-196 -245 -314 0
-196 -245 -315 0
-196 -246 -291 354 0
-196 -246 -292 355 0
-196 -246 -293 356 0
-196 -246 -294 357 0
-196 -246 -295 358 0
-196 -246 -296 359 0
-196 -246 -297 360 0
-196 -246 -298 361 0
-196 -246 -299 362 0
-196 -246 -300 363 0
-196 -246 -301 364 0
-196 -246 -302 365 0
-196 -246 -303 0
-196 -246 -304 0
-196 -246 -305 0
-196 -246 -306 0
-196 -246 -307 0
-196 -246 -308 0
-196 -246 -309 0
-196 -246 -310 0
-196 -246 -311 0
-196 -246 -312 0
-196 -246 -313 0
-196 -246 -314 0
-196 -246 -315 0
-196 -247 -291 355 0
-196 -247 -292 356 0
-196 -247 -293 357 0
-196 -247 -294 358 0
-196 -247 -295 359 0
-196 -247 -296 360 0
-196 -247 -297 361 0
-196 -247 -298 362 0
-196 -247 -299 363 0
-196 -247 -300 364 0
-196 -247 -301 365 0
-196 -247 -302 0
-196 -247 -303 0
-196 -247 -304 0
-196 -247 -305 0
-196 -247 -306 0
-196 -247 -307 0
-196 -247 -308 0
-196 -247 -309 0
-196 -247 -310 0
-196 -247 -311 0
-196 -247 -312 0
-196 -247 -313 0
-196 -247 -314 0
-196 -247 -315 0
-196 -248 -291 356 0
-196 -248 -292 357 0
-196 -248 -293 358 0
-196 -248 -294 359 0
-196 -248 -295 360 0
-196 -248 -296 361 0
-196 -248 -297 362 0
-196 -248 -298 363 0
-196 -248 -299 364 0
-196 -248 -300 365 0
-196 -248 -301 0
-196 -248 -302 0
-196 -248 -303 0
-196 -248 -304 0
-196 -248 -305 0
-196 -248 -306 0
-196 -248 -307 0
-196 -248 -308 0
-196 -248 -309 0
-196 -248 -310 0
-196 -248 -311 0
-196 -248 -312 0
-196 -248 -313 0
-196 -248 -314 0
-196 -248 -315 0
-196 -249 -291 357 0
-196 -249 -292 358 0
-196 -249 -293 359 0
-196 -249 -294 360 0
-196 -249 -295 361 0
-196 -249 -296 362 0
-196 -249 -297 363 0
-196 -249 -298 364 0
-196 -249 -299 365 0
-196 -249 -300 0
-196 -249 -301 0
-196 -249 -302 0
-196 -249 -303 0
-196 -249 -304 0
-196 -249 -305 0
-196 -249 -306 0
-196 -249 -307 0
-196 -249 -308 0
-196 -249 -309 0
-196 -249 -310 0
-196 -249 -311 0
-196 -249 -312 0
-196 -249 -313 0
-196 -249 -314 0
-196 -249 -315 0
-196 -250 -291 358 0
-196 -250 -292 359 0
-196 -250 -293 360 0
-196 -250 -294 361 0
-196 -250 -295 362 0
-196 -250 -296 363 0
-196 -250 -297 364 0
-196 -250 -298 365 0
-196 -250 -299 0
-196 -250 -300 0
-196 -250 -301 0
-196 -250 -302 0
-196 -250 -303 0
-196 -250 -304 0
-196 -250 -305 0
-196 -250 -306 0
-196 -250 -307 0
-196 -250 -308 0
-196 -250 -309 0
-196 -250 -310 0
-196 -250 -311 0
-196 -250 -312 0
-196 -250 -313 0
-196 -250 -314 0
-196 -250 -315 0
-196 -251 -291 359 0
-196 -251 -292 360 0
-196 -251 -293 361 0
-196 -251 -294 362 0
-196 -251 -295 363 0
-196 -251 -296 364 0
-196 -251 -297 365 0
-196 -251 -298 0
-196 -251 -299 0
-196 -251 -300 0
-196 -251 -301 0
-196 -251 -302 0
-196 -251 -303 0
-196 -251 -304 0
-196 -251 -305 0
-196 -251 -306 0
-196 -251 -307 0
-196 -251 -308 0
-196 -251 -309 0
-196 -251 -310 0
-196 -251 -311 0
-196 -251 -312 0
-196 -251 -313 0
-196 -251 -314 0
-196 -251 -315 0
-196 -252 -291 360 0
-196 -252 -292 361 0
-196 -252 -293 362 0
-196 -252 -294 363 0
-196 -252 -295 364 0
-196 -252 -296 365 0
-196 -252 -297 0
-196 -252 -298 0
-196 -252 -299 0
-196 -252 -300 0
-196 -252 -301 0
-196 -252 -302 0
-196 -252 -303 0
-196 -252 -304 0
-196 -252 -305 0
-196 -252 -306 0
-196 -252 -307 0
-196 -252 -308 0
-196 -252 -309 0
-196 -252 -310 0
-196 -252 -311 0
-196 -252 -312 0
-196 -252 -313 0
-196 -252 -314 0
-196 -252 -315 0
-196 -253 -291 361 0
-196 -253 -292 362 0
-196 -253 -293 363 0
-196 -253 -294 364 0
-196 -253 -295 365 0
-196 -253 -296 0
-196 -253 -297 0
-196 -253 -298 0
-196 -253 -299 0
-196 -253 -300 0
-196 -253 -301 0
-196 -253 -302 0
-196 -253 -303 0
-196 -253 -304 0
-196 -253 -305 0
-196 -253 -306 0
-196 -253 -307 0
-196 -253 -308 0
-196 -253 -309 0
-196 -253 -310 0
-196 -253 -311 0
-196 -253 -312 0
-196 -253 -313 0
-196 -253 -314 0
-196 -253 -315 0
-196 -254 -291 362 0
-196 -254 -292 363 0
-196 -254 -293 364 0
-196 -254 -294 365 0
-196 -254 -295 0
-196 -254 -296 0
-196 -254 -297 0
-196 -254 -298 0
-196 -254 -299 0
-196 -254 -300 0
-196 -254 -301 0
-196 -254 -302 0
-196 -254 -303 0
-196 -254 -304 0
-196 -254 -305 0
-196 -254 -306 0
-196 -254 -307 0
-196 -254 -308 0
-196 -254 -309 0
-196 -254 -310 0
-196 -254 -311 0
-196 -254 -312 0
-196 -254 -313 0
-196 -254 -314 0
-196 -254 -315 0
-196 -255 -291 363 0
-196 -255 -292 364 0
-196 -255 -293 365 0
-196 -255 -294 0
-196 -255 -295 0
-196 -255 -296 0
-196 -255 -297 0
-196 -255 -298 0
-196 -255 -299 0
-196 -255 -300 0
-196 -255 -301 0
-196 -255 -302 0
-196 -255 -303 0
-196 -255 -304 0
-196 -255 -305 0
-196 -255 -306 0
-196 -255 -307 0
-196 -255 -308 0
-196 -255 -309 0
-196 -255 -310 0
-196 -255 -311 0
-196 -255 -312 0
-196 -255 -313 0
-196 -255 -314 0
-196 -255 -315 0
-196 -256 -291 364 0
-196 -256 -292 365 0
-196 -256 -293 0
-196 -256 -294 0
-196 -256 -295 0
-196 -256 -296 0
-196 -256 -297 0
-196 -256 -298 0
-196 -256 -299 0
-196 -256 -300 0
-196 -256 -301 0
-196 -256 -302 0
-196 -256 -303 0
-196 -256 -304 0
-196 -256 -305 0
-196 -256 -306 0
-196 -256 -307 0
-196 -256 -308 0
-196 -256 -309 0
-196 -256 -310 0
-196 -256 -311 0
-196 -256 -312 0
-196 -256 -313 0
-196 -256 -314 0
-196 -256 -315 0
-196 -257 -291 365 0
-196 -257 -292 0
-196 -257 -293 0
-196 -257 -294 0
-196 -257 -295 0
-196 -257 -296 0
-196 -257 -297 0
-196 -257 -298 0
-196 -257 -299 0
-196 -257 -300 0
-196 -257 -301 0
-196 -257 -302 0
-196 -257 -303 0
-196 -257 -304 0
-196 -257 -305 0
-196 -257 -306 0
-196 -257 -307 0
-196 -257 -308 0
-196 -257 -309 0
-196 -257 -310 0
-196 -257 -311 0
-196 -257 -312 0
-196 -257 -313 0
-196 -257 -314 0
-196 -257 -315 0
-196 -258 -291 0
-196 -258 -292 0
-196 -258 -293 0
-196 -258 -294 0
-196 -258 -295 0
-196 -258 -296 0
-196 -258 -297 0
-196 -258 -298 0
-196 -258 -299 0
-196 -258 -300 0
-196 -258 -301 0
-196 -258 -302 0
-196 -258 -303 0
-196 -258 -304 0
-196 -258 -305 0
-196 -258 -306 0
-196 -258 -307 0
-196 -258 -308 0
-196 -258 -309 0
-196 -258 -310 0
-196 -258 -311 0
-196 -258 -312 0
-196 -258 -313 0
-196 -258 -314 0
-196 -258 -315 0
-196 -259 -291 0
-196 -259 -292 0
-196 -259 -293 0
-196 -259 -294 0
-196 -259 -295 0
-196 -259 -296 0
-196 -259 -297 0
-196 -259 -298 0
-196 -259 -299 0
-196 -259 -300 0
-196 -259 -301 0
-196 -259 -302 0
-196 -259 -303 0
-196 -259 -304 0
-196 -259 -305 0
-196 -259 -306 0
-196 -259 -307 0
-196 -259 -308 0
-196 -259 -309 0
-196 -259 -310 0
-196 -259 -311 0
-196 -259 -312 0
-196 -259 -313 0
-196 -259 -314 0
-196 -259 -315 0
-196 -260 -291 0
-196 -260 -292 0
-196 -260 -293 0
-196 -260 -294 0
-196 -260 -295 0
-196 -260 -296 0
-196 -260 -297 0
-196 -260 -298 0
-196 -260 -299 0
-196 -260 -300 0
-196 -260 -301 0
-196 -260 -302 0
-196 -260 -303 0
-196 -260 -304 0
-196 -260 -305 0
-196 -260 -306 0
-196 -260 -307 0
-196 -260 -308 0
-196 -260 -309 0
-196 -260 -310 0
-196 -260 -311 0
-196 -260 -312 0
-196 -260 -313 0
-196 -260 -314 0
-196 -260 -315 0
-196 -261 -291 0
-196 -261 -292 0
-196 -261 -293 0
-196 -261 -294 0
-196 -261 -295 0
-196 -261 -296 0
-196 -261 -297 0
-196 -261 -298 0
-196 -261 -299 0
-196 -261 -300 0
-196 -261 -301 0
-196 -261 -302 0
-196 -261 -303 0
-196 -261 -304 0
-196 -261 -305 0
-196 -261 -306 0
-196 -261 -307 0
-196 -261 -308 0
-196 -261 -309 0
-196 -261 -310 0
-196 -261 -311 0
-196 -261 -312 0
-196 -261 -313 0
-196 -261 -314 0
-196 -261 -315 0
-196 -262 -291 0
-196 -262 -292 0
-196 -262 -293 0
-196 -262 -294 0
-196 -262 -295 0
-196 -262 -296 0
-196 -262 -297 0
-196 -262 -298 0
-196 -262 -299 0
-196 -262 -300 0
-196 -262 -301 0
-196 -262 -302 0
-196 -262 -303 0
-196 -262 -304 0
-196 -262 -305 0
-196 -262 -306 0
-196 -262 -307 0
-196 -262 -308 0
-196 -262 -309 0
-196 -262 -310 0
-196 -262 -311 0
-196 -262 -312 0
-196 -262 -313 0
-196 -262 -314 0
-196 -262 -315 0
-196 -263 -291 0
-196 -263 -292 0
-196 -263 -293 0
-196 -263 -294 0
-196 -263 -295 0
-196 -263 -296 0
-196 -263 -297 0
-196 -263 -298 0
-196 -263 -299 0
-196 -263 -300 0
-196 -263 -301 0
-196 -263 -302 0
-196 -263 -303 0
-196 -263 -304 0
-196 -263 -305 0
-196 -263 -306 0
-196 -263 -307 0
-196 -263 -308 0
-196 -263 -309 0
-196 -263 -310 0
-196 -263 -311 0
-196 -263 -312 0
-196 -263 -313 0
-196 -263 -314 0
-196 -263 -315 0
-196 -264 -291 0
-196 -264 -292 0
-196 -264 -293 0
-196 -264 -294 0
-196 -264 -295 0
-196 -264 -296 0
-196 -264 -297 0
-196 -264 -298 0
-196 -264 -299 0
-196 -264 -300 0
-196 -264 -301 0
-196 -264 -302 0
-196 -264 -303 0
-196 -264 -304 0
-196 -264 -305 0
-196 -264 -306 0
-196 -264 -307 0
-196 -264 -308 0
-196 -264 -309 0
-196 -264 -310 0
-196 -264 -311 0
-196 -264 -312 0
-196 -264 -313 0
-196 -264 -314 0
-196 -264 -315 0
-196 -265 -291 0
-196 -265 -292 0
-196 -265 -293 0
-196 -265 -294 0
-196 -265 -295 0
-196 -265 -296 0
-196 -265 -297 0
-196 -265 -298 0
-196 -265 -299 0
-196 -265 -300 0
-196 -265 -301 0
-196 -265 -302 0
-196 -265 -303 0
-196 -265 -304 0
-196 -265 -305 0
-196 -265 -306 0
-196 -265 -307 0
-196 -265 -308 0
-196 -265 -309 0
-196 -265 -310 0
-196 -265 -311 0
-196 -265 -312 0
-196 -265 -313 0
-196 -265 -314 0
-196 -265 -315 0
-197 -241 -291 350 0
-197 -241 -292 351 0
-197 -241 -293 352 0
-197 -241 -294 353 0
-197 -241 -295 354 0
-197 -241 -296 355 0
-197 -241 -297 356 0
-197 -241 -298 357 0
-197 -241 -299 358 0
-197 -241 -300 359 0
-197 -241 -301 360 0
-197 -241 -302 361 0
-197 -241 -303 362 0
-197 -241 -304 363 0
-197 -241 -305 364 0
-197 -241 -306 365 0
-197 -241 -307 0
-197 -241 -308 0
-197 -241 -309 0
-197 -241 -310 0
-197 -241 -311 0
-197 -241 -312 0
-197 -241 -313 0
-197 -241 -314 0
-197 -241 -315 0
-197 -242 -291 351 0
-197 -242 -292 352 0
-197 -242 -293 353 0
-197 -242 -294 354 0
-197 -242 -295 355 0
-197 -242 -296 356 0
-197 -242 -297 357 0
-197 -242 -298 358 0
-197 -242 -299 359 0
-197 -242 -300 360 0
-197 -242 -301 361 0
-197 -242 -302 362 0
-197 -242 -303 363 0
-197 -242 -304 364 0
-197 -242 -305 365 0
-197 -242 -306 0
-197 -242 -307 0
-197 -242 -308 0
-197 -242 -309 0
-197 -242 -310 0
-197 -242 -311 0
-197 -242 -312 0
-197 -242 -313 0
-197 -242 -314 0
-197 -242 -315 0
-197 -243 -291 352 0
-197 -243 -292 353 0
-197 -243 -293 354 0
-197 -243 -294 355 0
-197 -243 -295 356 0
-197 -243 -296 357 0
-197 -243 -297 358 0
-197 -243 -298 359 0
-197 -243 -299 360 0
-197 -243 -300 361 0
-197 -243 -301 362 0
-197 -243 -302 363 0
-197 -243 -303 364 0
-197 -243 -304 365 0
-197 -243 -305 0
-197 -243 -306 0
-197 -243 -307 0
-197 -243 -308 0
-197 -243 -309 0
-197 -243 -310 0
-197 -243 -311 0
-197 -243 -312 0
-197 -243 -313 0
-197 -243 -314 0
-197 -243 -315 0
-197 -244 -291 353 0
-197 -244 -292 354 0
-197 -244 -293 355 0
-197 -244 -294 356 0
-197 -244 -295 357 0
-197 -244 -296 358 0
-197 -244 -297 359 0
-197 -244 -298 360 0
-197 -244 -299 361 0
-197 -244 -300 362 0
-197 -244 -301 363 0
-197 -244 -302 364 0
-197 -244 -303 365 0
-197 -244 -304 0
-197 -244 -305 0
-197 -244 -306 0
-197 -244 -307 0
-197 -244 -308 0
-197 -244 -309 0
-197 -244 -310 0
-197 -244 -311 0
-197 -244 -312 0
-197 -244 -313 0
-197 -244 -314 0
-197 -244 -315 0
-197 -245 -291 354 0
-197 -245 -292 355 0
-197 -245 -293 356 0
-197 -245 -294 357 0
-197 -245 -295 358 0
-197 -245 -296 359 0
-197 -245 -297 360 0
-197 -245 -298 361 0
-197 -245 -299 362 0
-197 -245 -300 363 0
-197 -245 -301 364 0
-197 -245 -302 365 0
-197 -245 -303 0
-197 -245 -304 0
-197 -245 -305 0
-197 -245 -306 0
-197 -245 -307 0
-197 -245 -308 0
-197 -245 -309 0
-197 -245 -310 0
-197 -245 -311 0
-197 -245 -312 0
-197 -245 -313 0
-197 -245 -314 0
-197 -245 -315 0
-197 -246 -291 355 0
-197 -246 -292 356 0
-197 -246 -293 357 0
-197 -246 -294 358 0
-197 -246 -295 359 0
-197 -246 -296 360 0
-197 -246 -297 361 0
-197 -246 -298 362 0
-197 -246 -299 363 0
-197 -246 -300 364 0
-197 -246 -301 365 0
-197 -246 -302 0
-197 -246 -303 0
-197 -246 -304 0
-197 -246 -305 0
-197 -246 -306 0
-197 -246 -307 0
-197 -246 -308 0
-197 -246 -309 0
-197 -246 -310 0
-197 -246 -311 0
-197 -246 -312 0
-197 -246 -313 0
-197 -246 -314 0
-197 -246 -315 0
-197 -247 -291 356 0
-197 -247 -292 357 0
-197 -247 -293 358 0
-197 -247 -294 359 0
-197 -247 -295 360 0
-197 -247 -296 361 0
-197 -247 -297 362 0
-197 -247 -298 363 0
-197 -247 -299 364 0
-197 -247 -300 365 0
-197 -247 -301 0
-197 -247 -302 0
-197 -247 -303 0
-197 -247 -304 0
-197 -247 -305 0
-197 -247 -306 0
-197 -247 -307 0
-197 -247 -308 0
-197 -247 -309 0
-197 -247 -310 0
-197 -247 -311 0
-197 -247 -312 0
-197 -247 -313 0
-197 -247 -314 0
-197 -247 -315 0
-197 -248 -291 357 0
-197 -248 -292 358 0
-197 -248 -293 359 0
-197 -248 -294 360 0
-197 -248 -295 361 0
-197 -248 -296 362 0
-197 -248 -297 363 0
-197 -248 -298 364 0
-197 -248 -299 365 0
-197 -248 -300 0
-197 -248 -301 0
-197 -248 -302 0
-197 -248 -303 0
-197 -248 -304 0
-197 -248 -305 0
-197 -248 -306 0
-197 -248 -307 0
-197 -248 -308 0
-197 -248 -309 0
-197 -248 -310 0
-197 -248 -311 0
-197 -248 -312 0
-197 -248 -313 0
-197 -248 -314 0
-197 -248 -315 0
-197 -249 -291 358 0
-197 -249 -292 359 0
-197 -249 -293 360 0
-197 -249 -294 361 0
-197 -249 -295 362 0
-197 -249 -296 363 0
-197 -249 -297 364 0
-197 -249 -298 365 0
-197 -249 -299 0
-197 -249 -300 0
-197 -249 -301 0
-197 -249 -302 0
-197 -249 -303 0
-197 -249 -304 0
-197 -249 -305 0
-197 -249 -306 0
-197 -249 -307 0
-197 -249 -308 0
-197 -249 -309 0
-197 -249 -310 0
-197 -249 -311 0
-197 -249 -312 0
-197 -249 -313 0
-197 -249 -314 0
-197 -249 -315 0
-197 -250 -291 359 0
-197 -250 -292 360 0
-197 -250 -293 361 0
-197 -250 -294 362 0
-197 -250 -295 363 0
-197 -250 -296 364 0
-197 -250 -297 365 0
-197 -250 -298 0
-197 -250 -299 0
-197 -250 -300 0
-197 -250 -301 0
-197 -250 -302 0
-197 -250 -303 0
-197 -250 -304 0
-197 -250 -305 0
-197 -250 -306 0
-197 -250 -307 0
-197 -250 -308 0
-197 -250 -309 0
-197 -250 -310 0
-197 -250 -311 0
-197 -250 -312 0
-197 -250 -313 0
-197 -250 -314 0
-197 -250 -315 0
-197 -251 -291 360 0
-197 -251 -292 361 0
-197 -251 -293 362 0
-197 -251 -294 363 0
-197 -251 -295 364 0
-197 -251 -296 365 0
-197 -251 -297 0
-197 -251 -298 0
-197 -251 -299 0
-197 -251 -300 0
-197 -251 -301 0
-197 -251 -302 0
-197 -251 -303 0
-197 -251 -304 0
-197 -251 -305 0
-197 -251 -306 0
-197 -251 -307 0
-197 -251 -308 0
-197 -251 -309 0
-197 -251 -310 0
-197 -251 -311 0
-197 -251 -312 0
-197 -251 -313 0
-197 -251 -314 0
-197 -251 -315 0
-197 -252 -291 361 0
-197 -252 -292 362 0
-197 -252 -293 363 0
-197 -252 -294 364 0
-197 -252 -295 365 0
-197 -252 -296 0
-197 -252 -297 0
-197 -252 -298 0
-197 -252 -299 0
-197 -252 -300 0
-197 -252 -301 0
-197 -252 -302 0
-197 -252 -303 0
-197 -252 -304 0
-197 -252 -305 0
-197 -252 -306 0
-197 -252 -307 0
-197 -252 -308 0
-197 -252 -309 0
-197 -252 -310 0
-197 -252 -311 0
-197 -252 -312 0
-197 -252 -313 0
-197 -252 -314 0
-197 -252 -315 0
-197 -253 -291 362 0
-197 -253 -292 363 0
-197 -253 -293 364 0
-197 -253 -294 365 0
-197 -253 -295 0
-197 -253 -296 0
-197 -253 -297 0
-197 -253 -298 0
-197 -253 -299 0
-197 -253 -300 0
-197 -253 -301 0
-197 -253 -302 0
-197 -253 -303 0
-197 -253 -304 0
-197 -253 -305 0
-197 -253 -306 0
-197 -253 -307 0
-197 -253 -308 0
-197 -253 -309 0
-197 -253 -310 0
-197 -253 -311 0
-197 -253 -312 0
-197 -253 -313 0
-197 -253 -314 0
-197 -253 -315 0
-197 -254 -291 363 0
-197 -254 -292 364 0
-197 -254 -293 365 0
-197 -254 -294 0
-197 -254 -295 0
-197 -254 -296 0
-197 -254 -297 0
-197 -254 -298 0
-197 -254 -299 0
-197 -254 -300 0
-197 -254 -301 0
-197 -254 -302 0
-197 -254 -303 0
-197 -254 -304 0
-197 -254 -305 0
-197 -254 -306 0
-197 -254 -307 0
-197 -254 -308 0
-197 -254 -309 0
-197 -254 -310 0
-197 -254 -311 0
-197 -254 -312 0
-197 -254 -313 0
-197 -254 -314 0
-197 -254 -315 0
-197 -255 -291 364 0
-197 -255 -292 365 0
-197 -255 -293 0
-197 -255 -294 0
-197 -255 -295 0
-197 -255 -296 0
-197 -255 -297 0
-197 -255 -298 0
-197 -255 -299 0
-197 -255 -300 0
-197 -255 -301 0
-197 -255 -302 0
-197 -255 -303 0
-197 -255 -304 0
-197 -255 -305 0
-197 -255 -306 0
-197 -255 -307 0
-197 -255 -308 0
-197 -255 -309 0
-197 -255 -310 0
-197 -255 -311 0
-197 -255 -312 0
-197 -255 -313 0
-197 -255 -314 0
-197 -255 -315 0
-197 -256 -291 365 0
-197 -256 -292 0
-197 -256 -293 0
-197 -256 -294 0
-197 -256 -295 0
-197 -256 -296 0
-197 -256 -297 0
-197 -256 -298 0
-197 -256 -299 0
-197 -256 -300 0
-197 -256 -301 0
-197 -256 -302 0
-197 -256 -303 0
-197 -256 -304 0
-197 -256 -305 0
-197 -256 -306 0
-197 -256 -307 0
-197 -256 -308 0
-197 -256 -309 0
-197 -256 -310 0
-197 -256 -311 0
-197 -256 -312 0
-197 -256 -313 0
-197 -256 -314 0
-197 -256 -315 0
-197 -257 -291 0
-197 -257 -292 0
-197 -257 -293 0
-197 -257 -294 0
-197 -257 -295 0
-197 -257 -296 0
-197 -257 -297 0
-197 -257 -298 0
-197 -257 -299 0
-197 -257 -300 0
-197 -257 -301 0
-197 -257 -302 0
-197 -257 -303 0
-197 -257 -304 0
-197 -257 -305 0
-197 -257 -306 0
-197 -257 -307 0
-197 -257 -308 0
-197 -257 -309 0
-197 -257 -310 0
-197 -257 -311 0
-197 -257 -312 0
-197 -257 -313 0
-197 -257 -314 0
-197 -257 -315 0
-197 -258 -291 0
-197 -258 -292 0
-197 -258 -293 0
-197 -258 -294 0
-197 -258 -295 0
-197 -258 -296 0
-197 -258 -297 0
-197 -258 -298 0
-197 -258 -299 0
-197 -258 -300 0
-197 -258 -301 0
-197 -258 -302 0
-197 -258 -303 0
-197 -258 -304 0
-197 -258 -305 0
-197 -258 -306 0
-197 -258 -307 0
-197 -258 -308 0
-197 -258 -309 0
-197 -258 -310 0
-197 -258 -311 0
-197 -258 -312 0
-197 -258 -313 0
-197 -258 -314 0
-197 -258 -315 0
-197 -259 -291 0
-197 -259 -292 0
-197 -259 -293 0
-197 -259 -294 0
-197 -259 -295 0
-197 -259 -296 0
-197 -259 -297 0
-197 -259 -298 0
-197 -259 -299 0
-197 -259 -300 0
-197 -259 -301 0
-197 -259 -302 0
-197 -259 -303 0
-197 -259 -304 0
-197 -259 -305 0
-197 -259 -306 0
-197 -259 -307 0
-197 -259 -308 0
-197 -259 -309 0
-197 -259 -310 0
-197 -259 -311 0
-197 -259 -312 0
-197 -259 -313 0
-197 -259 -314 0
-197 -259 -315 0
-197 -260 -291 0
-197 -260 -292 0
-197 -260 -293 0
-197 -260 -294 0
-197 -260 -295 0
-197 -260 -296 0
-197 -260 -297 0
-197 -260 -298 0
-197 -260 -299 0
-197 -260 -300 0
-197 -260 -301 0
-197 -260 -302 0
-197 -260 -303 0
-197 -260 -304 0
-197 -260 -305 0
-197 -260 -306 0
-197 -260 -307 0
-197 -260 -308 0
-197 -260 -309 0
-197 -260 -310 0
-197 -260 -311 0
-197 -260 -312 0
-197 -260 -313 0
-197 -260 -314 0
-197 -260 -315 0
-197 -261 -291 0
-197 -261 -292 0
-197 -261 -293 0
-197 -261 -294 0
-197 -261 -295 0
-197 -261 -296 0
-197 -261 -297 0
-197 -261 -298 0
-197 -261 -299 0
-197 -261 -300 0
-197 -261 -301 0
-197 -261 -302 0
-197 -261 -303 0
-197 -261 -304 0
-197 -261 -305 0
-197 -261 -306 0
-197 -261 -307 0
-197 -261 -308 0
-197 -261 -309 0
-197 -261 -310 0
-197 -261 -311 0
-197 -261 -312 0
-197 -261 -313 0
-197 -261 -314 0
-197 -261 -315 0
-197 -262 -291 0
-197 -262 -292 0
-197 -262 -293 0
-197 -262 -294 0
-197 -262 -295 0
-197 -262 -296 0
-197 -262 -297 0
-197 -262 -298 0
-197 -262 -299 0
-197 -262 -300 0
-197 -262 -301 0
-197 -262 -302 0
-197 -262 -303 0
-197 -262 -304 0
-197 -262 -305 0
-197 -262 -306 0
-197 -262 -307 0
-197 -262 -308 0
-197 -262 -309 0
-197 -262 -310 0
-197 -262 -311 0
-197 -262 -312 0
-197 -262 -313 0
-197 -262 -314 0
-197 -262 -315 0
-197 -263 -291 0
-197 -263 -292 0
-197 -263 -293 0
-197 -263 -294 0
-197 -263 -295 0
-197 -263 -296 0
-197 -263 -297 0
-197 -263 -298 0
-197 -263 -299 0
-197 -263 -300 0
-197 -263 -301 0
-197 -263 -302 0
-197 -263 -303 0
-197 -263 -304 0
-197 -263 -305 0
-197 -263 -306 0
-197 -263 -307 0
-197 -263 -308 0
-197 -263 -309 0
-197 -263 -310 0
-197 -263 -311 0
-197 -263 -312 0
-197 -263 -313 0
-197 -263 -314 0
-197 -263 -315 0
-197 -264 -291 0
-197 -264 -292 0
-197 -264 -293 0
-197 -264 -294 0
-197 -264 -295 0
-197 -264 -296 0
-197 -264 -297 0
-197 -264 -298 0
-197 -264 -299 0
-197 -264 -300 0
-197 -264 -301 0
-197 -264 -302 0
-197 -264 -303 0
-197 -264 -304 0
-197 -264 -305 0
-197 -264 -306 0
-197 -264 -307 0
-197 -264 -308 0
-197 -264 -309 0
-197 -264 -310 0
-197 -264 -311 0
-197 -264 -312 0
-197 -264 -313 0
-197 -264 -314 0
-197 -264 -315 0
-197 -265 -291 0
-197 -265 -292 0
-197 -265 -293 0
-197 -265 -294 0
-197 -265 -295 0
-197 -265 -296 0
-197 -265 -297 0
-197 -265 -298 0
-197 -265 -299 0
-197 -265 -300 0
-197 -265 -301 0
-197 -265 -302 0
-197 -265 -303 0
-197 -265 -304 0
-197 -265 -305 0
-197 -265 -306 0
-197 -265 -307 0
-197 -265 -308 0
-197 -265 -309 0
-197 -265 -310 0
-197 -265 -311 0
-197 -265 -312 0
-197 -265 -313 0
-197 -265 -314 0
-197 -265 -315 0
-198 -241 -291 351 0
-198 -241 -292 352 0
-198 -241 -293 353 0
-198 -241 -294 354 0
-198 -241 -295 355 0
-198 -241 -296 356 0
-198 -241 -297 357 0
-198 -241 -298 358 0
-198 -241 -299 359 0
-198 -241 -300 360 0
-198 -241 -301 361 0
-198 -241 -302 362 0
-198 -241 -303 363 0
-198 -241 -304 364 0
-198 -241 -305 365 0
-198 -241 -306 0
-198 -241 -307 0
-198 -241 -308 0
-198 -241 -309 0
-198 -241 -310 0
-198 -241 -311 0
-198 -241 -312 0
-198 -241 -313 0
-198 -241 -314 0
-198 -241 -315 0
-198 -242 -291 352 0
-198 -242 -292 353 0
-198 -242 -293 354 0
-198 -242 -294 355 0
-198 -242 -295 356 0
-198 -242 -296 357 0
-198 -242 -297 358 0
-198 -242 -298 359 0
-198 -242 -299 360 0
-198 -242 -300 361 0
-198 -242 -301 362 0
-198 -242 -302 363 0
-198 -242 -303 364 0
-198 -242 -304 365 0
-198 -242 -305 0
-198 -242 -306 0
-198 -242 -307 0
-198 -242 -308 0
-198 -242 -309 0
-198 -242 -310 0
-198 -242 -311 0
-198 -242 -312 0
-198 -242 -313 0
-198 -242 -314 0
-198 -242 -315 0
-198 -243 -291 353 0
-198 -243 -292 354 0
-198 -243 -293 355 0
-198 -243 -294 356 0
-198 -243 -295 357 0
-198 -243 -296 358 0
-198 -243 -297 359 0
-198 -243 -298 360 0
-198 -243 -299 361 0
-198 -243 -300 362 0
-198 -243 -301 363 0
-198 -243 -302 364 0
-198 -243 -303 365 0
-198 -243 -304 0
-198 -243 -305 0
-198 -243 -306 0
-198 -243 -307 0
-198 -243 -308 0
-198 -243 -309 0
-198 -243 -310 0
-198 -243 -311 0
-198 -243 -312 0
-198 -243 -313 0
-198 -243 -314 0
-198 -243 -315 0
-198 -244 -291 354 0
-198 -244 -292 355 0
-198 -244 -293 356 0
-198 -244 -294 357 0
-198 -244 -295 358 0
-198 -244 -296 359 0
-198 -244 -297 360 0
-198 -244 -298 361 0
-198 -244 -299 362 0
-198 -244 -300 363 0
-198 -244 -301 364 0
-198 -244 -302 365 0
-198 -244 -303 0
-198 -244 -304 0
-198 -244 -305 0
-198 -244 -306 0
-198 -244 -307 0
-198 -244 -308 0
-198 -244 -309 0
-198 -244 -310 0
-198 -244 -311 0
-198 -244 -312 0
-198 -244 -313 0
-198 -244 -314 0
-198 -244 -315 0
-198 -245 -291 355 0
-198 -245 -292 356 0
-198 -245 -293 357 0
-198 -245 -294 358 0
-198 -245 -295 359 0
-198 -245 -296 360 0
-198 -245 -297 361 0
-198 -245 -298 362 0
-198 -245 -299 363 0
-198 -245 -300 364 0
-198 -245 -301 365 0
-198 -245 -302 0
-198 -245 -303 0
-198 -245 -304 0
-198 -245 -305 0
-198 -245 -306 0
-198 -245 -307 0
-198 -245 -308 0
-198 -245 -309 0
-198 -245 -310 0
-198 -245 -311 0
-198 -245 -312 0
-198 -245 -313 0
-198 -245 -314 0
-198 -245 -315 0
-198 -246 -291 356 0
-198 -246 -292 357 0
-198 -246 -293 358 0
-198 -246 -294 359 0
-198 -246 -295 360 0
-198 -246 -296 361 0
-198 -246 -297 362 0
-198 -246 -298 363 0
-198 -246 -299 364 0
-198 -246 -300 365 0
-198 -246 -301 0
-198 -246 -302 0
-198 -246 -303 0
-198 -246 -304 0
-198 -246 -305 0
-198 -246 -306 0
-198 -246 -307 0
-198 -246 -308 0
-198 -246 -309 0
-198 -246 -310 0
-198 -246 -311 0
-198 -246 -312 0
-198 -246 -313 0
-198 -246 -314 0
-198 -246 -315 0
-198 -247 -291 357 0
-198 -247 -292 358 0
-198 -247 -293 359 0
-198 -247 -294 360 0
-198 -247 -295 361 0
-198 -247 -296 362 0
-198 -247 -297 363 0
-198 -247 -298 364 0
-198 -247 -299 365 0
-198 -247 -300 0
-198 -247 -301 0
-198 -247 -302 0
-198 -247 -303 0
-198 -247 -304 0
-198 -247 -305 0
-198 -247 -306 0
-198 -247 -307 0
-198 -247 -308 0
-198 -247 -309 0
-198 -247 -310 0
-198 -247 -311 0
-198 -247 -312 0
-198 -247 -313 0
-198 -247 -314 0
-198 -247 -315 0
-198 -248 -291 358 0
-198 -248 -292 359 0
-198 -248 -293 360 0
-198 -248 -294 361 0
-198 -248 -295 362 0
-198 -248 -296 363 0
-198 -248 -297 364 0
-198 -248 -298 365 0
-198 -248 -299 0
-198 -248 -300 0
-198 -248 -301 0
-198 -248 -302 0
-198 -248 -303 0
-198 -248 -304 0
-198 -248 -305 0
-198 -248 -306 0
-198 -248 -307 0
-198 -248 -308 0
-198 -248 -309 0
-198 -248 -310 0
-198 -248 -311 0
-198 -248 -312 0
-198 -248 -313 0
-198 -248 -314 0
-198 -248 -315 0
-198 -249 -291 359 0
-198 -249 -292 360 0
-198 -249 -293 361 0
-198 -249 -294 362 0
-198 -249 -295 363 0
-198 -249 -296 364 0
-198 -249 -297 365 0
-198 -249 -298 0
-198 -249 -299 0
-198 -249 -300 0
-198 -249 -301 0
-198 -249 -302 0
-198 -249 -303 0
-198 -249 -304 0
-198 -249 -305 0
-198 -249 -306 0
-198 -249 -307 0
-198 -249 -308 0
-198 -249 -309 0
-198 -249 -310 0
-198 -249 -311 0
-198 -249 -312 0
-198 -249 -313 0
-198 -249 -314 0
-198 -249 -315 0
-198 -250 -291 360 0
-198 -250 -292 361 0
-198 -250 -293 362 0
-198 -250 -294 363 0
-198 -250 -295 364 0
-198 -250 -296 365 0
-198 -250 -297 0
-198 -250 -298 0
-198 -250 -299 0
-198 -250 -300 0
-198 -250 -301 0
-198 -250 -302 0
-198 -250 -303 0
-198 -250 -304 0
-198 -250 -305 0
-198 -250 -306 0
-198 -250 -307 0
-198 -250 -308 0
-198 -250 -309 0
-198 -250 -310 0
-198 -250 -311 0
-198 -250 -312 0
-198 -250 -313 0
-198 -250 -314 0
-198 -250 -315 0
-198 -251 -291 361 0
-198 -251 -292 362 0
-198 -251 -293 363 0
-198 -251 -294 364 0
-198 -251 -295 365 0
-198 -251 -296 0
-198 -251 -297 0
-198 -251 -298 0
-198 -251 -299 0
-198 -251 -300 0
-198 -251 -301 0
-198 -251 -302 0
-198 -251 -303 0
-198 -251 -304 0
-198 -251 -305 0
-198 -251 -306 0
-198 -251 -307 0
-198 -251 -308 0
-198 -251 -309 0
-198 -251 -310 0
-198 -251 -311 0
-198 -251 -312 0
-198 -251 -313 0
-198 -251 -314 0
-198 -251 -315 0
-198 -252 -291 362 0
-198 -252 -292 363 0
-198 -252 -293 364 0
-198 -252 -294 365 0
-198 -252 -295 0
-198 -252 -296 0
-198 -252 -297 0
-198 -252 -298 0
-198 -252 -299 0
-198 -252 -300 0
-198 -252 -301 0
-198 -252 -302 0
-198 -252 -303 0
-198 -252 -304 0
-198 -252 -305 0
-198 -252 -306 0
-198 -252 -307 0
-198 -252 -308 0
-198 -252 -309 0
-198 -252 -310 0
-198 -252 -311 0
-198 -252 -312 0
-198 -252 -313 0
-198 -252 -314 0
-198 -252 -315 0
-198 -253 -291 363 0
-198 -253 -292 364 0
-198 -253 -293 365 0
-198 -253 -294 0
-198 -253 -295 0
-198 -253 -296 0
-198 -253 -297 0
-198 -253 -298 0
-198 -253 -299 0
-198 -253 -300 0
-198 -253 -301 0
-198 -253 -302 0
-198 -253 -303 0
-198 -253 -304 0
-198 -253 -305 0
-198 -253 -306 0
-198 -253 -307 0
-198 -253 -308 0
-198 -253 -309 0
-198 -253 -310 0
-198 -253 -311 0
-198 -253 -312 0
-198 -253 -313 0
-198 -253 -314 0
-198 -253 -315 0
-198 -254 -291 364 0
-198 -254 -292 365 0
-198 -254 -293 0
-198 -254 -294 0
-198 -254 -295 0
-198 -254 -296 0
-198 -254 -297 0
-198 -254 -298 0
-198 -254 -299 0
-198 -254 -300 0
-198 -254 -301 0
-198 -254 -302 0
-198 -254 -303 0
-198 -254 -304 0
-198 -254 -305 0
-198 -254 -306 0
-198 -254 -307 0
-198 -254 -308 0
-198 -254 -309 0
-198 -254 -310 0
-198 -254 -311 0
-198 -254 -312 0
-198 -254 -313 0
-198 -254 -314 0
-198 -254 -315 0
-198 -255 -291 365 0
-198 -255 -292 0
-198 -255 -293 0
-198 -255 -294 0
-198 -255 -295 0
-198 -255 -296 0
-198 -255 -297 0
-198 -255 -298 0
-198 -255 -299 0
-198 -255 -300 0
-198 -255 -301 0
-198 -255 -302 0
-198 -255 -303 0
-198 -255 -304 0
-198 -255 -305 0
-198 -255 -306 0
-198 -255 -307 0
-198 -255 -308 0
-198 -255 -309 0
-198 -255 -310 0
-198 -255 -311 0
-198 -255 -312 0
-198 -255 -313 0
-198 -255 -314 0
-198 -255 -315 0
-198 -256 -291 0
-198 -256 -292 0
-198 -256 -293 0
-198 -256 -294 0
-198 -256 -295 0
-198 -256 -296 0
-198 -256 -297 0
-198 -256 -298 0
-198 -256 -299 0
-198 -256 -300 0
-198 -256 -301 0
-198 -256 -302 0
-198 -256 -303 0
-198 -256 -304 0
-198 -256 -305 0
-198 -256 -306 0
-198 -256 -307 0
-198 -256 -308 0
-198 -256 -309 0
-198 -256 -310 0
-198 -256 -311 0
-198 -256 -312 0
-198 -256 -313 0
-198 -256 -314 0
-198 -256 -315 0
-198 -257 -291 0
-198 -257 -292 0
-198 -257 -293 0
-198 -257 -294 0
-198 -257 -295 0
-198 -257 -296 0
-198 -257 -297 0
-198 -257 -298 0
-198 -257 -299 0
-198 -257 -300 0
-198 -257 -301 0
-198 -257 -302 0
-198 -257 -303 0
-198 -257 -304 0
-198 -257 -305 0
-198 -257 -306 0
-198 -257 -307 0
-198 -257 -308 0
-198 -257 -309 0
-198 -257 -310 0
-198 -257 -311 0
-198 -257 -312 0
-198 -257 -313 0
-198 -257 -314 0
-198 -257 -315 0
-198 -258 -291 0
-198 -258 -292 0
-198 -258 -293 0
-198 -258 -294 0
-198 -258 -295 0
-198 -258 -296 0
-198 -258 -297 0
-198 -258 -298 0
-198 -258 -299 0
-198 -258 -300 0
-198 -258 -301 0
-198 -258 -302 0
-198 -258 -303 0
-198 -258 -304 0
-198 -258 -305 0
-198 -258 -306 0
-198 -258 -307 0
-198 -258 -308 0
-198 -258 -309 0
-198 -258 -310 0
-198 -258 -311 0
-198 -258 -312 0
-198 -258 -313 0
-198 -258 -314 0
-198 -258 -315 0
-198 -259 -291 0
-198 -259 -292 0
-198 -259 -293 0
-198 -259 -294 0
-198 -259 -295 0
-198 -259 -296 0
-198 -259 -297 0
-198 -259 -298 0
-198 -259 -299 0
-198 -259 -300 0
-198 -259 -301 0
-198 -259 -302 0
-198 -259 -303 0
-198 -259 -304 0
-198 -259 -305 0
-198 -259 -306 0
-198 -259 -307 0
-198 -259 -308 0
-198 -259 -309 0
-198 -259 -310 0
-198 -259 -311 0
-198 -259 -312 0
-198 -259 -313 0
-198 -259 -314 0
-198 -259 -315 0
-198 -260 -291 0
-198 -260 -292 0
-198 -260 -293 0
-198 -260 -294 0
-198 -260 -295 0
-198 -260 -296 0
-198 -260 -297 0
-198 -260 -298 0
-198 -260 -299 0
-198 -260 -300 0
-198 -260 -301 0
-198 -260 -302 0
-198 -260 -303 0
-198 -260 -304 0
-198 -260 -305 0
-198 -260 -306 0
-198 -260 -307 0
-198 -260 -308 0
-198 -260 -309 0
-198 -260 -310 0
-198 -260 -311 0
-198 -260 -312 0
-198 -260 -313 0
-198 -260 -314 0
-198 -260 -315 0
-198 -261 -291 0
-198 -261 -292 0
-198 -261 -293 0
-198 -261 -294 0
-198 -261 -295 0
-198 -261 -296 0
-198 -261 -297 0
-198 -261 -298 0
-198 -261 -299 0
-198 -261 -300 0
-198 -261 -301 0
-198 -261 -302 0
-198 -261 -303 0
-198 -261 -304 0
-198 -261 -305 0
-198 -261 -306 0
-198 -261 -307 0
-198 -261 -308 0
-198 -261 -309 0
-198 -261 -310 0
-198 -261 -311 0
-198 -261 -312 0
-198 -261 -313 0
-198 -261 -314 0
-198 -261 -315 0
-198 -262 -291 0
-198 -262 -292 0
-198 -262 -293 0
-198 -262 -294 0
-198 -262 -295 0
-198 -262 -296 0
-198 -262 -297 0
-198 -262 -298 0
-198 -262 -299 0
-198 -262 -300 0
-198 -262 -301 0
-198 -262 -302 0
-198 -262 -303 0
-198 -262 -304 0
-198 -262 -305 0
-198 -262 -306 0
-198 -262 -307 0
-198 -262 -308 0
-198 -262 -309 0
-198 -262 -310 0
-198 -262 -311 0
-198 -262 -312 0
-198 -262 -313 0
-198 -262 -314 0
-198 -262 -315 0
-198 -263 -291 0
-198 -263 -292 0
-198 -263 -293 0
-198 -263 -294 0
-198 -263 -295 0
-198 -263 -296 0
-198 -263 -297 0
-198 -263 -298 0
-198 -263 -299 0
-198 -263 -300 0
-198 -263 -301 0
-198 -263 -302 0
-198 -263 -303 0
-198 -263 -304 0
-198 -263 -305 0
-198 -263 -306 0
-198 -263 -307 0
-198 -263 -308 0
-198 -263 -309 0
-198 -263 -310 0
-198 -263 -311 0
-198 -263 -312 0
-198 -263 -313 0
-198 -263 -314 0
-198 -263 -315 0
-198 -264 -291 0
-198 -264 -292 0
-198 -264 -293 0
-198 -264 -294 0
-198 -264 -295 0
-198 -264 -296 0
-198 -264 -297 0
-198 -264 -298 0
-198 -264 -299 0
-198 -264 -300 0
-198 -264 -301 0
-198 -264 -302 0
-198 -264 -303 0
-198 -264 -304 0
-198 -264 -305 0
-198 -264 -306 0
-198 -264 -307 0
-198 -264 -308 0
-198 -264 -309 0
-198 -264 -310 0
-198 -264 -311 0
-198 -264 -312 0
-198 -264 -313 0
-198 -264 -314 0
-198 -264 -315 0
-198 -265 -291 0
-198 -265 -292 0
-198 -265 -293 0
-198 -265 -294 0
-198 -265 -295 0
-198 -265 -296 0
-198 -265 -297 0
-198 -265 -298 0
-198 -265 -299 0
-198 -265 -300 0
-198 -265 -301 0
-198 -265 -302 0
-198 -265 -303 0
-198 -265 -304 0
-198 -265 -305 0
-198 -265 -306 0
-198 -265 -307 0
-198 -265 -308 0
-198 -265 -309 0
-198 -265 -310 0
-198 -265 -311 0
-198 -265 -312 0
-198 -265 -313 0
-198 -265 -314 0
-198 -265 -315 0
-199 -241 -291 352 0
-199 -241 -292 353 0
-199 -241 -293 354 0
-199 -241 -294 355 0
-199 -241 -295 356 0
-199 -241 -296 357 0
-199 -241 -297 358 0
-199 -241 -298 359 0
-199 -241 -299 360 0
-199 -241 -300 361 0
-199 -241 -301 362 0
-199 -241 -302 363 0
-199 -241 -303 364 0
-199 -241 -304 365 0
-199 -241 -305 0
-199 -241 -306 0
-199 -241 -307 0
-199 -241 -308 0
-199 -241 -309 0
-199 -241 -310 0
-199 -241 -311 0
-199 -241 -312 0
-199 -241 -313 0
-199 -241 -314 0
-199 -241 -315 0
-199 -242 -291 353 0
-199 -242 -292 354 0
-199 -242 -293 355 0
-199 -242 -294 356 0
-199 -242 -295 357 0
-199 -242 -296 358 0
-199 -242 -297 359 0
-199 -242 -298 360 0
-199 -242 -299 361 0
-199 -242 -300 362 0
-199 -242 -301 363 0
-199 -242 -302 364 0
-199 -242 -303 365 0
-199 -242 -304 0
-199 -242 -305 0
-199 -242 -306 0
-199 -242 -307 0
-199 -242 -308 0
-199 -242 -309 0
-199 -242 -310 0
-199 -242 -311 0
-199 -242 -312 0
-199 -242 -313 0
-199 -242 -314 0
-199 -242 -315 0
-199 -243 -291 354 0
-199 -243 -292 355 0
-199 -243 -293 356 0
-199 -243 -294 357 0
-199 -243 -295 358 0
-199 -243 -296 359 0
-199 -243 -297 360 0
-199 -243 -298 361 0
-199 -243 -299 362 0
-199 -243 -300 363 0
-199 -243 -301 364 0
-199 -243 -302 365 0
-199 -243 -303 0
-199 -243 -304 0
-199 -243 -305 0
-199 -243 -306 0
-199 -243 -307 0
-199 -243 -308 0
-199 -243 -309 0
-199 -243 -310 0
-199 -243 -311 0
-199 -243 -312 0
-199 -243 -313 0
-199 -243 -314 0
-199 -243 -315 0
-199 -244 -291 355 0
-199 -244 -292 356 0
-199 -244 -293 357 0
-199 -244 -294 358 0
-199 -244 -295 359 0
-199 -244 -296 360 0
-199 -244 -297 361 0
-199 -244 -298 362 0
-199 -244 -299 363 0
-199 -244 -300 364 0
-199 -244 -301 365 0
-199 -244 -302 0
-199 -244 -303 0
-199 -244 -304 0
-199 -244 -305 0
-199 -244 -306 0
-199 -244 -307 0
-199 -244 -308 0
-199 -244 -309 0
-199 -244 -310 0
-199 -244 -311 0
-199 -244 -312 0
-199 -244 -313 0
-199 -244 -314 0
-199 -244 -315 0
-199 -245 -291 356 0
-199 -245 -292 357 0
-199 -245 -293 358 0
-199 -245 -294 359 0
-199 -245 -295 360 0
-199 -245 -296 361 0
-199 -245 -297 362 0
-199 -245 -298 363 0
-199 -245 -299 364 0
-199 -245 -300 365 0
-199 -245 -301 0
-199 -245 -302 0
-199 -245 -303 0
-199 -245 -304 0
-199 -245 -305 0
-199 -245 -306 0
-199 -245 -307 0
-199 -245 -308 0
-199 -245 -309 0
-199 -245 -310 0
-199 -245 -311 0
-199 -245 -312 0
-199 -245 -313 0
-199 -245 -314 0
-199 -245 -315 0
-199 -246 -291 357 0
-199 -246 -292 358 0
-199 -246 -293 359 0
-199 -246 -294 360 0
-199 -246 -295 361 0
-199 -246 -296 362 0
-199 -246 -297 363 0
-199 -246 -298 364 0
-199 -246 -299 365 0
-199 -246 -300 0
-199 -246 -301 0
-199 -246 -302 0
-199 -246 -303 0
-199 -246 -304 0
-199 -246 -305 0
-199 -246 -306 0
-199 -246 -307 0
-199 -246 -308 0
-199 -246 -309 0
-199 -246 -310 0
-199 -246 -311 0
-199 -246 -312 0
-199 -246 -313 0
-199 -246 -314 0
-199 -246 -315 0
-199 -247 -291 358 0
-199 -247 -292 359 0
-199 -247 -293 360 0
-199 -247 -294 361 0
-199 -247 -295 362 0
-199 -247 -296 363 0
-199 -247 -297 364 0
-199 -247 -298 365 0
-199 -247 -299 0
-199 -247 -300 0
-199 -247 -301 0
-199 -247 -302 0
-199 -247 -303 0
-199 -247 -304 0
-199 -247 -305 0
-199 -247 -306 0
-199 -247 -307 0
-199 -247 -308 0
-199 -247 -309 0
-199 -247 -310 0
-199 -247 -311 0
-199 -247 -312 0
-199 -247 -313 0
-199 -247 -314 0
-199 -247 -315 0
-199 -248 -291 359 0
-199 -248 -292 360 0
-199 -248 -293 361 0
-199 -248 -294 362 0
-199 -248 -295 363 0
-199 -248 -296 364 0
-199 -248 -297 365 0
-199 -248 -298 0
-199 -248 -299 0
-199 -248 -300 0
-199 -248 -301 0
-199 -248 -302 0
-199 -248 -303 0
-199 -248 -304 0
-199 -248 -305 0
-199 -248 -306 0
-199 -248 -307 0
-199 -248 -308 0
-199 -248 -309 0
-199 -248 -310 0
-199 -248 -311 0
-199 -248 -312 0
-199 -248 -313 0
-199 -248 -314 0
-199 -248 -315 0
-199 -249 -291 360 0
-199 -249 -292 361 0
-199 -249 -293 362 0
-199 -249 -294 363 0
-199 -249 -295 364 0
-199 -249 -296 365 0
-199 -249 -297 0
-199 -249 -298 0
-199 -249 -299 0
-199 -249 -300 0
-199 -249 -301 0
-199 -249 -302 0
-199 -249 -303 0
-199 -249 -304 0
-199 -249 -305 0
-199 -249 -306 0
-199 -249 -307 0
-199 -249 -308 0
-199 -249 -309 0
-199 -249 -310 0
-199 -249 -311 0
-199 -249 -312 0
-199 -249 -313 0
-199 -249 -314 0
-199 -249 -315 0
-199 -250 -291 361 0
-199 -250 -292 362 0
-199 -250 -293 363 0
-199 -250 -294 364 0
-199 -250 -295 365 0
-199 -250 -296 0
-199 -250 -297 0
-199 -250 -298 0
-199 -250 -299 0
-199 -250 -300 0
-199 -250 -301 0
-199 -250 -302 0
-199 -250 -303 0
-199 -250 -304 0
-199 -250 -305 0
-199 -250 -306 0
-199 -250 -307 0
-199 -250 -308 0
-199 -250 -309 0
-199 -250 -310 0
-199 -250 -311 0
-199 -250 -312 0
-199 -250 -313 0
-199 -250 -314 0
-199 -250 -315 0
-199 -251 -291 362 0
-199 -251 -292 363 0
-199 -251 -293 364 0
-199 -251 -294 365 0
-199 -251 -295 0
-199 -251 -296 0
-199 -251 -297 0
-199 -251 -298 0
-199 -251 -299 0
-199 -251 -300 0
-199 -251 -301 0
-199 -251 -302 0
-199 -251 -303 0
-199 -251 -304 0
-199 -251 -305 0
-199 -251 -306 0
-199 -251 -307 0
-199 -251 -308 0
-199 -251 -309 0
-199 -251 -310 0
-199 -251 -311 0
-199 -251 -312 0
-199 -251 -313 0
-199 -251 -314 0
-199 -251 -315 0
-199 -252 -291 363 0
-199 -252 -292 364 0
-199 -252 -293 365 0
-199 -252 -294 0
-199 -252 -295 0
-199 -252 -296 0
-199 -252 -297 0
-199 -252 -298 0
-199 -252 -299 0
-199 -252 -300 0
-199 -252 -301 0
-199 -252 -302 0
-199 -252 -303 0
-199 -252 -304 0
-199 -252 -305 0
-199 -252 -306 0
-199 -252 -307 0
-199 -252 -308 0
-199 -252 -309 0
-199 -252 -310 0
-199 -252 -311 0
-199 -252 -312 0
-199 -252 -313 0
-199 -252 -314 0
-199 -252 -315 0
-199 -253 -291 364 0
-199 -253 -292 365 0
-199 -253 -293 0
-199 -253 -294 0
-199 -253 -295 0
-199 -253 -296 0
-199 -253 -297 0
-199 -253 -298 0
-199 -253 -299 0
-199 -253 -300 0
-199 -253 -301 0
-199 -253 -302 0
-199 -253 -303 0
-199 -253 -304 0
-199 -253 -305 0
-199 -253 -306 0
-199 -253 -307 0
-199 -253 -308 0
-199 -253 -309 0
-199 -253 -310 0
-199 -253 -311 0
-199 -253 -312 0
-199 -253 -313 0
-199 -253 -314 0
-199 -253 -315 0
-199 -254 -291 365 0
-199 -254 -292 0
-199 -254 -293 0
-199 -254 -294 0
-199 -254 -295 0
-199 -254 -296 0
-199 -254 -297 0
-199 -254 -298 0
-199 -254 -299 0
-199 -254 -300 0
-199 -254 -301 0
-199 -254 -302 0
-199 -254 -303 0
-199 -254 -304 0
-199 -254 -305 0
-199 -254 -306 0
-199 -254 -307 0
-199 -254 -308 0
-199 -254 -309 0
-199 -254 -310 0
-199 -254 -311 0
-199 -254 -312 0
-199 -254 -313 0
-199 -254 -314 0
-199 -254 -315 0
-199 -255 -291 0
-199 -255 -292 0
-199 -255 -293 0
-199 -255 -294 0
-199 -255 -295 0
-199 -255 -296 0
-199 -255 -297 0
-199 -255 -298 0
-199 -255 -299 0
-199 -255 -300 0
-199 -255 -301 0
-199 -255 -302 0
-199 -255 -303 0
-199 -255 -304 0
-199 -255 -305 0
-199 -255 -306 0
-199 -255 -307 0
-199 -255 -308 0
-199 -255 -309 0
-199 -255 -310 0
-199 -255 -311 0
-199 -255 -312 0
-199 -255 -313 0
-199 -255 -314 0
-199 -255 -315 0
-199 -256 -291 0
-199 -256 -292 0
-199 -256 -293 0
-199 -256 -294 0
-199 -256 -295 0
-199 -256 -296 0
-199 -256 -297 0
-199 -256 -298 0
-199 -256 -299 0
-199 -256 -300 0
-199 -256 -301 0
-199 -256 -302 0
-199 -256 -303 0
-199 -256 -304 0
-199 -256 -305 0
-199 -256 -306 0
-199 -256 -307 0
-199 -256 -308 0
-199 -256 -309 0
-199 -256 -310 0
-199 -256 -311 0
-199 -256 -312 0
-199 -256 -313 0
-199 -256 -314 0
-199 -256 -315 0
-199 -257 -291 0
-199 -257 -292 0
-199 -257 -293 0
-199 -257 -294 0
-199 -257 -295 0
-199 -257 -296 0
-199 -257 -297 0
-199 -257 -298 0
-199 -257 -299 0
-199 -257 -300 0
-199 -257 -301 0
-199 -257 -302 0
-199 -257 -303 0
-199 -257 -304 0
-199 -257 -305 0
-199 -257 -306 0
-199 -257 -307 0
-199 -257 -308 0
-199 -257 -309 0
-199 -257 -310 0
-199 -257 -311 0
-199 -257 -312 0
-199 -257 -313 0
-199 -257 -314 0
-199 -257 -315 0
-199 -258 -291 0
-199 -258 -292 0
-199 -258 -293 0
-199 -258 -294 0
-199 -258 -295 0
-199 -258 -296 0
-199 -258 -297 0
-199 -258 -298 0
-199 -258 -299 0
-199 -258 -300 0
-199 -258 -301 0
-199 -258 -302 0
-199 -258 -303 0
-199 -258 -304 0
-199 -258 -305 0
-199 -258 -306 0
-199 -258 -307 0
-199 -258 -308 0
-199 -258 -309 0
-199 -258 -310 0
-199 -258 -311 0
-199 -258 -312 0
-199 -258 -313 0
-199 -258 -314 0
-199 -258 -315 0
-199 -259 -291 0
-199 -259 -292 0
-199 -259 -293 0
-199 -259 -294 0
-199 -259 -295 0
-199 -259 -296 0
-199 -259 -297 0
-199 -259 -298 0
-199 -259 -299 0
-199 -259 -300 0
-199 -259 -301 0
-199 -259 -302 0
-199 -259 -303 0
-199 -259 -304 0
-199 -259 -305 0
-199 -259 -306 0
-199 -259 -307 0
-199 -259 -308 0
-199 -259 -309 0
-199 -259 -310 0
-199 -259 -311 0
-199 -259 -312 0
-199 -259 -313 0
-199 -259 -314 0
-199 -259 -315 0
-199 -260 -291 0
-199 -260 -292 0
-199 -260 -293 0
-199 -260 -294 0
-199 -260 -295 0
-199 -260 -296 0
-199 -260 -297 0
-199 -260 -298 0
-199 -260 -299 0
-199 -260 -300 0
-199 -260 -301 0
-199 -260 -302 0
-199 -260 -303 0
-199 -260 -304 0
-199 -260 -305 0
-199 -260 -306 0
-199 -260 -307 0
-199 -260 -308 0
-199 -260 -309 0
-199 -260 -310 0
-199 -260 -311 0
-199 -260 -312 0
-199 -260 -313 0
-199 -260 -314 0
-199 -260 -315 0
-199 -261 -291 0
-199 -261 -292 0
-199 -261 -293 0
-199 -261 -294 0
-199 -261 -295 0
-199 -261 -296 0
-199 -261 -297 0
-199 -261 -298 0
-199 -261 -299 0
-199 -261 -300 0
-199 -261 -301 0
-199 -261 -302 0
-199 -261 -303 0
-199 -261 -304 0
-199 -261 -305 0
-199 -261 -306 0
-199 -261 -307 0
-199 -261 -308 0
-199 -261 -309 0
-199 -261 -310 0
-199 -261 -311 0
-199 -261 -312 0
-199 -261 -313 0
-199 -261 -314 0
-199 -261 -315 0
-199 -262 -291 0
-199 -262 -292 0
-199 -262 -293 0
-199 -262 -294 0
-199 -262 -295 0
-199 -262 -296 0
-199 -262 -297 0
-199 -262 -298 0
-199 -262 -299 0
-199 -262 -300 0
-199 -262 -301 0
-199 -262 -302 0
-199 -262 -303 0
-199 -262 -304 0
-199 -262 -305 0
-199 -262 -306 0
-199 -262 -307 0
-199 -262 -308 0
-199 -262 -309 0
-199 -262 -310 0
-199 -262 -311 0
-199 -262 -312 0
-199 -262 -313 0
-199 -262 -314 0
-199 -262 -315 0
-199 -263 -291 0
-199 -263 -292 0
-199 -263 -293 0
-199 -263 -294 0
-199 -263 -295 0
-199 -263 -296 0
-199 -263 -297 0
-199 -263 -298 0
-199 -263 -299 0
-199 -263 -300 0
-199 -263 -301 0
-199 -263 -302 0
-199 -263 -303 0
-199 -263 -304 0
-199 -263 -305 0
-199 -263 -306 0
-199 -263 -307 0
-199 -263 -308 0
-199 -263 -309 0
-199 -263 -310 0
-199 -263 -311 0
-199 -263 -312 0
-199 -263 -313 0
-199 -263 -314 0
-199 -263 -315 0
-199 -264 -291 0
-199 -264 -292 0
-199 -264 -293 0
-199 -264 -294 0
-199 -264 -295 0
-199 -264 -296 0
-199 -264 -297 0
-199 -264 -298 0
-199 -264 -299 0
-199 -264 -300 0
-199 -264 -301 0
-199 -264 -302 0
-199 -264 -303 0
-199 -264 -304 0
-199 -264 -305 0
-199 -264 -306 0
-199 -264 -307 0
-199 -264 -308 0
-199 -264 -309 0
-199 -264 -310 0
-199 -264 -311 0
-199 -264 -312 0
-199 -264 -313 0
-199 -264 -314 0
-199 -264 -315 0
-199 -265 -291 0
-199 -265 -292 0
-199 -265 -293 0
-199 -265 -294 0
-199 -265 -295 0
-199 -265 -296 0
-199 -265 -297 0
-199 -265 -298 0
-199 -265 -299 0
-199 -265 -300 0
-199 -265 -301 0
-199 -265 -302 0
-199 -265 -303 0
-199 -265 -304 0
-199 -265 -305 0
-199 -265 -306 0
-199 -265 -307 0
-199 -265 -308 0
-199 -265 -309 0
-199 -265 -310 0
-199 -265 -311 0
-199 -265 -312 0
-199 -265 -313 0
-199 -265 -314 0
-199 -265 -315 0
-200 -241 -291 353 0
-200 -241 -292 354 0
-200 -241 -293 355 0
-200 -241 -294 356 0
-200 -241 -295 357 0
-200 -241 -296 358 0
-200 -241 -297 359 0
-200 -241 -298 360 0
-200 -241 -299 361 0
-200 -241 -300 362 0
-200 -241 -301 363 0
-200 -241 -302 364 0
-200 -241 -303 365 0
-200 -241 -304 0
-200 -241 -305 0
-200 -241 -306 0
-200 -241 -307 0
-200 -241 -308 0
-200 -241 -309 0
-200 -241 -310 0
-200 -241 -311 0
-200 -241 -312 0
-200 -241 -313 0
-200 -241 -314 0
-200 -241 -315 0
-200 -242 -291 354 0
-200 -242 -292 355 0
-200 -242 -293 356 0
-200 -242 -294 357 0
-200 -242 -295 358 0
-200 -242 -296 359 0
-200 -242 -297 360 0
-200 -242 -298 361 0
-200 -242 -299 362 0
-200 -242 -300 363 0
-200 -242 -301 364 0
-200 -242 -302 365 0
-200 -242 -303 0
-200 -242 -304 0
-200 -242 -305 0
-200 -242 -306 0
-200 -242 -307 0
-200 -242 -308 0
-200 -242 -309 0
-200 -242 -310 0
-200 -242 -311 0
-200 -242 -312 0
-200 -242 -313 0
-200 -242 -314 0
-200 -242 -315 0
-200 -243 -291 355 0
-200 -243 -292 356 0
-200 -243 -293 357 0
-200 -243 -294 358 0
-200 -243 -295 359 0
-200 -243 -296 360 0
-200 -243 -297 361 0
-200 -243 -298 362 0
-200 -243 -299 363 0
-200 -243 -300 364 0
-200 -243 -301 365 0
-200 -243 -302 0
-200 -243 -303 0
-200 -243 -304 0
-200 -243 -305 0
-200 -243 -306 0
-200 -243 -307 0
-200 -243 -308 0
-200 -243 -309 0
-200 -243 -310 0
-200 -243 -311 0
-200 -243 -312 0
-200 -243 -313 0
-200 -243 -314 0
-200 -243 -315 0
-200 -244 -291 356 0
-200 -244 -292 357 0
-200 -244 -293 358 0
-200 -244 -294 359 0
-200 -244 -295 360 0
-200 -244 -296 361 0
-200 -244 -297 362 0
-200 -244 -298 363 0
-200 -244 -299 364 0
-200 -244 -300 365 0
-200 -244 -301 0
-200 -244 -302 0
-200 -244 -303 0
-200 -244 -304 0
-200 -244 -305 0
-200 -244 -306 0
-200 -244 -307 0
-200 -244 -308 0
-200 -244 -309 0
-200 -244 -310 0
-200 -244 -311 0
-200 -244 -312 0
-200 -244 -313 0
-200 -244 -314 0
-200 -244 -315 0
-200 -245 -291 357 0
-200 -245 -292 358 0
-200 -245 -293 359 0
-200 -245 -294 360 0
-200 -245 -295 361 0
-200 -245 -296 362 0
-200 -245 -297 363 0
-200 -245 -298 364 0
-200 -245 -299 365 0
-200 -245 -300 0
-200 -245 -301 0
-200 -245 -302 0
-200 -245 -303 0
-200 -245 -304 0
-200 -245 -305 0
-200 -245 -306 0
-200 -245 -307 0
-200 -245 -308 0
-200 -245 -309 0
-200 -245 -310 0
-200 -245 -311 0
-200 -245 -312 0
-200 -245 -313 0
-200 -245 -314 0
-200 -245 -315 0
-200 -246 -291 358 0
-200 -246 -292 359 0
-200 -246 -293 360 0
-200 -246 -294 361 0
-200 -246 -295 362 0
-200 -246 -296 363 0
-200 -246 -297 364 0
-200 -246 -298 365 0
-200 -246 -299 0
-200 -246 -300 0
-200 -246 -301 0
-200 -246 -302 0
-200 -246 -303 0
-200 -246 -304 0
-200 -246 -305 0
-200 -246 -306 0
-200 -246 -307 0
-200 -246 -308 0
-200 -246 -309 0
-200 -246 -310 0
-200 -246 -311 0
-200 -246 -312 0
-200 -246 -313 0
-200 -246 -314 0
-200 -246 -315 0
-200 -247 -291 359 0
-200 -247 -292 360 0
-200 -247 -293 361 0
-200 -247 -294 362 0
-200 -247 -295 363 0
-200 -247 -296 364 0
-200 -247 -297 365 0
-200 -247 -298 0
-200 -247 -299 0
-200 -247 -300 0
-200 -247 -301 0
-200 -247 -302 0
-200 -247 -303 0
-200 -247 -304 0
-200 -247 -305 0
-200 -247 -306 0
-200 -247 -307 0
-200 -247 -308 0
-200 -247 -309 0
-200 -247 -310 0
-200 -247 -311 0
-200 -247 -312 0
-200 -247 -313 0
-200 -247 -314 0
-200 -247 -315 0
-200 -248 -291 360 0
-200 -248 -292 361 0
-200 -248 -293 362 0
-200 -248 -294 363 0
-200 -248 -295 364 0
-200 -248 -296 365 0
-200 -248 -297 0
-200 -248 -298 0
-200 -248 -299 0
-200 -248 -300 0
-200 -248 -301 0
-200 -248 -302 0
-200 -248 -303 0
-200 -248 -304 0
-200 -248 -305 0
-200 -248 -306 0
-200 -248 -307 0
-200 -248 -308 0
-200 -248 -309 0
-200 -248 -310 0
-200 -248 -311 0
-200 -248 -312 0
-200 -248 -313 0
-200 -248 -314 0
-200 -248 -315 0
-200 -249 -291 361 0
-200 -249 -292 362 0
-200 -249 -293 363 0
-200 -249 -294 364 0
-200 -249 -295 365 0
-200 -249 -296 0
-200 -249 -297 0
-200 -249 -298 0
-200 -249 -299 0
-200 -249 -300 0
-200 -249 -301 0
-200 -249 -302 0
-200 -249 -303 0
-200 -249 -304 0
-200 -249 -305 0
-200 -249 -306 0
-200 -249 -307 0
-200 -249 -308 0
-200 -249 -309 0
-200 -249 -310 0
-200 -249 -311 0
-200 -249 -312 0
-200 -249 -313 0
-200 -249 -314 0
-200 -249 -315 0
-200 -250 -291 362 0
-200 -250 -292 363 0
-200 -250 -293 364 0
-200 -250 -294 365 0
-200 -250 -295 0
-200 -250 -296 0
-200 -250 -297 0
-200 -250 -298 0
-200 -250 -299 0
-200 -250 -300 0
-200 -250 -301 0
-200 -250 -302 0
-200 -250 -303 0
-200 -250 -304 0
-200 -250 -305 0
-200 -250 -306 0
-200 -250 -307 0
-200 -250 -308 0
-200 -250 -309 0
-200 -250 -310 0
-200 -250 -311 0
-200 -250 -312 0
-200 -250 -313 0
-200 -250 -314 0
-200 -250 -315 0
-200 -251 -291 363 0
-200 -251 -292 364 0
-200 -251 -293 365 0
-200 -251 -294 0
-200 -251 -295 0
-200 -251 -296 0
-200 -251 -297 0
-200 -251 -298 0
-200 -251 -299 0
-200 -251 -300 0
-200 -251 -301 0
-200 -251 -302 0
-200 -251 -303 0
-200 -251 -304 0
-200 -251 -305 0
-200 -251 -306 0
-200 -251 -307 0
-200 -251 -308 0
-200 -251 -309 0
-200 -251 -310 0
-200 -251 -311 0
-200 -251 -312 0
-200 -251 -313 0
-200 -251 -314 0
-200 -251 -315 0
-200 -252 -291 364 0
-200 -252 -292 365 0
-200 -252 -293 0
-200 -252 -294 0
-200 -252 -295 0
-200 -252 -296 0
-200 -252 -297 0
-200 -252 -298 0
-200 -252 -299 0
-200 -252 -300 0
-200 -252 -301 0
-200 -252 -302 0
-200 -252 -303 0
-200 -252 -304 0
-200 -252 -305 0
-200 -252 -306 0
-200 -252 -307 0
-200 -252 -308 0
-200 -252 -309 0
-200 -252 -310 0
-200 -252 -311 0
-200 -252 -312 0
-200 -252 -313 0
-200 -252 -314 0
-200 -252 -315 0
-200 -253 -291 365 0
-200 -253 -292 0
-200 -253 -293 0
-200 -253 -294 0
-200 -253 -295 0
-200 -253 -296 0
-200 -253 -297 0
-200 -253 -298 0
-200 -253 -299 0
-200 -253 -300 0
-200 -253 -301 0
-200 -253 -302 0
-200 -253 -303 0
-200 -253 -304 0
-200 -253 -305 0
-200 -253 -306 0
-200 -253 -307 0
-200 -253 -308 0
-200 -253 -309 0
-200 -253 -310 0
-200 -253 -311 0
-200 -253 -312 0
-200 -253 -313 0
-200 -253 -314 0
-200 -253 -315 0
-200 -254 -291 0
-200 -254 -292 0
-200 -254 -293 0
-200 -254 -294 0
-200 -254 -295 0
-200 -254 -296 0
-200 -254 -297 0
-200 -254 -298 0
-200 -254 -299 0
-200 -254 -300 0
-200 -254 -301 0
-200 -254 -302 0
-200 -254 -303 0
-200 -254 -304 0
-200 -254 -305 0
-200 -254 -306 0
-200 -254 -307 0
-200 -254 -308 0
-200 -254 -309 0
-200 -254 -310 0
-200 -254 -311 0
-200 -254 -312 0
-200 -254 -313 0
-200 -254 -314 0
-200 -254 -315 0
-200 -255 -291 0
-200 -255 -292 0
-200 -255 -293 0
-200 -255 -294 0
-200 -255 -295 0
-200 -255 -296 0
-200 -255 -297 0
-200 -255 -298 0
-200 -255 -299 0
-200 -255 -300 0
-200 -255 -301 0
-200 -255 -302 0
-200 -255 -303 0
-200 -255 -304 0
-200 -255 -305 0
-200 -255 -306 0
-200 -255 -307 0
-200 -255 -308 0
-200 -255 -309 0
-200 -255 -310 0
-200 -255 -311 0
-200 -255 -312 0
-200 -255 -313 0
-200 -255 -314 0
-200 -255 -315 0
-200 -256 -291 0
-200 -256 -292 0
-200 -256 -293 0
-200 -256 -294 0
-200 -256 -295 0
-200 -256 -296 0
-200 -256 -297 0
-200 -256 -298 0
-200 -256 -299 0
-200 -256 -300 0
-200 -256 -301 0
-200 -256 -302 0
-200 -256 -303 0
-200 -256 -304 0
-200 -256 -305 0
-200 -256 -306 0
-200 -256 -307 0
-200 -256 -308 0
-200 -256 -309 0
-200 -256 -310 0
-200 -256 -311 0
-200 -256 -312 0
-200 -256 -313 0
-200 -256 -314 0
-200 -256 -315 0
-200 -257 -291 0
-200 -257 -292 0
-200 -257 -293 0
-200 -257 -294 0
-200 -257 -295 0
-200 -257 -296 0
-200 -257 -297 0
-200 -257 -298 0
-200 -257 -299 0
-200 -257 -300 0
-200 -257 -301 0
-200 -257 -302 0
-200 -257 -303 0
-200 -257 -304 0
-200 -257 -305 0
-200 -257 -306 0
-200 -257 -307 0
-200 -257 -308 0
-200 -257 -309 0
-200 -257 -310 0
-200 -257 -311 0
-200 -257 -312 0
-200 -257 -313 0
-200 -257 -314 0
-200 -257 -315 0
-200 -258 -291 0
-200 -258 -292 0
-200 -258 -293 0
-200 -258 -294 0
-200 -258 -295 0
-200 -258 -296 0
-200 -258 -297 0
-200 -258 -298 0
-200 -258 -299 0
-200 -258 -300 0
-200 -258 -301 0
-200 -258 -302 0
-200 -258 -303 0
-200 -258 -304 0
-200 -258 -305 0
-200 -258 -306 0
-200 -258 -307 0
-200 -258 -308 0
-200 -258 -309 0
-200 -258 -310 0
-200 -258 -311 0
-200 -258 -312 0
-200 -258 -313 0
-200 -258 -314 0
-200 -258 -315 0
-200 -259 -291 0
-200 -259 -292 0
-200 -259 -293 0
-200 -259 -294 0
-200 -259 -295 0
-200 -259 -296 0
-200 -259 -297 0
-200 -259 -298 0
-200 -259 -299 0
-200 -259 -300 0
-200 -259 -301 0
-200 -259 -302 0
-200 -259 -303 0
-200 -259 -304 0
-200 -259 -305 0
-200 -259 -306 0
-200 -259 -307 0
-200 -259 -308 0
-200 -259 -309 0
-200 -259 -310 0
-200 -259 -311 0
-200 -259 -312 0
-200 -259 -313 0
-200 -259 -314 0
-200 -259 -315 0
-200 -260 -291 0
-200 -260 -292 0
-200 -260 -293 0
-200 -260 -294 0
-200 -260 -295 0
-200 -260 -296 0
-200 -260 -297 0
-200 -260 -298 0
-200 -260 -299 0
-200 -260 -300 0
-200 -260 -301 0
-200 -260 -302 0
-200 -260 -303 0
-200 -260 -304 0
-200 -260 -305 0
-200 -260 -306 0
-200 -260 -307 0
-200 -260 -308 0
-200 -260 -309 0
-200 -260 -310 0
-200 -260 -311 0
-200 -260 -312 0
-200 -260 -313 0
-200 -260 -314 0
-200 -260 -315 0
-200 -261 -291 0
-200 -261 -292 0
-200 -261 -293 0
-200 -261 -294 0
-200 -261 -295 0
-200 -261 -296 0
-200 -261 -297 0
-200 -261 -298 0
-200 -261 -299 0
-200 -261 -300 0
-200 -261 -301 0
-200 -261 -302 0
-200 -261 -303 0
-200 -261 -304 0
-200 -261 -305 0
-200 -261 -306 0
-200 -261 -307 0
-200 -261 -308 0
-200 -261 -309 0
-200 -261 -310 0
-200 -261 -311 0
-200 -261 -312 0
-200 -261 -313 0
-200 -261 -314 0
-200 -261 -315 0
-200 -262 -291 0
-200 -262 -292 0
-200 -262 -293 0
-200 -262 -294 0
-200 -262 -295 0
-200 -262 -296 0
-200 -262 -297 0
-200 -262 -298 0
-200 -262 -299 0
-200 -262 -300 0
-200 -262 -301 0
-200 -262 -302 0
-200 -262 -303 0
-200 -262 -304 0
-200 -262 -305 0
-200 -262 -306 0
-200 -262 -307 0
-200 -262 -308 0
-200 -262 -309 0
-200 -262 -310 0
-200 -262 -311 0
-200 -262 -312 0
-200 -262 -313 0
-200 -262 -314 0
-200 -262 -315 0
-200 -263 -291 0
-200 -263 -292 0
-200 -263 -293 0
-200 -263 -294 0
-200 -263 -295 0
-200 -263 -296 0
-200 -263 -297 0
-200 -263 -298 0
-200 -263 -299 0
-200 -263 -300 0
-200 -263 -301 0
-200 -263 -302 0
-200 -263 -303 0
-200 -263 -304 0
-200 -263 -305 0
-200 -263 -306 0
-200 -263 -307 0
-200 -263 -308 0
-200 -263 -309 0
-200 -263 -310 0
-200 -263 -311 0
-200 -263 -312 0
-200 -263 -313 0
-200 -263 -314 0
-200 -263 -315 0
-200 -264 -291 0
-200 -264 -292 0
-200 -264 -293 0
-200 -264 -294 0
-200 -264 -295 0
-200 -264 -296 0
-200 -264 -297 0
-200 -264 -298 0
-200 -264 -299 0
-200 -264 -300 0
-200 -264 -301 0
-200 -264 -302 0
-200 -264 -303 0
-200 -264 -304 0
-200 -264 -305 0
-200 -264 -306 0
-200 -264 -307 0
-200 -264 -308 0
-200 -264 -309 0
-200 -264 -310 0
-200 -264 -311 0
-200 -264 -312 0
-200 -264 -313 0
-200 -264 -314 0
-200 -264 -315 0
-200 -265 -291 0
-200 -265 -292 0
-200 -265 -293 0
-200 -265 -294 0
-200 -265 -295 0
-200 -265 -296 0
-200 -265 -297 0
-200 -265 -298 0
-200 -265 -299 0
-200 -265 -300 0
-200 -265 -301 0
-200 -265 -302 0
-200 -265 -303 0
-200 -265 -304 0
-200 -265 -305 0
-200 -265 -306 0
-200 -265 -307 0
-200 -265 -308 0
-200 -265 -309 0
-200 -265 -310 0
-200 -265 -311 0
-200 -265 -312 0
-200 -265 -313 0
-200 -265 -314 0
-200 -265 -315 0
-201 -241 -291 354 0
-201 -241 -292 355 0
-201 -241 -293 356 0
-201 -241 -294 357 0
-201 -241 -295 358 0
-201 -241 -296 359 0
-201 -241 -297 360 0
-201 -241 -298 361 0
-201 -241 -299 362 0
-201 -241 -300 363 0
-201 -241 -301 364 0
-201 -241 -302 365 0
-201 -241 -303 0
-201 -241 -304 0
-201 -241 -305 0
-201 -241 -306 0
-201 -241 -307 0
-201 -241 -308 0
-201 -241 -309 0
-201 -241 -310 0
-201 -241 -311 0
-201 -241 -312 0
-201 -241 -313 0
-201 -241 -314 0
-201 -241 -315 0
-201 -242 -291 355 0
-201 -242 -292 356 0
-201 -242 -293 357 0
-201 -242 -294 358 0
-201 -242 -295 359 0
-201 -242 -296 360 0
-201 -242 -297 361 0
-201 -242 -298 362 0
-201 -242 -299 363 0
-201 -242 -300 364 0
-201 -242 -301 365 0
-201 -242 -302 0
-201 -242 -303 0
-201 -242 -304 0
-201 -242 -305 0
-201 -242 -306 0
-201 -242 -307 0
-201 -242 -308 0
-201 -242 -309 0
-201 -242 -310 0
-201 -242 -311 0
-201 -242 -312 0
-201 -242 -313 0
-201 -242 -314 0
-201 -242 -315 0
-201 -243 -291 356 0
-201 -243 -292 357 0
-201 -243 -293 358 0
-201 -243 -294 359 0
-201 -243 -295 360 0
-201 -243 -296 361 0
-201 -243 -297 362 0
-201 -243 -298 363 0
-201 -243 -299 364 0
-201 -243 -300 365 0
-201 -243 -301 0
-201 -243 -302 0
-201 -243 -303 0
-201 -243 -304 0
-201 -243 -305 0
-201 -243 -306 0
-201 -243 -307 0
-201 -243 -308 0
-201 -243 -309 0
-201 -243 -310 0
-201 -243 -311 0
-201 -243 -312 0
-201 -243 -313 0
-201 -243 -314 0
-201 -243 -315 0
-201 -244 -291 357 0
-201 -244 -292 358 0
-201 -244 -293 359 0
-201 -244 -294 360 0
-201 -244 -295 361 0
-201 -244 -296 362 0
-201 -244 -297 363 0
-201 -244 -298 364 0
-201 -244 -299 365 0
-201 -244 -300 0
-201 -244 -301 0
-201 -244 -302 0
-201 -244 -303 0
-201 -244 -304 0
-201 -244 -305 0
-201 -244 -306 0
-201 -244 -307 0
-201 -244 -308 0
-201 -244 -309 0
-201 -244 -310 0
-201 -244 -311 0
-201 -244 -312 0
-201 -244 -313 0
-201 -244 -314 0
-201 -244 -315 0
-201 -245 -291 358 0
-201 -245 -292 359 0
-201 -245 -293 360 0
-201 -245 -294 361 0
-201 -245 -295 362 0
-201 -245 -296 363 0
-201 -245 -297 364 0
-201 -245 -298 365 0
-201 -245 -299 0
-201 -245 -300 0
-201 -245 -301 0
-201 -245 -302 0
-201 -245 -303 0
-201 -245 -304 0
-201 -245 -305 0
-201 -245 -306 0
-201 -245 -307 0
-201 -245 -308 0
-201 -245 -309 0
-201 -245 -310 0
-201 -245 -311 0
-201 -245 -312 0
-201 -245 -313 0
-201 -245 -314 0
-201 -245 -315 0
-201 -246 -291 359 0
-201 -246 -292 360 0
-201 -246 -293 361 0
-201 -246 -294 362 0
-201 -246 -295 363 0
-201 -246 -296 364 0
-201 -246 -297 365 0
-201 -246 -298 0
-201 -246 -299 0
-201 -246 -300 0
-201 -246 -301 0
-201 -246 -302 0
-201 -246 -303 0
-201 -246 -304 0
-201 -246 -305 0
-201 -246 -306 0
-201 -246 -307 0
-201 -246 -308 0
-201 -246 -309 0
-201 -246 -310 0
-201 -246 -311 0
-201 -246 -312 0
-201 -246 -313 0
-201 -246 -314 0
-201 -246 -315 0
-201 -247 -291 360 0
-201 -247 -292 361 0
-201 -247 -293 362 0
-201 -247 -294 363 0
-201 -247 -295 364 0
-201 -247 -296 365 0
-201 -247 -297 0
-201 -247 -298 0
-201 -247 -299 0
-201 -247 -300 0
-201 -247 -301 0
-201 -247 -302 0
-201 -247 -303 0
-201 -247 -304 0
-201 -247 -305 0
-201 -247 -306 0
-201 -247 -307 0
-201 -247 -308 0
-201 -247 -309 0
-201 -247 -310 0
-201 -247 -311 0
-201 -247 -312 0
-201 -247 -313 0
-201 -247 -314 0
-201 -247 -315 0
-201 -248 -291 361 0
-201 -248 -292 362 0
-201 -248 -293 363 0
-201 -248 -294 364 0
-201 -248 -295 365 0
-201 -248 -296 0
-201 -248 -297 0
-201 -248 -298 0
-201 -248 -299 0
-201 -248 -300 0
-201 -248 -301 0
-201 -248 -302 0
-201 -248 -303 0
-201 -248 -304 0
-201 -248 -305 0
-201 -248 -306 0
-201 -248 -307 0
-201 -248 -308 0
-201 -248 -309 0
-201 -248 -310 0
-201 -248 -311 0
-201 -248 -312 0
-201 -248 -313 0
-201 -248 -314 0
-201 -248 -315 0
-201 -249 -291 362 0
-201 -249 -292 363 0
-201 -249 -293 364 0
-201 -249 -294 365 0
-201 -249 -295 0
-201 -249 -296 0
-201 -249 -297 0
-201 -249 -298 0
-201 -249 -299 0
-201 -249 -300 0
-201 -249 -301 0
-201 -249 -302 0
-201 -249 -303 0
-201 -249 -304 0
-201 -249 -305 0
-201 -249 -306 0
-201 -249 -307 0
-201 -249 -308 0
-201 -249 -309 0
-201 -249 -310 0
-201 -249 -311 0
-201 -249 -312 0
-201 -249 -313 0
-201 -249 -314 0
-201 -249 -315 0
-201 -250 -291 363 0
-201 -250 -292 364 0
-201 -250 -293 365 0
-201 -250 -294 0
-201 -250 -295 0
-201 -250 -296 0
-201 -250 -297 0
-201 -250 -298 0
-201 -250 -299 0
-201 -250 -300 0
-201 -250 -301 0
-201 -250 -302 0
-201 -250 -303 0
-201 -250 -304 0
-201 -250 -305 0
-201 -250 -306 0
-201 -250 -307 0
-201 -250 -308 0
-201 -250 -309 0
-201 -250 -310 0
-201 -250 -311 0
-201 -250 -312 0
-201 -250 -313 0
-201 -250 -314 0
-201 -250 -315 0
-201 -251 -291 364 0
-201 -251 -292 365 0
-201 -251 -293 0
-201 -251 -294 0
-201 -251 -295 0
-201 -251 -296 0
-201 -251 -297 0
-201 -251 -298 0
-201 -251 -299 0
-201 -251 -300 0
-201 -251 -301 0
-201 -251 -302 0
-201 -251 -303 0
-201 -251 -304 0
-201 -251 -305 0
-201 -251 -306 0
-201 -251 -307 0
-201 -251 -308 0
-201 -251 -309 0
-201 -251 -310 0
-201 -251 -311 0
-201 -251 -312 0
-201 -251 -313 0
-201 -251 -314 0
-201 -251 -315 0
-201 -252 -291 365 0
-201 -252 -292 0
-201 -252 -293 0
-201 -252 -294 0
-201 -252 -295 0
-201 -252 -296 0
-201 -252 -297 0
-201 -252 -298 0
-201 -252 -299 0
-201 -252 -300 0
-201 -252 -301 0
-201 -252 -302 0
-201 -252 -303 0
-201 -252 -304 0
-201 -252 -305 0
-201 -252 -306 0
-201 -252 -307 0
-201 -252 -308 0
-201 -252 -309 0
-201 -252 -310 0
-201 -252 -311 0
-201 -252 -312 0
-201 -252 -313 0
-201 -252 -314 0
-201 -252 -315 0
-201 -253 -291 0
-201 -253 -292 0
-201 -253 -293 0
-201 -253 -294 0
-201 -253 -295 0
-201 -253 -296 0
-201 -253 -297 0
-201 -253 -298 0
-201 -253 -299 0
-201 -253 -300 0
-201 -253 -301 0
-201 -253 -302 0
-201 -253 -303 0
-201 -253 -304 0
-201 -253 -305 0
-201 -253 -306 0
-201 -253 -307 0
-201 -253 -308 0
-201 -253 -309 0
-201 -253 -310 0
-201 -253 -311 0
-201 -253 -312 0
-201 -253 -313 0
-201 -253 -314 0
-201 -253 -315 0
-201 -254 -291 0
-201 -254 -292 0
-201 -254 -293 0
-201 -254 -294 0
-201 -254 -295 0
-201 -254 -296 0
-201 -254 -297 0
-201 -254 -298 0
-201 -254 -299 0
-201 -254 -300 0
-201 -254 -301 0
-201 -254 -302 0
-201 -254 -303 0
-201 -254 -304 0
-201 -254 -305 0
-201 -254 -306 0
-201 -254 -307 0
-201 -254 -308 0
-201 -254 -309 0
-201 -254 -310 0
-201 -254 -311 0
-201 -254 -312 0
-201 -254 -313 0
-201 -254 -314 0
-201 -254 -315 0
-201 -255 -291 0
-201 -255 -292 0
-201 -255 -293 0
-201 -255 -294 0
-201 -255 -295 0
-201 -255 -296 0
-201 -255 -297 0
-201 -255 -298 0
-201 -255 -299 0
-201 -255 -300 0
-201 -255 -301 0
-201 -255 -302 0
-201 -255 -303 0
-201 -255 -304 0
-201 -255 -305 0
-201 -255 -306 0
-201 -255 -307 0
-201 -255 -308 0
-201 -255 -309 0
-201 -255 -310 0
-201 -255 -311 0
-201 -255 -312 0
-201 -255 -313 0
-201 -255 -314 0
-201 -255 -315 0
-201 -256 -291 0
-201 -256 -292 0
-201 -256 -293 0
-201 -256 -294 0
-201 -256 -295 0
-201 -256 -296 0
-201 -256 -297 0
-201 -256 -298 0
-201 -256 -299 0
-201 -256 -300 0
-201 -256 -301 0
-201 -256 -302 0
-201 -256 -303 0
-201 -256 -304 0
-201 -256 -305 0
-201 -256 -306 0
-201 -256 -307 0
-201 -256 -308 0
-201 -256 -309 0
-201 -256 -310 0
-201 -256 -311 0
-201 -256 -312 0
-201 -256 -313 0
-201 -256 -314 0
-201 -256 -315 0
-201 -257 -291 0
-201 -257 -292 0
-201 -257 -293 0
-201 -257 -294 0
-201 -257 -295 0
-201 -257 -296 0
-201 -257 -297 0
-201 -257 -298 0
-201 -257 -299 0
-201 -257 -300 0
-201 -257 -301 0
-201 -257 -302 0
-201 -257 -303 0
-201 -257 -304 0
-201 -257 -305 0
-201 -257 -306 0
-201 -257 -307 0
-201 -257 -308 0
-201 -257 -309 0
-201 -257 -310 0
-201 -257 -311 0
-201 -257 -312 0
-201 -257 -313 0
-201 -257 -314 0
-201 -257 -315 0
-201 -258 -291 0
-201 -258 -292 0
-201 -258 -293 0
-201 -258 -294 0
-201 -258 -295 0
-201 -258 -296 0
-201 -258 -297 0
-201 -258 -298 0
-201 -258 -299 0
-201 -258 -300 0
-201 -258 -301 0
-201 -258 -302 0
-201 -258 -303 0
-201 -258 -304 0
-201 -258 -305 0
-201 -258 -306 0
-201 -258 -307 0
-201 -258 -308 0
-201 -258 -309 0
-201 -258 -310 0
-201 -258 -311 0
-201 -258 -312 0
-201 -258 -313 0
-201 -258 -314 0
-201 -258 -315 0
-201 -259 -291 0
-201 -259 -292 0
-201 -259 -293 0
-201 -259 -294 0
-201 -259 -295 0
-201 -259 -296 0
-201 -259 -297 0
-201 -259 -298 0
-201 -259 -299 0
-201 -259 -300 0
-201 -259 -301 0
-201 -259 -302 0
-201 -259 -303 0
-201 -259 -304 0
-201 -259 -305 0
-201 -259 -306 0
-201 -259 -307 0
-201 -259 -308 0
-201 -259 -309 0
-201 -259 -310 0
-201 -259 -311 0
-201 -259 -312 0
-201 -259 -313 0
-201 -259 -314 0
-201 -259 -315 0
-201 -260 -291 0
-201 -260 -292 0
-201 -260 -293 0
-201 -260 -294 0
-201 -260 -295 0
-201 -260 -296 0
-201 -260 -297 0
-201 -260 -298 0
-201 -260 -299 0
-201 -260 -300 0
-201 -260 -301 0
-201 -260 -302 0
-201 -260 -303 0
-201 -260 -304 0
-201 -260 -305 0
-201 -260 -306 0
-201 -260 -307 0
-201 -260 -308 0
-201 -260 -309 0
-201 -260 -310 0
-201 -260 -311 0
-201 -260 -312 0
-201 -260 -313 0
-201 -260 -314 0
-201 -260 -315 0
-201 -261 -291 0
-201 -261 -292 0
-201 -261 -293 0
-201 -261 -294 0
-201 -261 -295 0
-201 -261 -296 0
-201 -261 -297 0
-201 -261 -298 0
-201 -261 -299 0
-201 -261 -300 0
-201 -261 -301 0
-201 -261 -302 0
-201 -261 -303 0
-201 -261 -304 0
-201 -261 -305 0
-201 -261 -306 0
-201 -261 -307 0
-201 -261 -308 0
-201 -261 -309 0
-201 -261 -310 0
-201 -261 -311 0
-201 -261 -312 0
-201 -261 -313 0
-201 -261 -314 0
-201 -261 -315 0
-201 -262 -291 0
-201 -262 -292 0
-201 -262 -293 0
-201 -262 -294 0
-201 -262 -295 0
-201 -262 -296 0
-201 -262 -297 0
-201 -262 -298 0
-201 -262 -299 0
-201 -262 -300 0
-201 -262 -301 0
-201 -262 -302 0
-201 -262 -303 0
-201 -262 -304 0
-201 -262 -305 0
-201 -262 -306 0
-201 -262 -307 0
-201 -262 -308 0
-201 -262 -309 0
-201 -262 -310 0
-201 -262 -311 0
-201 -262 -312 0
-201 -262 -313 0
-201 -262 -314 0
-201 -262 -315 0
-201 -263 -291 0
-201 -263 -292 0
-201 -263 -293 0
-201 -263 -294 0
-201 -263 -295 0
-201 -263 -296 0
-201 -263 -297 0
-201 -263 -298 0
-201 -263 -299 0
-201 -263 -300 0
-201 -263 -301 0
-201 -263 -302 0
-201 -263 -303 0
-201 -263 -304 0
-201 -263 -305 0
-201 -263 -306 0
-201 -263 -307 0
-201 -263 -308 0
-201 -263 -309 0
-201 -263 -310 0
-201 -263 -311 0
-201 -263 -312 0
-201 -263 -313 0
-201 -263 -314 0
-201 -263 -315 0
-201 -264 -291 0
-201 -264 -292 0
-201 -264 -293 0
-201 -264 -294 0
-201 -264 -295 0
-201 -264 -296 0
-201 -264 -297 0
-201 -264 -298 0
-201 -264 -299 0
-201 -264 -300 0
-201 -264 -301 0
-201 -264 -302 0
-201 -264 -303 0
-201 -264 -304 0
-201 -264 -305 0
-201 -264 -306 0
-201 -264 -307 0
-201 -264 -308 0
-201 -264 -309 0
-201 -264 -310 0
-201 -264 -311 0
-201 -264 -312 0
-201 -264 -313 0
-201 -264 -314 0
-201 -264 -315 0
-201 -265 -291 0
-201 -265 -292 0
-201 -265 -293 0
-201 -265 -294 0
-201 -265 -295 0
-201 -265 -296 0
-201 -265 -297 0
-201 -265 -298 0
-201 -265 -299 0
-201 -265 -300 0
-201 -265 -301 0
-201 -265 -302 0
-201 -265 -303 0
-201 -265 -304 0
-201 -265 -305 0
-201 -265 -306 0
-201 -265 -307 0
-201 -265 -308 0
-201 -265 -309 0
-201 -265 -310 0
-201 -265 -311 0
-201 -265 -312 0
-201 -265 -313 0
-201 -265 -314 0
-201 -265 -315 0
-202 -241 -291 355 0
-202 -241 -292 356 0
-202 -241 -293 357 0
-202 -241 -294 358 0
-202 -241 -295 359 0
-202 -241 -296 360 0
-202 -241 -297 361 0
-202 -241 -298 362 0
-202 -241 -299 363 0
-202 -241 -300 364 0
-202 -241 -301 365 0
-202 -241 -302 0
-202 -241 -303 0
-202 -241 -304 0
-202 -241 -305 0
-202 -241 -306 0
-202 -241 -307 0
-202 -241 -308 0
-202 -241 -309 0
-202 -241 -310 0
-202 -241 -311 0
-202 -241 -312 0
-202 -241 -313 0
-202 -241 -314 0
-202 -241 -315 0
-202 -242 -291 356 0
-202 -242 -292 357 0
-202 -242 -293 358 0
-202 -242 -294 359 0
-202 -242 -295 360 0
-202 -242 -296 361 0
-202 -242 -297 362 0
-202 -242 -298 363 0
-202 -242 -299 364 0
-202 -242 -300 365 0
-202 -242 -301 0
-202 -242 -302 0
-202 -242 -303 0
-202 -242 -304 0
-202 -242 -305 0
-202 -242 -306 0
-202 -242 -307 0
-202 -242 -308 0
-202 -242 -309 0
-202 -242 -310 0
-202 -242 -311 0
-202 -242 -312 0
-202 -242 -313 0
-202 -242 -314 0
-202 -242 -315 0
-202 -243 -291 357 0
-202 -243 -292 358 0
-202 -243 -293 359 0
-202 -243 -294 360 0
-202 -243 -295 361 0
-202 -243 -296 362 0
-202 -243 -297 363 0
-202 -243 -298 364 0
-202 -243 -299 365 0
-202 -243 -300 0
-202 -243 -301 0
-202 -243 -302 0
-202 -243 -303 0
-202 -243 -304 0
-202 -243 -305 0
-202 -243 -306 0
-202 -243 -307 0
-202 -243 -308 0
-202 -243 -309 0
-202 -243 -310 0
-202 -243 -311 0
-202 -243 -312 0
-202 -243 -313 0
-202 -243 -314 0
-202 -243 -315 0
-202 -244 -291 358 0
-202 -244 -292 359 0
-202 -244 -293 360 0
-202 -244 -294 361 0
-202 -244 -295 362 0
-202 -244 -296 363 0
-202 -244 -297 364 0
-202 -244 -298 365 0
-202 -244 -299 0
-202 -244 -300 0
-202 -244 -301 0
-202 -244 -302 0
-202 -244 -303 0
-202 -244 -304 0
-202 -244 -305 0
-202 -244 -306 0
-202 -244 -307 0
-202 -244 -308 0
-202 -244 -309 0
-202 -244 -310 0
-202 -244 -311 0
-202 -244 -312 0
-202 -244 -313 0
-202 -244 -314 0
-202 -244 -315 0
-202 -245 -291 359 0
-202 -245 -292 360 0
-202 -245 -293 361 0
-202 -245 -294 362 0
-202 -245 -295 363 0
-202 -245 -296 364 0
-202 -245 -297 365 0
-202 -245 -298 0
-202 -245 -299 0
-202 -245 -300 0
-202 -245 -301 0
-202 -245 -302 0
-202 -245 -303 0
-202 -245 -304 0
-202 -245 -305 0
-202 -245 -306 0
-202 -245 -307 0
-202 -245 -308 0
-202 -245 -309 0
-202 -245 -310 0
-202 -245 -311 0
-202 -245 -312 0
-202 -245 -313 0
-202 -245 -314 0
-202 -245 -315 0
-202 -246 -291 360 0
-202 -246 -292 361 0
-202 -246 -293 362 0
-202 -246 -294 363 0
-202 -246 -295 364 0
-202 -246 -296 365 0
-202 -246 -297 0
-202 -246 -298 0
-202 -246 -299 0
-202 -246 -300 0
-202 -246 -301 0
-202 -246 -302 0
-202 -246 -303 0
-202 -246 -304 0
-202 -246 -305 0
-202 -246 -306 0
-202 -246 -307 0
-202 -246 -308 0
-202 -246 -309 0
-202 -246 -310 0
-202 -246 -311 0
-202 -246 -312 0
-202 -246 -313 0
-202 -246 -314 0
-202 -246 -315 0
-202 -247 -291 361 0
-202 -247 -292 362 0
-202 -247 -293 363 0
-202 -247 -294 364 0
-202 -247 -295 365 0
-202 -247 -296 0
-202 -247 -297 0
-202 -247 -298 0
-202 -247 -299 0
-202 -247 -300 0
-202 -247 -301 0
-202 -247 -302 0
-202 -247 -303 0
-202 -247 -304 0
-202 -247 -305 0
-202 -247 -306 0
-202 -247 -307 0
-202 -247 -308 0
-202 -247 -309 0
-202 -247 -310 0
-202 -247 -311 0
-202 -247 -312 0
-202 -247 -313 0
-202 -247 -314 0
-202 -247 -315 0
-202 -248 -291 362 0
-202 -248 -292 363 0
-202 -248 -293 364 0
-202 -248 -294 365 0
-202 -248 -295 0
-202 -248 -296 0
-202 -248 -297 0
-202 -248 -298 0
-202 -248 -299 0
-202 -248 -300 0
-202 -248 -301 0
-202 -248 -302 0
-202 -248 -303 0
-202 -248 -304 0
-202 -248 -305 0
-202 -248 -306 0
-202 -248 -307 0
-202 -248 -308 0
-202 -248 -309 0
-202 -248 -310 0
-202 -248 -311 0
-202 -248 -312 0
-202 -248 -313 0
-202 -248 -314 0
-202 -248 -315 0
-202 -249 -291 363 0
-202 -249 -292 364 0
-202 -249 -293 365 0
-202 -249 -294 0
-202 -249 -295 0
-202 -249 -296 0
-202 -249 -297 0
-202 -249 -298 0
-202 -249 -299 0
-202 -249 -300 0
-202 -249 -301 0
-202 -249 -302 0
-202 -249 -303 0
-202 -249 -304 0
-202 -249 -305 0
-202 -249 -306 0
-202 -249 -307 0
-202 -249 -308 0
-202 -249 -309 0
-202 -249 -310 0
-202 -249 -311 0
-202 -249 -312 0
-202 -249 -313 0
-202 -249 -314 0
-202 -249 -315 0
-202 -250 -291 364 0
-202 -250 -292 365 0
-202 -250 -293 0
-202 -250 -294 0
-202 -250 -295 0
-202 -250 -296 0
-202 -250 -297 0
-202 -250 -298 0
-202 -250 -299 0
-202 -250 -300 0
-202 -250 -301 0
-202 -250 -302 0
-202 -250 -303 0
-202 -250 -304 0
-202 -250 -305 0
-202 -250 -306 0
-202 -250 -307 0
-202 -250 -308 0
-202 -250 -309 0
-202 -250 -310 0
-202 -250 -311 0
-202 -250 -312 0
-202 -250 -313 0
-202 -250 -314 0
-202 -250 -315 0
-202 -251 -291 365 0
-202 -251 -292 0
-202 -251 -293 0
-202 -251 -294 0
-202 -251 -295 0
-202 -251 -296 0
-202 -251 -297 0
-202 -251 -298 0
-202 -251 -299 0
-202 -251 -300 0
-202 -251 -301 0
-202 -251 -302 0
-202 -251 -303 0
-202 -251 -304 0
-202 -251 -305 0
-202 -251 -306 0
-202 -251 -307 0
-202 -251 -308 0
-202 -251 -309 0
-202 -251 -310 0
-202 -251 -311 0
-202 -251 -312 0
-202 -251 -313 0
-202 -251 -314 0
-202 -251 -315 0
-202 -252 -291 0
-202 -252 -292 0
-202 -252 -293 0
-202 -252 -294 0
-202 -252 -295 0
-202 -252 -296 0
-202 -252 -297 0
-202 -252 -298 0
-202 -252 -299 0
-202 -252 -300 0
-202 -252 -301 0
-202 -252 -302 0
-202 -252 -303 0
-202 -252 -304 0
-202 -252 -305 0
-202 -252 -306 0
-202 -252 -307 0
-202 -252 -308 0
-202 -252 -309 0
-202 -252 -310 0
-202 -252 -311 0
-202 -252 -312 0
-202 -252 -313 0
-202 -252 -314 0
-202 -252 -315 0
-202 -253 -291 0
-202 -253 -292 0
-202 -253 -293 0
-202 -253 -294 0
-202 -253 -295 0
-202 -253 -296 0
-202 -253 -297 0
-202 -253 -298 0
-202 -253 -299 0
-202 -253 -300 0
-202 -253 -301 0
-202 -253 -302 0
-202 -253 -303 0
-202 -253 -304 0
-202 -253 -305 0
-202 -253 -306 0
-202 -253 -307 0
-202 -253 -308 0
-202 -253 -309 0
-202 -253 -310 0
-202 -253 -311 0
-202 -253 -312 0
-202 -253 -313 0
-202 -253 -314 0
-202 -253 -315 0
-202 -254 -291 0
-202 -254 -292 0
-202 -254 -293 0
-202 -254 -294 0
-202 -254 -295 0
-202 -254 -296 0
-202 -254 -297 0
-202 -254 -298 0
-202 -254 -299 0
-202 -254 -300 0
-202 -254 -301 0
-202 -254 -302 0
-202 -254 -303 0
-202 -254 -304 0
-202 -254 -305 0
-202 -254 -306 0
-202 -254 -307 0
-202 -254 -308 0
-202 -254 -309 0
-202 -254 -310 0
-202 -254 -311 0
-202 -254 -312 0
-202 -254 -313 0
-202 -254 -314 0
-202 -254 -315 0
-202 -255 -291 0
-202 -255 -292 0
-202 -255 -293 0
-202 -255 -294 0
-202 -255 -295 0
-202 -255 -296 0
-202 -255 -297 0
-202 -255 -298 0
-202 -255 -299 0
-202 -255 -300 0
-202 -255 -301 0
-202 -255 -302 0
-202 -255 -303 0
-202 -255 -304 0
-202 -255 -305 0
-202 -255 -306 0
-202 -255 -307 0
-202 -255 -308 0
-202 -255 -309 0
-202 -255 -310 0
-202 -255 -311 0
-202 -255 -312 0
-202 -255 -313 0
-202 -255 -314 0
-202 -255 -315 0
-202 -256 -291 0
-202 -256 -292 0
-202 -256 -293 0
-202 -256 -294 0
-202 -256 -295 0
-202 -256 -296 0
-202 -256 -297 0
-202 -256 -298 0
-202 -256 -299 0
-202 -256 -300 0
-202 -256 -301 0
-202 -256 -302 0
-202 -256 -303 0
-202 -256 -304 0
-202 -256 -305 0
-202 -256 -306 0
-202 -256 -307 0
-202 -256 -308 0
-202 -256 -309 0
-202 -256 -310 0
-202 -256 -311 0
-202 -256 -312 0
-202 -256 -313 0
-202 -256 -314 0
-202 -256 -315 0
-202 -257 -291 0
-202 -257 -292 0
-202 -257 -293 0
-202 -257 -294 0
-202 -257 -295 0
-202 -257 -296 0
-202 -257 -297 0
-202 -257 -298 0
-202 -257 -299 0
-202 -257 -300 0
-202 -257 -301 0
-202 -257 -302 0
-202 -257 -303 0
-202 -257 -304 0
-202 -257 -305 0
-202 -257 -306 0
-202 -257 -307 0
-202 -257 -308 0
-202 -257 -309 0
-202 -257 -310 0
-202 -257 -311 0
-202 -257 -312 0
-202 -257 -313 0
-202 -257 -314 0
-202 -257 -315 0
-202 -258 -291 0
-202 -258 -292 0
-202 -258 -293 0
-202 -258 -294 0
-202 -258 -295 0
-202 -258 -296 0
-202 -258 -297 0
-202 -258 -298 0
-202 -258 -299 0
-202 -258 -300 0
-202 -258 -301 0
-202 -258 -302 0
-202 -258 -303 0
-202 -258 -304 0
-202 -258 -305 0
-202 -258 -306 0
-202 -258 -307 0
-202 -258 -308 0
-202 -258 -309 0
-202 -258 -310 0
-202 -258 -311 0
-202 -258 -312 0
-202 -258 -313 0
-202 -258 -314 0
-202 -258 -315 0
-202 -259 -291 0
-202 -259 -292 0
-202 -259 -293 0
-202 -259 -294 0
-202 -259 -295 0
-202 -259 -296 0
-202 -259 -297 0
-202 -259 -298 0
-202 -259 -299 0
-202 -259 -300 0
-202 -259 -301 0
-202 -259 -302 0
-202 -259 -303 0
-202 -259 -304 0
-202 -259 -305 0
-202 -259 -306 0
-202 -259 -307 0
-202 -259 -308 0
-202 -259 -309 0
-202 -259 -310 0
-202 -259 -311 0
-202 -259 -312 0
-202 -259 -313 0
-202 -259 -314 0
-202 -259 -315 0
-202 -260 -291 0
-202 -260 -292 0
-202 -260 -293 0
-202 -260 -294 0
-202 -260 -295 0
-202 -260 -296 0
-202 -260 -297 0
-202 -260 -298 0
-202 -260 -299 0
-202 -260 -300 0
-202 -260 -301 0
-202 -260 -302 0
-202 -260 -303 0
-202 -260 -304 0
-202 -260 -305 0
-202 -260 -306 0
-202 -260 -307 0
-202 -260 -308 0
-202 -260 -309 0
-202 -260 -310 0
-202 -260 -311 0
-202 -260 -312 0
-202 -260 -313 0
-202 -260 -314 0
-202 -260 -315 0
-202 -261 -291 0
-202 -261 -292 0
-202 -261 -293 0
-202 -261 -294 0
-202 -261 -295 0
-202 -261 -296 0
-202 -261 -297 0
-202 -261 -298 0
-202 -261 -299 0
-202 -261 -300 0
-202 -261 -301 0
-202 -261 -302 0
-202 -261 -303 0
-202 -261 -304 0
-202 -261 -305 0
-202 -261 -306 0
-202 -261 -307 0
-202 -261 -308 0
-202 -261 -309 0
-202 -261 -310 0
-202 -261 -311 0
-202 -261 -312 0
-202 -261 -313 0
-202 -261 -314 0
-202 -261 -315 0
-202 -262 -291 0
-202 -262 -292 0
-202 -262 -293 0
-202 -262 -294 0
-202 -262 -295 0
-202 -262 -296 0
-202 -262 -297 0
-202 -262 -298 0
-202 -262 -299 0
-202 -262 -300 0
-202 -262 -301 0
-202 -262 -302 0
-202 -262 -303 0
-202 -262 -304 0
-202 -262 -305 0
-202 -262 -306 0
-202 -262 -307 0
-202 -262 -308 0
-202 -262 -309 0
-202 -262 -310 0
-202 -262 -311 0
-202 -262 -312 0
-202 -262 -313 0
-202 -262 -314 0
-202 -262 -315 0
-202 -263 -291 0
-202 -263 -292 0
-202 -263 -293 0
-202 -263 -294 0
-202 -263 -295 0
-202 -263 -296 0
-202 -263 -297 0
-202 -263 -298 0
-202 -263 -299 0
-202 -263 -300 0
-202 -263 -301 0
-202 -263 -302 0
-202 -263 -303 0
-202 -263 -304 0
-202 -263 -305 0
-202 -263 -306 0
-202 -263 -307 0
-202 -263 -308 0
-202 -263 -309 0
-202 -263 -310 0
-202 -263 -311 0
-202 -263 -312 0
-202 -263 -313 0
-202 -263 -314 0
-202 -263 -315 0
-202 -264 -291 0
-202 -264 -292 0
-202 -264 -293 0
-202 -264 -294 0
-202 -264 -295 0
-202 -264 -296 0
-202 -264 -297 0
-202 -264 -298 0
-202 -264 -299 0
-202 -264 -300 0
-202 -264 -301 0
-202 -264 -302 0
-202 -264 -303 0
-202 -264 -304 0
-202 -264 -305 0
-202 -264 -306 0
-202 -264 -307 0
-202 -264 -308 0
-202 -264 -309 0
-202 -264 -310 0
-202 -264 -311 0
-202 -264 -312 0
-202 -264 -313 0
-202 -264 -314 0
-202 -264 -315 0
-202 -265 -291 0
-202 -265 -292 0
-202 -265 -293 0
-202 -265 -294 0
-202 -265 -295 0
-202 -265 -296 0
-202 -265 -297 0
-202 -265 -298 0
-202 -265 -299 0
-202 -265 -300 0
-202 -265 -301 0
-202 -265 -302 0
-202 -265 -303 0
-202 -265 -304 0
-202 -265 -305 0
-202 -265 -306 0
-202 -265 -307 0
-202 -265 -308 0
-202 -265 -309 0
-202 -265 -310 0
-202 -265 -311 0
-202 -265 -312 0
-202 -265 -313 0
-202 -265 -314 0
-202 -265 -315 0
-203 -241 -291 356 0
-203 -241 -292 357 0
-203 -241 -293 358 0
-203 -241 -294 359 0
-203 -241 -295 360 0
-203 -241 -296 361 0
-203 -241 -297 362 0
-203 -241 -298 363 0
-203 -241 -299 364 0
-203 -241 -300 365 0
-203 -241 -301 0
-203 -241 -302 0
-203 -241 -303 0
-203 -241 -304 0
-203 -241 -305 0
-203 -241 -306 0
-203 -241 -307 0
-203 -241 -308 0
-203 -241 -309 0
-203 -241 -310 0
-203 -241 -311 0
-203 -241 -312 0
-203 -241 -313 0
-203 -241 -314 0
-203 -241 -315 0
-203 -242 -291 357 0
-203 -242 -292 358 0
-203 -242 -293 359 0
-203 -242 -294 360 0
-203 -242 -295 361 0
-203 -242 -296 362 0
-203 -242 -297 363 0
-203 -242 -298 364 0
-203 -242 -299 365 0
-203 -242 -300 0
-203 -242 -301 0
-203 -242 -302 0
-203 -242 -303 0
-203 -242 -304 0
-203 -242 -305 0
-203 -242 -306 0
-203 -242 -307 0
-203 -242 -308 0
-203 -242 -309 0
-203 -242 -310 0
-203 -242 -311 0
-203 -242 -312 0
-203 -242 -313 0
-203 -242 -314 0
-203 -242 -315 0
-203 -243 -291 358 0
-203 -243 -292 359 0
-203 -243 -293 360 0
-203 -243 -294 361 0
-203 -243 -295 362 0
-203 -243 -296 363 0
-203 -243 -297 364 0
-203 -243 -298 365 0
-203 -243 -299 0
-203 -243 -300 0
-203 -243 -301 0
-203 -243 -302 0
-203 -243 -303 0
-203 -243 -304 0
-203 -243 -305 0
-203 -243 -306 0
-203 -243 -307 0
-203 -243 -308 0
-203 -243 -309 0
-203 -243 -310 0
-203 -243 -311 0
-203 -243 -312 0
-203 -243 -313 0
-203 -243 -314 0
-203 -243 -315 0
-203 -244 -291 359 0
-203 -244 -292 360 0
-203 -244 -293 361 0
-203 -244 -294 362 0
-203 -244 -295 363 0
-203 -244 -296 364 0
-203 -244 -297 365 0
-203 -244 -298 0
-203 -244 -299 0
-203 -244 -300 0
-203 -244 -301 0
-203 -244 -302 0
-203 -244 -303 0
-203 -244 -304 0
-203 -244 -305 0
-203 -244 -306 0
-203 -244 -307 0
-203 -244 -308 0
-203 -244 -309 0
-203 -244 -310 0
-203 -244 -311 0
-203 -244 -312 0
-203 -244 -313 0
-203 -244 -314 0
-203 -244 -315 0
-203 -245 -291 360 0
-203 -245 -292 361 0
-203 -245 -293 362 0
-203 -245 -294 363 0
-203 -245 -295 364 0
-203 -245 -296 365 0
-203 -245 -297 0
-203 -245 -298 0
-203 -245 -299 0
-203 -245 -300 0
-203 -245 -301 0
-203 -245 -302 0
-203 -245 -303 0
-203 -245 -304 0
-203 -245 -305 0
-203 -245 -306 0
-203 -245 -307 0
-203 -245 -308 0
-203 -245 -309 0
-203 -245 -310 0
-203 -245 -311 0
-203 -245 -312 0
-203 -245 -313 0
-203 -245 -314 0
-203 -245 -315 0
-203 -246 -291 361 0
-203 -246 -292 362 0
-203 -246 -293 363 0
-203 -246 -294 364 0
-203 -246 -295 365 0
-203 -246 -296 0
-203 -246 -297 0
-203 -246 -298 0
-203 -246 -299 0
-203 -246 -300 0
-203 -246 -301 0
-203 -246 -302 0
-203 -246 -303 0
-203 -246 -304 0
-203 -246 -305 0
-203 -246 -306 0
-203 -246 -307 0
-203 -246 -308 0
-203 -246 -309 0
-203 -246 -310 0
-203 -246 -311 0
-203 -246 -312 0
-203 -246 -313 0
-203 -246 -314 0
-203 -246 -315 0
-203 -247 -291 362 0
-203 -247 -292 363 0
-203 -247 -293 364 0
-203 -247 -294 365 0
-203 -247 -295 0
-203 -247 -296 0
-203 -247 -297 0
-203 -247 -298 0
-203 -247 -299 0
-203 -247 -300 0
-203 -247 -301 0
-203 -247 -302 0
-203 -247 -303 0
-203 -247 -304 0
-203 -247 -305 0
-203 -247 -306 0
-203 -247 -307 0
-203 -247 -308 0
-203 -247 -309 0
-203 -247 -310 0
-203 -247 -311 0
-203 -247 -312 0
-203 -247 -313 0
-203 -247 -314 0
-203 -247 -315 0
-203 -248 -291 363 0
-203 -248 -292 364 0
-203 -248 -293 365 0
-203 -248 -294 0
-203 -248 -295 0
-203 -248 -296 0
-203 -248 -297 0
-203 -248 -298 0
-203 -248 -299 0
-203 -248 -300 0
-203 -248 -301 0
-203 -248 -302 0
-203 -248 -303 0
-203 -248 -304 0
-203 -248 -305 0
-203 -248 -306 0
-203 -248 -307 0
-203 -248 -308 0
-203 -248 -309 0
-203 -248 -310 0
-203 -248 -311 0
-203 -248 -312 0
-203 -248 -313 0
-203 -248 -314 0
-203 -248 -315 0
-203 -249 -291 364 0
-203 -249 -292 365 0
-203 -249 -293 0
-203 -249 -294 0
-203 -249 -295 0
-203 -249 -296 0
-203 -249 -297 0
-203 -249 -298 0
-203 -249 -299 0
-203 -249 -300 0
-203 -249 -301 0
-203 -249 -302 0
-203 -249 -303 0
-203 -249 -304 0
-203 -249 -305 0
-203 -249 -306 0
-203 -249 -307 0
-203 -249 -308 0
-203 -249 -309 0
-203 -249 -310 0
-203 -249 -311 0
-203 -249 -312 0
-203 -249 -313 0
-203 -249 -314 0
-203 -249 -315 0
-203 -250 -291 365 0
-203 -250 -292 0
-203 -250 -293 0
-203 -250 -294 0
-203 -250 -295 0
-203 -250 -296 0
-203 -250 -297 0
-203 -250 -298 0
-203 -250 -299 0
-203 -250 -300 0
-203 -250 -301 0
-203 -250 -302 0
-203 -250 -303 0
-203 -250 -304 0
-203 -250 -305 0
-203 -250 -306 0
-203 -250 -307 0
-203 -250 -308 0
-203 -250 -309 0
-203 -250 -310 0
-203 -250 -311 0
-203 -250 -312 0
-203 -250 -313 0
-203 -250 -314 0
-203 -250 -315 0
-203 -251 -291 0
-203 -251 -292 0
-203 -251 -293 0
-203 -251 -294 0
-203 -251 -295 0
-203 -251 -296 0
-203 -251 -297 0
-203 -251 -298 0
-203 -251 -299 0
-203 -251 -300 0
-203 -251 -301 0
-203 -251 -302 0
-203 -251 -303 0
-203 -251 -304 0
-203 -251 -305 0
-203 -251 -306 0
-203 -251 -307 0
-203 -251 -308 0
-203 -251 -309 0
-203 -251 -310 0
-203 -251 -311 0
-203 -251 -312 0
-203 -251 -313 0
-203 -251 -314 0
-203 -251 -315 0
-203 -252 -291 0
-203 -252 -292 0
-203 -252 -293 0
-203 -252 -294 0
-203 -252 -295 0
-203 -252 -296 0
-203 -252 -297 0
-203 -252 -298 0
-203 -252 -299 0
-203 -252 -300 0
-203 -252 -301 0
-203 -252 -302 0
-203 -252 -303 0
-203 -252 -304 0
-203 -252 -305 0
-203 -252 -306 0
-203 -252 -307 0
-203 -252 -308 0
-203 -252 -309 0
-203 -252 -310 0
-203 -252 -311 0
-203 -252 -312 0
-203 -252 -313 0
-203 -252 -314 0
-203 -252 -315 0
-203 -253 -291 0
-203 -253 -292 0
-203 -253 -293 0
-203 -253 -294 0
-203 -253 -295 0
-203 -253 -296 0
-203 -253 -297 0
-203 -253 -298 0
-203 -253 -299 0
-203 -253 -300 0
-203 -253 -301 0
-203 -253 -302 0
-203 -253 -303 0
-203 -253 -304 0
-203 -253 -305 0
-203 -253 -306 0
-203 -253 -307 0
-203 -253 -308 0
-203 -253 -309 0
-203 -253 -310 0
-203 -253 -311 0
-203 -253 -312 0
-203 -253 -313 0
-203 -253 -314 0
-203 -253 -315 0
-203 -254 -291 0
-203 -254 -292 0
-203 -254 -293 0
-203 -254 -294 0
-203 -254 -295 0
-203 -254 -296 0
-203 -254 -297 0
-203 -254 -298 0
-203 -254 -299 0
-203 -254 -300 0
-203 -254 -301 0
-203 -254 -302 0
-203 -254 -303 0
-203 -254 -304 0
-203 -254 -305 0
-203 -254 -306 0
-203 -254 -307 0
-203 -254 -308 0
-203 -254 -309 0
-203 -254 -310 0
-203 -254 -311 0
-203 -254 -312 0
-203 -254 -313 0
-203 -254 -314 0
-203 -254 -315 0
-203 -255 -291 0
-203 -255 -292 0
-203 -255 -293 0
-203 -255 -294 0
-203 -255 -295 0
-203 -255 -296 0
-203 -255 -297 0
-203 -255 -298 0
-203 -255 -299 0
-203 -255 -300 0
-203 -255 -301 0
-203 -255 -302 0
-203 -255 -303 0
-203 -255 -304 0
-203 -255 -305 0
-203 -255 -306 0
-203 -255 -307 0
-203 -255 -308 0
-203 -255 -309 0
-203 -255 -310 0
-203 -255 -311 0
-203 -255 -312 0
-203 -255 -313 0
-203 -255 -314 0
-203 -255 -315 0
-203 -256 -291 0
-203 -256 -292 0
-203 -256 -293 0
-203 -256 -294 0
-203 -256 -295 0
-203 -256 -296 0
-203 -256 -297 0
-203 -256 -298 0
-203 -256 -299 0
-203 -256 -300 0
-203 -256 -301 0
-203 -256 -302 0
-203 -256 -303 0
-203 -256 -304 0
-203 -256 -305 0
-203 -256 -306 0
-203 -256 -307 0
-203 -256 -308 0
-203 -256 -309 0
-203 -256 -310 0
-203 -256 -311 0
-203 -256 -312 0
-203 -256 -313 0
-203 -256 -314 0
-203 -256 -315 0
-203 -257 -291 0
-203 -257 -292 0
-203 -257 -293 0
-203 -257 -294 0
-203 -257 -295 0
-203 -257 -296 0
-203 -257 -297 0
-203 -257 -298 0
-203 -257 -299 0
-203 -257 -300 0
-203 -257 -301 0
-203 -257 -302 0
-203 -257 -303 0
-203 -257 -304 0
-203 -257 -305 0
-203 -257 -306 0
-203 -257 -307 0
-203 -257 -308 0
-203 -257 -309 0
-203 -257 -310 0
-203 -257 -311 0
-203 -257 -312 0
-203 -257 -313 0
-203 -257 -314 0
-203 -257 -315 0
-203 -258 -291 0
-203 -258 -292 0
-203 -258 -293 0
-203 -258 -294 0
-203 -258 -295 0
-203 -258 -296 0
-203 -258 -297 0
-203 -258 -298 0
-203 -258 -299 0
-203 -258 -300 0
-203 -258 -301 0
-203 -258 -302 0
-203 -258 -303 0
-203 -258 -304 0
-203 -258 -305 0
-203 -258 -306 0
-203 -258 -307 0
-203 -258 -308 0
-203 -258 -309 0
-203 -258 -310 0
-203 -258 -311 0
-203 -258 -312 0
-203 -258 -313 0
-203 -258 -314 0
-203 -258 -315 0
-203 -259 -291 0
-203 -259 -292 0
-203 -259 -293 0
-203 -259 -294 0
-203 -259 -295 0
-203 -259 -296 0
-203 -259 -297 0
-203 -259 -298 0
-203 -259 -299 0
-203 -259 -300 0
-203 -259 -301 0
-203 -259 -302 0
-203 -259 -303 0
-203 -259 -304 0
-203 -259 -305 0
-203 -259 -306 0
-203 -259 -307 0
-203 -259 -308 0
-203 -259 -309 0
-203 -259 -310 0
-203 -259 -311 0
-203 -259 -312 0
-203 -259 -313 0
-203 -259 -314 0
-203 -259 -315 0
-203 -260 -291 0
-203 -260 -292 0
-203 -260 -293 0
-203 -260 -294 0
-203 -260 -295 0
-203 -260 -296 0
-203 -260 -297 0
-203 -260 -298 0
-203 -260 -299 0
-203 -260 -300 0
-203 -260 -301 0
-203 -260 -302 0
-203 -260 -303 0
-203 -260 -304 0
-203 -260 -305 0
-203 -260 -306 0
-203 -260 -307 0
-203 -260 -308 0
-203 -260 -309 0
-203 -260 -310 0
-203 -260 -311 0
-203 -260 -312 0
-203 -260 -313 0
-203 -260 -314 0
-203 -260 -315 0
-203 -261 -291 0
-203 -261 -292 0
-203 -261 -293 0
-203 -261 -294 0
-203 -261 -295 0
-203 -261 -296 0
-203 -261 -297 0
-203 -261 -298 0
-203 -261 -299 0
-203 -261 -300 0
-203 -261 -301 0
-203 -261 -302 0
-203 -261 -303 0
-203 -261 -304 0
-203 -261 -305 0
-203 -261 -306 0
-203 -261 -307 0
-203 -261 -308 0
-203 -261 -309 0
-203 -261 -310 0
-203 -261 -311 0
-203 -261 -312 0
-203 -261 -313 0
-203 -261 -314 0
-203 -261 -315 0
-203 -262 -291 0
-203 -262 -292 0
-203 -262 -293 0
-203 -262 -294 0
-203 -262 -295 0
-203 -262 -296 0
-203 -262 -297 0
-203 -262 -298 0
-203 -262 -299 0
-203 -262 -300 0
-203 -262 -301 0
-203 -262 -302 0
-203 -262 -303 0
-203 -262 -304 0
-203 -262 -305 0
-203 -262 -306 0
-203 -262 -307 0
-203 -262 -308 0
-203 -262 -309 0
-203 -262 -310 0
-203 -262 -311 0
-203 -262 -312 0
-203 -262 -313 0
-203 -262 -314 0
-203 -262 -315 0
-203 -263 -291 0
-203 -263 -292 0
-203 -263 -293 0
-203 -263 -294 0
-203 -263 -295 0
-203 -263 -296 0
-203 -263 -297 0
-203 -263 -298 0
-203 -263 -299 0
-203 -263 -300 0
-203 -263 -301 0
-203 -263 -302 0
-203 -263 -303 0
-203 -263 -304 0
-203 -263 -305 0
-203 -263 -306 0
-203 -263 -307 0
-203 -263 -308 0
-203 -263 -309 0
-203 -263 -310 0
-203 -263 -311 0
-203 -263 -312 0
-203 -263 -313 0
-203 -263 -314 0
-203 -263 -315 0
-203 -264 -291 0
-203 -264 -292 0
-203 -264 -293 0
-203 -264 -294 0
-203 -264 -295 0
-203 -264 -296 0
-203 -264 -297 0
-203 -264 -298 0
-203 -264 -299 0
-203 -264 -300 0
-203 -264 -301 0
-203 -264 -302 0
-203 -264 -303 0
-203 -264 -304 0
-203 -264 -305 0
-203 -264 -306 0
-203 -264 -307 0
-203 -264 -308 0
-203 -264 -309 0
-203 -264 -310 0
-203 -264 -311 0
-203 -264 -312 0
-203 -264 -313 0
-203 -264 -314 0
-203 -264 -315 0
-203 -265 -291 0
-203 -265 -292 0
-203 -265 -293 0
-203 -265 -294 0
-203 -265 -295 0
-203 -265 -296 0
-203 -265 -297 0
-203 -265 -298 0
-203 -265 -299 0
-203 -265 -300 0
-203 -265 -301 0
-203 -265 -302 0
-203 -265 -303 0
-203 -265 -304 0
-203 -265 -305 0
-203 -265 -306 0
-203 -265 -307 0
-203 -265 -308 0
-203 -265 -309 0
-203 -265 -310 0
-203 -265 -311 0
-203 -265 -312 0
-203 -265 -313 0
-203 -265 -314 0
-203 -265 -315 0
-204 -241 -291 357 0
-204 -241 -292 358 0
-204 -241 -293 359 0
-204 -241 -294 360 0
-204 -241 -295 361 0
-204 -241 -296 362 0
-204 -241 -297 363 0
-204 -241 -298 364 0
-204 -241 -299 365 0
-204 -241 -300 0
-204 -241 -301 0
-204 -241 -302 0
-204 -241 -303 0
-204 -241 -304 0
-204 -241 -305 0
-204 -241 -306 0
-204 -241 -307 0
-204 -241 -308 0
-204 -241 -309 0
-204 -241 -310 0
-204 -241 -311 0
-204 -241 -312 0
-204 -241 -313 0
-204 -241 -314 0
-204 -241 -315 0
-204 -242 -291 358 0
-204 -242 -292 359 0
-204 -242 -293 360 0
-204 -242 -294 361 0
-204 -242 -295 362 0
-204 -242 -296 363 0
-204 -242 -297 364 0
-204 -242 -298 365 0
-204 -242 -299 0
-204 -242 -300 0
-204 -242 -301 0
-204 -242 -302 0
-204 -242 -303 0
-204 -242 -304 0
-204 -242 -305 0
-204 -242 -306 0
-204 -242 -307 0
-204 -242 -308 0
-204 -242 -309 0
-204 -242 -310 0
-204 -242 -311 0
-204 -242 -312 0
-204 -242 -313 0
-204 -242 -314 0
-204 -242 -315 0
-204 -243 -291 359 0
-204 -243 -292 360 0
-204 -243 -293 361 0
-204 -243 -294 362 0
-204 -243 -295 363 0
-204 -243 -296 364 0
-204 -243 -297 365 0
-204 -243 -298 0
-204 -243 -299 0
-204 -243 -300 0
-204 -243 -301 0
-204 -243 -302 0
-204 -243 -303 0
-204 -243 -304 0
-204 -243 -305 0
-204 -243 -306 0
-204 -243 -307 0
-204 -243 -308 0
-204 -243 -309 0
-204 -243 -310 0
-204 -243 -311 0
-204 -243 -312 0
-204 -243 -313 0
-204 -243 -314 0
-204 -243 -315 0
-204 -244 -291 360 0
-204 -244 -292 361 0
-204 -244 -293 362 0
-204 -244 -294 363 0
-204 -244 -295 364 0
-204 -244 -296 365 0
-204 -244 -297 0
-204 -244 -298 0
-204 -244 -299 0
-204 -244 -300 0
-204 -244 -301 0
-204 -244 -302 0
-204 -244 -303 0
-204 -244 -304 0
-204 -244 -305 0
-204 -244 -306 0
-204 -244 -307 0
-204 -244 -308 0
-204 -244 -309 0
-204 -244 -310 0
-204 -244 -311 0
-204 -244 -312 0
-204 -244 -313 0
-204 -244 -314 0
-204 -244 -315 0
-204 -245 -291 361 0
-204 -245 -292 362 0
-204 -245 -293 363 0
-204 -245 -294 364 0
-204 -245 -295 365 0
-204 -245 -296 0
-204 -245 -297 0
-204 -245 -298 0
-204 -245 -299 0
-204 -245 -300 0
-204 -245 -301 0
-204 -245 -302 0
-204 -245 -303 0
-204 -245 -304 0
-204 -245 -305 0
-204 -245 -306 0
-204 -245 -307 0
-204 -245 -308 0
-204 -245 -309 0
-204 -245 -310 0
-204 -245 -311 0
-204 -245 -312 0
-204 -245 -313 0
-204 -245 -314 0
-204 -245 -315 0
-204 -246 -291 362 0
-204 -246 -292 363 0
-204 -246 -293 364 0
-204 -246 -294 365 0
-204 -246 -295 0
-204 -246 -296 0
-204 -246 -297 0
-204 -246 -298 0
-204 -246 -299 0
-204 -246 -300 0
-204 -246 -301 0
-204 -246 -302 0
-204 -246 -303 0
-204 -246 -304 0
-204 -246 -305 0
-204 -246 -306 0
-204 -246 -307 0
-204 -246 -308 0
-204 -246 -309 0
-204 -246 -310 0
-204 -246 -311 0
-204 -246 -312 0
-204 -246 -313 0
-204 -246 -314 0
-204 -246 -315 0
-204 -247 -291 363 0
-204 -247 -292 364 0
-204 -247 -293 365 0
-204 -247 -294 0
-204 -247 -295 0
-204 -247 -296 0
-204 -247 -297 0
-204 -247 -298 0
-204 -247 -299 0
-204 -247 -300 0
-204 -247 -301 0
-204 -247 -302 0
-204 -247 -303 0
-204 -247 -304 0
-204 -247 -305 0
-204 -247 -306 0
-204 -247 -307 0
-204 -247 -308 0
-204 -247 -309 0
-204 -247 -310 0
-204 -247 -311 0
-204 -247 -312 0
-204 -247 -313 0
-204 -247 -314 0
-204 -247 -315 0
-204 -248 -291 364 0
-204 -248 -292 365 0
-204 -248 -293 0
-204 -248 -294 0
-204 -248 -295 0
-204 -248 -296 0
-204 -248 -297 0
-204 -248 -298 0
-204 -248 -299 0
-204 -248 -300 0
-204 -248 -301 0
-204 -248 -302 0
-204 -248 -303 0
-204 -248 -304 0
-204 -248 -305 0
-204 -248 -306 0
-204 -248 -307 0
-204 -248 -308 0
-204 -248 -309 0
-204 -248 -310 0
-204 -248 -311 0
-204 -248 -312 0
-204 -248 -313 0
-204 -248 -314 0
-204 -248 -315 0
-204 -249 -291 365 0
-204 -249 -292 0
-204 -249 -293 0
-204 -249 -294 0
-204 -249 -295 0
-204 -249 -296 0
-204 -249 -297 0
-204 -249 -298 0
-204 -249 -299 0
-204 -249 -300 0
-204 -249 -301 0
-204 -249 -302 0
-204 -249 -303 0
-204 -249 -304 0
-204 -249 -305 0
-204 -249 -306 0
-204 -249 -307 0
-204 -249 -308 0
-204 -249 -309 0
-204 -249 -310 0
-204 -249 -311 0
-204 -249 -312 0
-204 -249 -313 0
-204 -249 -314 0
-204 -249 -315 0
-204 -250 -291 0
-204 -250 -292 0
-204 -250 -293 0
-204 -250 -294 0
-204 -250 -295 0
-204 -250 -296 0
-204 -250 -297 0
-204 -250 -298 0
-204 -250 -299 0
-204 -250 -300 0
-204 -250 -301 0
-204 -250 -302 0
-204 -250 -303 0
-204 -250 -304 0
-204 -250 -305 0
-204 -250 -306 0
-204 -250 -307 0
-204 -250 -308 0
-204 -250 -309 0
-204 -250 -310 0
-204 -250 -311 0
-204 -250 -312 0
-204 -250 -313 0
-204 -250 -314 0
-204 -250 -315 0
-204 -251 -291 0
-204 -251 -292 0
-204 -251 -293 0
-204 -251 -294 0
-204 -251 -295 0
-204 -251 -296 0
-204 -251 -297 0
-204 -251 -298 0
-204 -251 -299 0
-204 -251 -300 0
-204 -251 -301 0
-204 -251 -302 0
-204 -251 -303 0
-204 -251 -304 0
-204 -251 -305 0
-204 -251 -306 0
-204 -251 -307 0
-204 -251 -308 0
-204 -251 -309 0
-204 -251 -310 0
-204 -251 -311 0
-204 -251 -312 0
-204 -251 -313 0
-204 -251 -314 0
-204 -251 -315 0
-204 -252 -291 0
-204 -252 -292 0
-204 -252 -293 0
-204 -252 -294 0
-204 -252 -295 0
-204 -252 -296 0
-204 -252 -297 0
-204 -252 -298 0
-204 -252 -299 0
-204 -252 -300 0
-204 -252 -301 0
-204 -252 -302 0
-204 -252 -303 0
-204 -252 -304 0
-204 -252 -305 0
-204 -252 -306 0
-204 -252 -307 0
-204 -252 -308 0
-204 -252 -309 0
-204 -252 -310 0
-204 -252 -311 0
-204 -252 -312 0
-204 -252 -313 0
-204 -252 -314 0
-204 -252 -315 0
-204 -253 -291 0
-204 -253 -292 0
-204 -253 -293 0
-204 -253 -294 0
-204 -253 -295 0
-204 -253 -296 0
-204 -253 -297 0
-204 -253 -298 0
-204 -253 -299 0
-204 -253 -300 0
-204 -253 -301 0
-204 -253 -302 0
-204 -253 -303 0
-204 -253 -304 0
-204 -253 -305 0
-204 -253 -306 0
-204 -253 -307 0
-204 -253 -308 0
-204 -253 -309 0
-204 -253 -310 0
-204 -253 -311 0
-204 -253 -312 0
-204 -253 -313 0
-204 -253 -314 0
-204 -253 -315 0
-204 -254 -291 0
-204 -254 -292 0
-204 -254 -293 0
-204 -254 -294 0
-204 -254 -295 0
-204 -254 -296 0
-204 -254 -297 0
-204 -254 -298 0
-204 -254 -299 0
-204 -254 -300 0
-204 -254 -301 0
-204 -254 -302 0
-204 -254 -303 0
-204 -254 -304 0
-204 -254 -305 0
-204 -254 -306 0
-204 -254 -307 0
-204 -254 -308 0
-204 -254 -309 0
-204 -254 -310 0
-204 -254 -311 0
-204 -254 -312 0
-204 -254 -313 0
-204 -254 -314 0
-204 -254 -315 0
-204 -255 -291 0
-204 -255 -292 0
-204 -255 -293 0
-204 -255 -294 0
-204 -255 -295 0
-204 -255 -296 0
-204 -255 -297 0
-204 -255 -298 0
-204 -255 -299 0
-204 -255 -300 0
-204 -255 -301 0
-204 -255 -302 0
-204 -255 -303 0
-204 -255 -304 0
-204 -255 -305 0
-204 -255 -306 0
-204 -255 -307 0
-204 -255 -308 0
-204 -255 -309 0
-204 -255 -310 0
-204 -255 -311 0
-204 -255 -312 0
-204 -255 -313 0
-204 -255 -314 0
-204 -255 -315 0
-204 -256 -291 0
-204 -256 -292 0
-204 -256 -293 0
-204 -256 -294 0
-204 -256 -295 0
-204 -256 -296 0
-204 -256 -297 0
-204 -256 -298 0
-204 -256 -299 0
-204 -256 -300 0
-204 -256 -301 0
-204 -256 -302 0
-204 -256 -303 0
-204 -256 -304 0
-204 -256 -305 0
-204 -256 -306 0
-204 -256 -307 0
-204 -256 -308 0
-204 -256 -309 0
-204 -256 -310 0
-204 -256 -311 0
-204 -256 -312 0
-204 -256 -313 0
-204 -256 -314 0
-204 -256 -315 0
-204 -257 -291 0
-204 -257 -292 0
-204 -257 -293 0
-204 -257 -294 0
-204 -257 -295 0
-204 -257 -296 0
-204 -257 -297 0
-204 -257 -298 0
-204 -257 -299 0
-204 -257 -300 0
-204 -257 -301 0
-204 -257 -302 0
-204 -257 -303 0
-204 -257 -304 0
-204 -257 -305 0
-204 -257 -306 0
-204 -257 -307 0
-204 -257 -308 0
-204 -257 -309 0
-204 -257 -310 0
-204 -257 -311 0
-204 -257 -312 0
-204 -257 -313 0
-204 -257 -314 0
-204 -257 -315 0
-204 -258 -291 0
-204 -258 -292 0
-204 -258 -293 0
-204 -258 -294 0
-204 -258 -295 0
-204 -258 -296 0
-204 -258 -297 0
-204 -258 -298 0
-204 -258 -299 0
-204 -258 -300 0
-204 -258 -301 0
-204 -258 -302 0
-204 -258 -303 0
-204 -258 -304 0
-204 -258 -305 0
-204 -258 -306 0
-204 -258 -307 0
-204 -258 -308 0
-204 -258 -309 0
-204 -258 -310 0
-204 -258 -311 0
-204 -258 -312 0
-204 -258 -313 0
-204 -258 -314 0
-204 -258 -315 0
-204 -259 -291 0
-204 -259 -292 0
-204 -259 -293 0
-204 -259 -294 0
-204 -259 -295 0
-204 -259 -296 0
-204 -259 -297 0
-204 -259 -298 0
-204 -259 -299 0
-204 -259 -300 0
-204 -259 -301 0
-204 -259 -302 0
-204 -259 -303 0
-204 -259 -304 0
-204 -259 -305 0
-204 -259 -306 0
-204 -259 -307 0
-204 -259 -308 0
-204 -259 -309 0
-204 -259 -310 0
-204 -259 -311 0
-204 -259 -312 0
-204 -259 -313 0
-204 -259 -314 0
-204 -259 -315 0
-204 -260 -291 0
-204 -260 -292 0
-204 -260 -293 0
-204 -260 -294 0
-204 -260 -295 0
-204 -260 -296 0
-204 -260 -297 0
-204 -260 -298 0
-204 -260 -299 0
-204 -260 -300 0
-204 -260 -301 0
-204 -260 -302 0
-204 -260 -303 0
-204 -260 -304 0
-204 -260 -305 0
-204 -260 -306 0
-204 -260 -307 0
-204 -260 -308 0
-204 -260 -309 0
-204 -260 -310 0
-204 -260 -311 0
-204 -260 -312 0
-204 -260 -313 0
-204 -260 -314 0
-204 -260 -315 0
-204 -261 -291 0
-204 -261 -292 0
-204 -261 -293 0
-204 -261 -294 0
-204 -261 -295 0
-204 -261 -296 0
-204 -261 -297 0
-204 -261 -298 0
-204 -261 -299 0
-204 -261 -300 0
-204 -261 -301 0
-204 -261 -302 0
-204 -261 -303 0
-204 -261 -304 0
-204 -261 -305 0
-204 -261 -306 0
-204 -261 -307 0
-204 -261 -308 0
-204 -261 -309 0
-204 -261 -310 0
-204 -261 -311 0
-204 -261 -312 0
-204 -261 -313 0
-204 -261 -314 0
-204 -261 -315 0
-204 -262 -291 0
-204 -262 -292 0
-204 -262 -293 0
-204 -262 -294 0
-204 -262 -295 0
-204 -262 -296 0
-204 -262 -297 0
-204 -262 -298 0
-204 -262 -299 0
-204 -262 -300 0
-204 -262 -301 0
-204 -262 -302 0
-204 -262 -303 0
-204 -262 -304 0
-204 -262 -305 0
-204 -262 -306 0
-204 -262 -307 0
-204 -262 -308 0
-204 -262 -309 0
-204 -262 -310 0
-204 -262 -311 0
-204 -262 -312 0
-204 -262 -313 0
-204 -262 -314 0
-204 -262 -315 0
-204 -263 -291 0
-204 -263 -292 0
-204 -263 -293 0
-204 -263 -294 0
-204 -263 -295 0
-204 -263 -296 0
-204 -263 -297 0
-204 -263 -298 0
-204 -263 -299 0
-204 -263 -300 0
-204 -263 -301 0
-204 -263 -302 0
-204 -263 -303 0
-204 -263 -304 0
-204 -263 -305 0
-204 -263 -306 0
-204 -263 -307 0
-204 -263 -308 0
-204 -263 -309 0
-204 -263 -310 0
-204 -263 -311 0
-204 -263 -312 0
-204 -263 -313 0
-204 -263 -314 0
-204 -263 -315 0
-204 -264 -291 0
-204 -264 -292 0
-204 -264 -293 0
-204 -264 -294 0
-204 -264 -295 0
-204 -264 -296 0
-204 -264 -297 0
-204 -264 -298 0
-204 -264 -299 0
-204 -264 -300 0
-204 -264 -301 0
-204 -264 -302 0
-204 -264 -303 0
-204 -264 -304 0
-204 -264 -305 0
-204 -264 -306 0
-204 -264 -307 0
-204 -264 -308 0
-204 -264 -309 0
-204 -264 -310 0
-204 -264 -311 0
-204 -264 -312 0
-204 -264 -313 0
-204 -264 -314 0
-204 -264 -315 0
-204 -265 -291 0
-204 -265 -292 0
-204 -265 -293 0
-204 -265 -294 0
-204 -265 -295 0
-204 -265 -296 0
-204 -265 -297 0
-204 -265 -298 0
-204 -265 -299 0
-204 -265 -300 0
-204 -265 -301 0
-204 -265 -302 0
-204 -265 -303 0
-204 -265 -304 0
-204 -265 -305 0
-204 -265 -306 0
-204 -265 -307 0
-204 -265 -308 0
-204 -265 -309 0
-204 -265 -310 0
-204 -265 -311 0
-204 -265 -312 0
-204 -265 -313 0
-204 -265 -314 0
-204 -265 -315 0
-205 -241 -291 358 0
-205 -241 -292 359 0
-205 -241 -293 360 0
-205 -241 -294 361 0
-205 -241 -295 362 0
-205 -241 -296 363 0
-205 -241 -297 364 0
-205 -241 -298 365 0
-205 -241 -299 0
-205 -241 -300 0
-205 -241 -301 0
-205 -241 -302 0
-205 -241 -303 0
-205 -241 -304 0
-205 -241 -305 0
-205 -241 -306 0
-205 -241 -307 0
-205 -241 -308 0
-205 -241 -309 0
-205 -241 -310 0
-205 -241 -311 0
-205 -241 -312 0
-205 -241 -313 0
-205 -241 -314 0
-205 -241 -315 0
-205 -242 -291 359 0
-205 -242 -292 360 0
-205 -242 -293 361 0
-205 -242 -294 362 0
-205 -242 -295 363 0
-205 -242 -296 364 0
-205 -242 -297 365 0
-205 -242 -298 0
-205 -242 -299 0
-205 -242 -300 0
-205 -242 -301 0
-205 -242 -302 0
-205 -242 -303 0
-205 -242 -304 0
-205 -242 -305 0
-205 -242 -306 0
-205 -242 -307 0
-205 -242 -308 0
-205 -242 -309 0
-205 -242 -310 0
-205 -242 -311 0
-205 -242 -312 0
-205 -242 -313 0
-205 -242 -314 0
-205 -242 -315 0
-205 -243 -291 360 0
-205 -243 -292 361 0
-205 -243 -293 362 0
-205 -243 -294 363 0
-205 -243 -295 364 0
-205 -243 -296 365 0
-205 -243 -297 0
-205 -243 -298 0
-205 -243 -299 0
-205 -243 -300 0
-205 -243 -301 0
-205 -243 -302 0
-205 -243 -303 0
-205 -243 -304 0
-205 -243 -305 0
-205 -243 -306 0
-205 -243 -307 0
-205 -243 -308 0
-205 -243 -309 0
-205 -243 -310 0
-205 -243 -311 0
-205 -243 -312 0
-205 -243 -313 0
-205 -243 -314 0
-205 -243 -315 0
-205 -244 -291 361 0
-205 -244 -292 362 0
-205 -244 -293 363 0
-205 -244 -294 364 0
-205 -244 -295 365 0
-205 -244 -296 0
-205 -244 -297 0
-205 -244 -298 0
-205 -244 -299 0
-205 -244 -300 0
-205 -244 -301 0
-205 -244 -302 0
-205 -244 -303 0
-205 -244 -304 0
-205 -244 -305 0
-205 -244 -306 0
-205 -244 -307 0
-205 -244 -308 0
-205 -244 -309 0
-205 -244 -310 0
-205 -244 -311 0
-205 -244 -312 0
-205 -244 -313 0
-205 -244 -314 0
-205 -244 -315 0
-205 -245 -291 362 0
-205 -245 -292 363 0
-205 -245 -293 364 0
-205 -245 -294 365 0
-205 -245 -295 0
-205 -245 -296 0
-205 -245 -297 0
-205 -245 -298 0
-205 -245 -299 0
-205 -245 -300 0
-205 -245 -301 0
-205 -245 -302 0
-205 -245 -303 0
-205 -245 -304 0
-205 -245 -305 0
-205 -245 -306 0
-205 -245 -307 0
-205 -245 -308 0
-205 -245 -309 0
-205 -245 -310 0
-205 -245 -311 0
-205 -245 -312 0
-205 -245 -313 0
-205 -245 -314 0
-205 -245 -315 0
-205 -246 -291 363 0
-205 -246 -292 364 0
-205 -246 -293 365 0
-205 -246 -294 0
-205 -246 -295 0
-205 -246 -296 0
-205 -246 -297 0
-205 -246 -298 0
-205 -246 -299 0
-205 -246 -300 0
-205 -246 -301 0
-205 -246 -302 0
-205 -246 -303 0
-205 -246 -304 0
-205 -246 -305 0
-205 -246 -306 0
-205 -246 -307 0
-205 -246 -308 0
-205 -246 -309 0
-205 -246 -310 0
-205 -246 -311 0
-205 -246 -312 0
-205 -246 -313 0
-205 -246 -314 0
-205 -246 -315 0
-205 -247 -291 364 0
-205 -247 -292 365 0
-205 -247 -293 0
-205 -247 -294 0
-205 -247 -295 0
-205 -247 -296 0
-205 -247 -297 0
-205 -247 -298 0
-205 -247 -299 0
-205 -247 -300 0
-205 -247 -301 0
-205 -247 -302 0
-205 -247 -303 0
-205 -247 -304 0
-205 -247 -305 0
-205 -247 -306 0
-205 -247 -307 0
-205 -247 -308 0
-205 -247 -309 0
-205 -247 -310 0
-205 -247 -311 0
-205 -247 -312 0
-205 -247 -313 0
-205 -247 -314 0
-205 -247 -315 0
-205 -248 -291 365 0
-205 -248 -292 0
-205 -248 -293 0
-205 -248 -294 0
-205 -248 -295 0
-205 -248 -296 0
-205 -248 -297 0
-205 -248 -298 0
-205 -248 -299 0
-205 -248 -300 0
-205 -248 -301 0
-205 -248 -302 0
-205 -248 -303 0
-205 -248 -304 0
-205 -248 -305 0
-205 -248 -306 0
-205 -248 -307 0
-205 -248 -308 0
-205 -248 -309 0
-205 -248 -310 0
-205 -248 -311 0
-205 -248 -312 0
-205 -248 -313 0
-205 -248 -314 0
-205 -248 -315 0
-205 -249 -291 0
-205 -249 -292 0
-205 -249 -293 0
-205 -249 -294 0
-205 -249 -295 0
-205 -249 -296 0
-205 -249 -297 0
-205 -249 -298 0
-205 -249 -299 0
-205 -249 -300 0
-205 -249 -301 0
-205 -249 -302 0
-205 -249 -303 0
-205 -249 -304 0
-205 -249 -305 0
-205 -249 -306 0
-205 -249 -307 0
-205 -249 -308 0
-205 -249 -309 0
-205 -249 -310 0
-205 -249 -311 0
-205 -249 -312 0
-205 -249 -313 0
-205 -249 -314 0
-205 -249 -315 0
-205 -250 -291 0
-205 -250 -292 0
-205 -250 -293 0
-205 -250 -294 0
-205 -250 -295 0
-205 -250 -296 0
-205 -250 -297 0
-205 -250 -298 0
-205 -250 -299 0
-205 -250 -300 0
-205 -250 -301 0
-205 -250 -302 0
-205 -250 -303 0
-205 -250 -304 0
-205 -250 -305 0
-205 -250 -306 0
-205 -250 -307 0
-205 -250 -308 0
-205 -250 -309 0
-205 -250 -310 0
-205 -250 -311 0
-205 -250 -312 0
-205 -250 -313 0
-205 -250 -314 0
-205 -250 -315 0
-205 -251 -291 0
-205 -251 -292 0
-205 -251 -293 0
-205 -251 -294 0
-205 -251 -295 0
-205 -251 -296 0
-205 -251 -297 0
-205 -251 -298 0
-205 -251 -299 0
-205 -251 -300 0
-205 -251 -301 0
-205 -251 -302 0
-205 -251 -303 0
-205 -251 -304 0
-205 -251 -305 0
-205 -251 -306 0
-205 -251 -307 0
-205 -251 -308 0
-205 -251 -309 0
-205 -251 -310 0
-205 -251 -311 0
-205 -251 -312 0
-205 -251 -313 0
-205 -251 -314 0
-205 -251 -315 0
-205 -252 -291 0
-205 -252 -292 0
-205 -252 -293 0
-205 -252 -294 0
-205 -252 -295 0
-205 -252 -296 0
-205 -252 -297 0
-205 -252 -298 0
-205 -252 -299 0
-205 -252 -300 0
-205 -252 -301 0
-205 -252 -302 0
-205 -252 -303 0
-205 -252 -304 0
-205 -252 -305 0
-205 -252 -306 0
-205 -252 -307 0
-205 -252 -308 0
-205 -252 -309 0
-205 -252 -310 0
-205 -252 -311 0
-205 -252 -312 0
-205 -252 -313 0
-205 -252 -314 0
-205 -252 -315 0
-205 -253 -291 0
-205 -253 -292 0
-205 -253 -293 0
-205 -253 -294 0
-205 -253 -295 0
-205 -253 -296 0
-205 -253 -297 0
-205 -253 -298 0
-205 -253 -299 0
-205 -253 -300 0
-205 -253 -301 0
-205 -253 -302 0
-205 -253 -303 0
-205 -253 -304 0
-205 -253 -305 0
-205 -253 -306 0
-205 -253 -307 0
-205 -253 -308 0
-205 -253 -309 0
-205 -253 -310 0
-205 -253 -311 0
-205 -253 -312 0
-205 -253 -313 0
-205 -253 -314 0
-205 -253 -315 0
-205 -254 -291 0
-205 -254 -292 0
-205 -254 -293 0
-205 -254 -294 0
-205 -254 -295 0
-205 -254 -296 0
-205 -254 -297 0
-205 -254 -298 0
-205 -254 -299 0
-205 -254 -300 0
-205 -254 -301 0
-205 -254 -302 0
-205 -254 -303 0
-205 -254 -304 0
-205 -254 -305 0
-205 -254 -306 0
-205 -254 -307 0
-205 -254 -308 0
-205 -254 -309 0
-205 -254 -310 0
-205 -254 -311 0
-205 -254 -312 0
-205 -254 -313 0
-205 -254 -314 0
-205 -254 -315 0
-205 -255 -291 0
-205 -255 -292 0
-205 -255 -293 0
-205 -255 -294 0
-205 -255 -295 0
-205 -255 -296 0
-205 -255 -297 0
-205 -255 -298 0
-205 -255 -299 0
-205 -255 -300 0
-205 -255 -301 0
-205 -255 -302 0
-205 -255 -303 0
-205 -255 -304 0
-205 -255 -305 0
-205 -255 -306 0
-205 -255 -307 0
-205 -255 -308 0
-205 -255 -309 0
-205 -255 -310 0
-205 -255 -311 0
-205 -255 -312 0
-205 -255 -313 0
-205 -255 -314 0
-205 -255 -315 0
-205 -256 -291 0
-205 -256 -292 0
-205 -256 -293 0
-205 -256 -294 0
-205 -256 -295 0
-205 -256 -296 0
-205 -256 -297 0
-205 -256 -298 0
-205 -256 -299 0
-205 -256 -300 0
-205 -256 -301 0
-205 -256 -302 0
-205 -256 -303 0
-205 -256 -304 0
-205 -256 -305 0
-205 -256 -306 0
-205 -256 -307 0
-205 -256 -308 0
-205 -256 -309 0
-205 -256 -310 0
-205 -256 -311 0
-205 -256 -312 0
-205 -256 -313 0
-205 -256 -314 0
-205 -256 -315 0
-205 -257 -291 0
-205 -257 -292 0
-205 -257 -293 0
-205 -257 -294 0
-205 -257 -295 0
-205 -257 -296 0
-205 -257 -297 0
-205 -257 -298 0
-205 -257 -299 0
-205 -257 -300 0
-205 -257 -301 0
-205 -257 -302 0
-205 -257 -303 0
-205 -257 -304 0
-205 -257 -305 0
-205 -257 -306 0
-205 -257 -307 0
-205 -257 -308 0
-205 -257 -309 0
-205 -257 -310 0
-205 -257 -311 0
-205 -257 -312 0
-205 -257 -313 0
-205 -257 -314 0
-205 -257 -315 0
-205 -258 -291 0
-205 -258 -292 0
-205 -258 -293 0
-205 -258 -294 0
-205 -258 -295 0
-205 -258 -296 0
-205 -258 -297 0
-205 -258 -298 0
-205 -258 -299 0
-205 -258 -300 0
-205 -258 -301 0
-205 -258 -302 0
-205 -258 -303 0
-205 -258 -304 0
-205 -258 -305 0
-205 -258 -306 0
-205 -258 -307 0
-205 -258 -308 0
-205 -258 -309 0
-205 -258 -310 0
-205 -258 -311 0
-205 -258 -312 0
-205 -258 -313 0
-205 -258 -314 0
-205 -258 -315 0
-205 -259 -291 0
-205 -259 -292 0
-205 -259 -293 0
-205 -259 -294 0
-205 -259 -295 0
-205 -259 -296 0
-205 -259 -297 0
-205 -259 -298 0
-205 -259 -299 0
-205 -259 -300 0
-205 -259 -301 0
-205 -259 -302 0
-205 -259 -303 0
-205 -259 -304 0
-205 -259 -305 0
-205 -259 -306 0
-205 -259 -307 0
-205 -259 -308 0
-205 -259 -309 0
-205 -259 -310 0
-205 -259 -311 0
-205 -259 -312 0
-205 -259 -313 0
-205 -259 -314 0
-205 -259 -315 0
-205 -260 -291 0
-205 -260 -292 0
-205 -260 -293 0
-205 -260 -294 0
-205 -260 -295 0
-205 -260 -296 0
-205 -260 -297 0
-205 -260 -298 0
-205 -260 -299 0
-205 -260 -300 0
-205 -260 -301 0
-205 -260 -302 0
-205 -260 -303 0
-205 -260 -304 0
-205 -260 -305 0
-205 -260 -306 0
-205 -260 -307 0
-205 -260 -308 0
-205 -260 -309 0
-205 -260 -310 0
-205 -260 -311 0
-205 -260 -312 0
-205 -260 -313 0
-205 -260 -314 0
-205 -260 -315 0
-205 -261 -291 0
-205 -261 -292 0
-205 -261 -293 0
-205 -261 -294 0
-205 -261 -295 0
-205 -261 -296 0
-205 -261 -297 0
-205 -261 -298 0
-205 -261 -299 0
-205 -261 -300 0
-205 -261 -301 0
-205 -261 -302 0
-205 -261 -303 0
-205 -261 -304 0
-205 -261 -305 0
-205 -261 -306 0
-205 -261 -307 0
-205 -261 -308 0
-205 -261 -309 0
-205 -261 -310 0
-205 -261 -311 0
-205 -261 -312 0
-205 -261 -313 0
-205 -261 -314 0
-205 -261 -315 0
-205 -262 -291 0
-205 -262 -292 0
-205 -262 -293 0
-205 -262 -294 0
-205 -262 -295 0
-205 -262 -296 0
-205 -262 -297 0
-205 -262 -298 0
-205 -262 -299 0
-205 -262 -300 0
-205 -262 -301 0
-205 -262 -302 0
-205 -262 -303 0
-205 -262 -304 0
-205 -262 -305 0
-205 -262 -306 0
-205 -262 -307 0
-205 -262 -308 0
-205 -262 -309 0
-205 -262 -310 0
-205 -262 -311 0
-205 -262 -312 0
-205 -262 -313 0
-205 -262 -314 0
-205 -262 -315 0
-205 -263 -291 0
-205 -263 -292 0
-205 -263 -293 0
-205 -263 -294 0
-205 -263 -295 0
-205 -263 -296 0
-205 -263 -297 0
-205 -263 -298 0
-205 -263 -299 0
-205 -263 -300 0
-205 -263 -301 0
-205 -263 -302 0
-205 -263 -303 0
-205 -263 -304 0
-205 -263 -305 0
-205 -263 -306 0
-205 -263 -307 0
-205 -263 -308 0
-205 -263 -309 0
-205 -263 -310 0
-205 -263 -311 0
-205 -263 -312 0
-205 -263 -313 0
-205 -263 -314 0
-205 -263 -315 0
-205 -264 -291 0
-205 -264 -292 0
-205 -264 -293 0
-205 -264 -294 0
-205 -264 -295 0
-205 -264 -296 0
-205 -264 -297 0
-205 -264 -298 0
-205 -264 -299 0
-205 -264 -300 0
-205 -264 -301 0
-205 -264 -302 0
-205 -264 -303 0
-205 -264 -304 0
-205 -264 -305 0
-205 -264 -306 0
-205 -264 -307 0
-205 -264 -308 0
-205 -264 -309 0
-205 -264 -310 0
-205 -264 -311 0
-205 -264 -312 0
-205 -264 -313 0
-205 -264 -314 0
-205 -264 -315 0
-205 -265 -291 0
-205 -265 -292 0
-205 -265 -293 0
-205 -265 -294 0
-205 -265 -295 0
-205 -265 -296 0
-205 -265 -297 0
-205 -265 -298 0
-205 -265 -299 0
-205 -265 -300 0
-205 -265 -301 0
-205 -265 -302 0
-205 -265 -303 0
-205 -265 -304 0
-205 -265 -305 0
-205 -265 -306 0
-205 -265 -307 0
-205 -265 -308 0
-205 -265 -309 0
-205 -265 -310 0
-205 -265 -311 0
-205 -265 -312 0
-205 -265 -313 0
-205 -265 -314 0
-205 -265 -315 0
-206 -241 -291 359 0
-206 -241 -292 360 0
-206 -241 -293 361 0
-206 -241 -294 362 0
-206 -241 -295 363 0
-206 -241 -296 364 0
-206 -241 -297 365 0
-206 -241 -298 0
-206 -241 -299 0
-206 -241 -300 0
-206 -241 -301 0
-206 -241 -302 0
-206 -241 -303 0
-206 -241 -304 0
-206 -241 -305 0
-206 -241 -306 0
-206 -241 -307 0
-206 -241 -308 0
-206 -241 -309 0
-206 -241 -310 0
-206 -241 -311 0
-206 -241 -312 0
-206 -241 -313 0
-206 -241 -314 0
-206 -241 -315 0
-206 -242 -291 360 0
-206 -242 -292 361 0
-206 -242 -293 362 0
-206 -242 -294 363 0
-206 -242 -295 364 0
-206 -242 -296 365 0
-206 -242 -297 0
-206 -242 -298 0
-206 -242 -299 0
-206 -242 -300 0
-206 -242 -301 0
-206 -242 -302 0
-206 -242 -303 0
-206 -242 -304 0
-206 -242 -305 0
-206 -242 -306 0
-206 -242 -307 0
-206 -242 -308 0
-206 -242 -309 0
-206 -242 -310 0
-206 -242 -311 0
-206 -242 -312 0
-206 -242 -313 0
-206 -242 -314 0
-206 -242 -315 0
-206 -243 -291 361 0
-206 -243 -292 362 0
-206 -243 -293 363 0
-206 -243 -294 364 0
-206 -243 -295 365 0
-206 -243 -296 0
-206 -243 -297 0
-206 -243 -298 0
-206 -243 -299 0
-206 -243 -300 0
-206 -243 -301 0
-206 -243 -302 0
-206 -243 -303 0
-206 -243 -304 0
-206 -243 -305 0
-206 -243 -306 0
-206 -243 -307 0
-206 -243 -308 0
-206 -243 -309 0
-206 -243 -310 0
-206 -243 -311 0
-206 -243 -312 0
-206 -243 -313 0
-206 -243 -314 0
-206 -243 -315 0
-206 -244 -291 362 0
-206 -244 -292 363 0
-206 -244 -293 364 0
-206 -244 -294 365 0
-206 -244 -295 0
-206 -244 -296 0
-206 -244 -297 0
-206 -244 -298 0
-206 -244 -299 0
-206 -244 -300 0
-206 -244 -301 0
-206 -244 -302 0
-206 -244 -303 0
-206 -244 -304 0
-206 -244 -305 0
-206 -244 -306 0
-206 -244 -307 0
-206 -244 -308 0
-206 -244 -309 0
-206 -244 -310 0
-206 -244 -311 0
-206 -244 -312 0
-206 -244 -313 0
-206 -244 -314 0
-206 -244 -315 0
-206 -245 -291 363 0
-206 -245 -292 364 0
-206 -245 -293 365 0
-206 -245 -294 0
-206 -245 -295 0
-206 -245 -296 0
-206 -245 -297 0
-206 -245 -298 0
-206 -245 -299 0
-206 -245 -300 0
-206 -245 -301 0
-206 -245 -302 0
-206 -245 -303 0
-206 -245 -304 0
-206 -245 -305 0
-206 -245 -306 0
-206 -245 -307 0
-206 -245 -308 0
-206 -245 -309 0
-206 -245 -310 0
-206 -245 -311 0
-206 -245 -312 0
-206 -245 -313 0
-206 -245 -314 0
-206 -245 -315 0
-206 -246 -291 364 0
-206 -246 -292 365 0
-206 -246 -293 0
-206 -246 -294 0
-206 -246 -295 0
-206 -246 -296 0
-206 -246 -297 0
-206 -246 -298 0
-206 -246 -299 0
-206 -246 -300 0
-206 -246 -301 0
-206 -246 -302 0
-206 -246 -303 0
-206 -246 -304 0
-206 -246 -305 0
-206 -246 -306 0
-206 -246 -307 0
-206 -246 -308 0
-206 -246 -309 0
-206 -246 -310 0
-206 -246 -311 0
-206 -246 -312 0
-206 -246 -313 0
-206 -246 -314 0
-206 -246 -315 0
-206 -247 -291 365 0
-206 -247 -292 0
-206 -247 -293 0
-206 -247 -294 0
-206 -247 -295 0
-206 -247 -296 0
-206 -247 -297 0
-206 -247 -298 0
-206 -247 -299 0
-206 -247 -300 0
-206 -247 -301 0
-206 -247 -302 0
-206 -247 -303 0
-206 -247 -304 0
-206 -247 -305 0
-206 -247 -306 0
-206 -247 -307 0
-206 -247 -308 0
-206 -247 -309 0
-206 -247 -310 0
-206 -247 -311 0
-206 -247 -312 0
-206 -247 -313 0
-206 -247 -314 0
-206 -247 -315 0
-206 -248 -291 0
-206 -248 -292 0
-206 -248 -293 0
-206 -248 -294 0
-206 -248 -295 0
-206 -248 -296 0
-206 -248 -297 0
-206 -248 -298 0
-206 -248 -299 0
-206 -248 -300 0
-206 -248 -301 0
-206 -248 -302 0
-206 -248 -303 0
-206 -248 -304 0
-206 -248 -305 0
-206 -248 -306 0
-206 -248 -307 0
-206 -248 -308 0
-206 -248 -309 0
-206 -248 -310 0
-206 -248 -311 0
-206 -248 -312 0
-206 -248 -313 0
-206 -248 -314 0
-206 -248 -315 0
-206 -249 -291 0
-206 -249 -292 0
-206 -249 -293 0
-206 -249 -294 0
-206 -249 -295 0
-206 -249 -296 0
-206 -249 -297 0
-206 -249 -298 0
-206 -249 -299 0
-206 -249 -300 0
-206 -249 -301 0
-206 -249 -302 0
-206 -249 -303 0
-206 -249 -304 0
-206 -249 -305 0
-206 -249 -306 0
-206 -249 -307 0
-206 -249 -308 0
-206 -249 -309 0
-206 -249 -310 0
-206 -249 -311 0
-206 -249 -312 0
-206 -249 -313 0
-206 -249 -314 0
-206 -249 -315 0
-206 -250 -291 0
-206 -250 -292 0
-206 -250 -293 0
-206 -250 -294 0
-206 -250 -295 0
-206 -250 -296 0
-206 -250 -297 0
-206 -250 -298 0
-206 -250 -299 0
-206 -250 -300 0
-206 -250 -301 0
-206 -250 -302 0
-206 -250 -303 0
-206 -250 -304 0
-206 -250 -305 0
-206 -250 -306 0
-206 -250 -307 0
-206 -250 -308 0
-206 -250 -309 0
-206 -250 -310 0
-206 -250 -311 0
-206 -250 -312 0
-206 -250 -313 0
-206 -250 -314 0
-206 -250 -315 0
-206 -251 -291 0
-206 -251 -292 0
-206 -251 -293 0
-206 -251 -294 0
-206 -251 -295 0
-206 -251 -296 0
-206 -251 -297 0
-206 -251 -298 0
-206 -251 -299 0
-206 -251 -300 0
-206 -251 -301 0
-206 -251 -302 0
-206 -251 -303 0
-206 -251 -304 0
-206 -251 -305 0
-206 -251 -306 0
-206 -251 -307 0
-206 -251 -308 0
-206 -251 -309 0
-206 -251 -310 0
-206 -251 -311 0
-206 -251 -312 0
-206 -251 -313 0
-206 -251 -314 0
-206 -251 -315 0
-206 -252 -291 0
-206 -252 -292 0
-206 -252 -293 0
-206 -252 -294 0
-206 -252 -295 0
-206 -252 -296 0
-206 -252 -297 0
-206 -252 -298 0
-206 -252 -299 0
-206 -252 -300 0
-206 -252 -301 0
-206 -252 -302 0
-206 -252 -303 0
-206 -252 -304 0
-206 -252 -305 0
-206 -252 -306 0
-206 -252 -307 0
-206 -252 -308 0
-206 -252 -309 0
-206 -252 -310 0
-206 -252 -311 0
-206 -252 -312 0
-206 -252 -313 0
-206 -252 -314 0
-206 -252 -315 0
-206 -253 -291 0
-206 -253 -292 0
-206 -253 -293 0
-206 -253 -294 0
-206 -253 -295 0
-206 -253 -296 0
-206 -253 -297 0
-206 -253 -298 0
-206 -253 -299 0
-206 -253 -300 0
-206 -253 -301 0
-206 -253 -302 0
-206 -253 -303 0
-206 -253 -304 0
-206 -253 -305 0
-206 -253 -306 0
-206 -253 -307 0
-206 -253 -308 0
-206 -253 -309 0
-206 -253 -310 0
-206 -253 -311 0
-206 -253 -312 0
-206 -253 -313 0
-206 -253 -314 0
-206 -253 -315 0
-206 -254 -291 0
-206 -254 -292 0
-206 -254 -293 0
-206 -254 -294 0
-206 -254 -295 0
-206 -254 -296 0
-206 -254 -297 0
-206 -254 -298 0
-206 -254 -299 0
-206 -254 -300 0
-206 -254 -301 0
-206 -254 -302 0
-206 -254 -303 0
-206 -254 -304 0
-206 -254 -305 0
-206 -254 -306 0
-206 -254 -307 0
-206 -254 -308 0
-206 -254 -309 0
-206 -254 -310 0
-206 -254 -311 0
-206 -254 -312 0
-206 -254 -313 0
-206 -254 -314 0
-206 -254 -315 0
-206 -255 -291 0
-206 -255 -292 0
-206 -255 -293 0
-206 -255 -294 0
-206 -255 -295 0
-206 -255 -296 0
-206 -255 -297 0
-206 -255 -298 0
-206 -255 -299 0
-206 -255 -300 0
-206 -255 -301 0
-206 -255 -302 0
-206 -255 -303 0
-206 -255 -304 0
-206 -255 -305 0
-206 -255 -306 0
-206 -255 -307 0
-206 -255 -308 0
-206 -255 -309 0
-206 -255 -310 0
-206 -255 -311 0
-206 -255 -312 0
-206 -255 -313 0
-206 -255 -314 0
-206 -255 -315 0
-206 -256 -291 0
-206 -256 -292 0
-206 -256 -293 0
-206 -256 -294 0
-206 -256 -295 0
-206 -256 -296 0
-206 -256 -297 0
-206 -256 -298 0
-206 -256 -299 0
-206 -256 -300 0
-206 -256 -301 0
-206 -256 -302 0
-206 -256 -303 0
-206 -256 -304 0
-206 -256 -305 0
-206 -256 -306 0
-206 -256 -307 0
-206 -256 -308 0
-206 -256 -309 0
-206 -256 -310 0
-206 -256 -311 0
-206 -256 -312 0
-206 -256 -313 0
-206 -256 -314 0
-206 -256 -315 0
-206 -257 -291 0
-206 -257 -292 0
-206 -257 -293 0
-206 -257 -294 0
-206 -257 -295 0
-206 -257 -296 0
-206 -257 -297 0
-206 -257 -298 0
-206 -257 -299 0
-206 -257 -300 0
-206 -257 -301 0
-206 -257 -302 0
-206 -257 -303 0
-206 -257 -304 0
-206 -257 -305 0
-206 -257 -306 0
-206 -257 -307 0
-206 -257 -308 0
-206 -257 -309 0
-206 -257 -310 0
-206 -257 -311 0
-206 -257 -312 0
-206 -257 -313 0
-206 -257 -314 0
-206 -257 -315 0
-206 -258 -291 0
-206 -258 -292 0
-206 -258 -293 0
-206 -258 -294 0
-206 -258 -295 0
-206 -258 -296 0
-206 -258 -297 0
-206 -258 -298 0
-206 -258 -299 0
-206 -258 -300 0
-206 -258 -301 0
-206 -258 -302 0
-206 -258 -303 0
-206 -258 -304 0
-206 -258 -305 0
-206 -258 -306 0
-206 -258 -307 0
-206 -258 -308 0
-206 -258 -309 0
-206 -258 -310 0
-206 -258 -311 0
-206 -258 -312 0
-206 -258 -313 0
-206 -258 -314 0
-206 -258 -315 0
-206 -259 -291 0
-206 -259 -292 0
-206 -259 -293 0
-206 -259 -294 0
-206 -259 -295 0
-206 -259 -296 0
-206 -259 -297 0
-206 -259 -298 0
-206 -259 -299 0
-206 -259 -300 0
-206 -259 -301 0
-206 -259 -302 0
-206 -259 -303 0
-206 -259 -304 0
-206 -259 -305 0
-206 -259 -306 0
-206 -259 -307 0
-206 -259 -308 0
-206 -259 -309 0
-206 -259 -310 0
-206 -259 -311 0
-206 -259 -312 0
-206 -259 -313 0
-206 -259 -314 0
-206 -259 -315 0
-206 -260 -291 0
-206 -260 -292 0
-206 -260 -293 0
-206 -260 -294 0
-206 -260 -295 0
-206 -260 -296 0
-206 -260 -297 0
-206 -260 -298 0
-206 -260 -299 0
-206 -260 -300 0
-206 -260 -301 0
-206 -260 -302 0
-206 -260 -303 0
-206 -260 -304 0
-206 -260 -305 0
-206 -260 -306 0
-206 -260 -307 0
-206 -260 -308 0
-206 -260 -309 0
-206 -260 -310 0
-206 -260 -311 0
-206 -260 -312 0
-206 -260 -313 0
-206 -260 -314 0
-206 -260 -315 0
-206 -261 -291 0
-206 -261 -292 0
-206 -261 -293 0
-206 -261 -294 0
-206 -261 -295 0
-206 -261 -296 0
-206 -261 -297 0
-206 -261 -298 0
-206 -261 -299 0
-206 -261 -300 0
-206 -261 -301 0
-206 -261 -302 0
-206 -261 -303 0
-206 -261 -304 0
-206 -261 -305 0
-206 -261 -306 0
-206 -261 -307 0
-206 -261 -308 0
-206 -261 -309 0
-206 -261 -310 0
-206 -261 -311 0
-206 -261 -312 0
-206 -261 -313 0
-206 -261 -314 0
-206 -261 -315 0
-206 -262 -291 0
-206 -262 -292 0
-206 -262 -293 0
-206 -262 -294 0
-206 -262 -295 0
-206 -262 -296 0
-206 -262 -297 0
-206 -262 -298 0
-206 -262 -299 0
-206 -262 -300 0
-206 -262 -301 0
-206 -262 -302 0
-206 -262 -303 0
-206 -262 -304 0
-206 -262 -305 0
-206 -262 -306 0
-206 -262 -307 0
-206 -262 -308 0
-206 -262 -309 0
-206 -262 -310 0
-206 -262 -311 0
-206 -262 -312 0
-206 -262 -313 0
-206 -262 -314 0
-206 -262 -315 0
-206 -263 -291 0
-206 -263 -292 0
-206 -263 -293 0
-206 -263 -294 0
-206 -263 -295 0
-206 -263 -296 0
-206 -263 -297 0
-206 -263 -298 0
-206 -263 -299 0
-206 -263 -300 0
-206 -263 -301 0
-206 -263 -302 0
-206 -263 -303 0
-206 -263 -304 0
-206 -263 -305 0
-206 -263 -306 0
-206 -263 -307 0
-206 -263 -308 0
-206 -263 -309 0
-206 -263 -310 0
-206 -263 -311 0
-206 -263 -312 0
-206 -263 -313 0
-206 -263 -314 0
-206 -263 -315 0
-206 -264 -291 0
-206 -264 -292 0
-206 -264 -293 0
-206 -264 -294 0
-206 -264 -295 0
-206 -264 -296 0
-206 -264 -297 0
-206 -264 -298 0
-206 -264 -299 0
-206 -264 -300 0
-206 -264 -301 0
-206 -264 -302 0
-206 -264 -303 0
-206 -264 -304 0
-206 -264 -305 0
-206 -264 -306 0
-206 -264 -307 0
-206 -264 -308 0
-206 -264 -309 0
-206 -264 -310 0
-206 -264 -311 0
-206 -264 -312 0
-206 -264 -313 0
-206 -264 -314 0
-206 -264 -315 0
-206 -265 -291 0
-206 -265 -292 0
-206 -265 -293 0
-206 -265 -294 0
-206 -265 -295 0
-206 -265 -296 0
-206 -265 -297 0
-206 -265 -298 0
-206 -265 -299 0
-206 -265 -300 0
-206 -265 -301 0
-206 -265 -302 0
-206 -265 -303 0
-206 -265 -304 0
-206 -265 -305 0
-206 -265 -306 0
-206 -265 -307 0
-206 -265 -308 0
-206 -265 -309 0
-206 -265 -310 0
-206 -265 -311 0
-206 -265 -312 0
-206 -265 -313 0
-206 -265 -314 0
-206 -265 -315 0
-207 -241 -291 360 0
-207 -241 -292 361 0
-207 -241 -293 362 0
-207 -241 -294 363 0
-207 -241 -295 364 0
-207 -241 -296 365 0
-207 -241 -297 0
-207 -241 -298 0
-207 -241 -299 0
-207 -241 -300 0
-207 -241 -301 0
-207 -241 -302 0
-207 -241 -303 0
-207 -241 -304 0
-207 -241 -305 0
-207 -241 -306 0
-207 -241 -307 0
-207 -241 -308 0
-207 -241 -309 0
-207 -241 -310 0
-207 -241 -311 0
-207 -241 -312 0
-207 -241 -313 0
-207 -241 -314 0
-207 -241 -315 0
-207 -242 -291 361 0
-207 -242 -292 362 0
-207 -242 -293 363 0
-207 -242 -294 364 0
-207 -242 -295 365 0
-207 -242 -296 0
-207 -242 -297 0
-207 -242 -298 0
-207 -242 -299 0
-207 -242 -300 0
-207 -242 -301 0
-207 -242 -302 0
-207 -242 -303 0
-207 -242 -304 0
-207 -242 -305 0
-207 -242 -306 0
-207 -242 -307 0
-207 -242 -308 0
-207 -242 -309 0
-207 -242 -310 0
-207 -242 -311 0
-207 -242 -312 0
-207 -242 -313 0
-207 -242 -314 0
-207 -242 -315 0
-207 -243 -291 362 0
-207 -243 -292 363 0
-207 -243 -293 364 0
-207 -243 -294 365 0
-207 -243 -295 0
-207 -243 -296 0
-207 -243 -297 0
-207 -243 -298 0
-207 -243 -299 0
-207 -243 -300 0
-207 -243 -301 0
-207 -243 -302 0
-207 -243 -303 0
-207 -243 -304 0
-207 -243 -305 0
-207 -243 -306 0
-207 -243 -307 0
-207 -243 -308 0
-207 -243 -309 0
-207 -243 -310 0
-207 -243 -311 0
-207 -243 -312 0
-207 -243 -313 0
-207 -243 -314 0
-207 -243 -315 0
-207 -244 -291 363 0
-207 -244 -292 364 0
-207 -244 -293 365 0
-207 -244 -294 0
-207 -244 -295 0
-207 -244 -296 0
-207 -244 -297 0
-207 -244 -298 0
-207 -244 -299 0
-207 -244 -300 0
-207 -244 -301 0
-207 -244 -302 0
-207 -244 -303 0
-207 -244 -304 0
-207 -244 -305 0
-207 -244 -306 0
-207 -244 -307 0
-207 -244 -308 0
-207 -244 -309 0
-207 -244 -310 0
-207 -244 -311 0
-207 -244 -312 0
-207 -244 -313 0
-207 -244 -314 0
-207 -244 -315 0
-207 -245 -291 364 0
-207 -245 -292 365 0
-207 -245 -293 0
-207 -245 -294 0
-207 -245 -295 0
-207 -245 -296 0
-207 -245 -297 0
-207 -245 -298 0
-207 -245 -299 0
-207 -245 -300 0
-207 -245 -301 0
-207 -245 -302 0
-207 -245 -303 0
-207 -245 -304 0
-207 -245 -305 0
-207 -245 -306 0
-207 -245 -307 0
-207 -245 -308 0
-207 -245 -309 0
-207 -245 -310 0
-207 -245 -311 0
-207 -245 -312 0
-207 -245 -313 0
-207 -245 -314 0
-207 -245 -315 0
-207 -246 -291 365 0
-207 -246 -292 0
-207 -246 -293 0
-207 -246 -294 0
-207 -246 -295 0
-207 -246 -296 0
-207 -246 -297 0
-207 -246 -298 0
-207 -246 -299 0
-207 -246 -300 0
-207 -246 -301 0
-207 -246 -302 0
-207 -246 -303 0
-207 -246 -304 0
-207 -246 -305 0
-207 -246 -306 0
-207 -246 -307 0
-207 -246 -308 0
-207 -246 -309 0
-207 -246 -310 0
-207 -246 -311 0
-207 -246 -312 0
-207 -246 -313 0
-207 -246 -314 0
-207 -246 -315 0
-207 -247 -291 0
-207 -247 -292 0
-207 -247 -293 0
-207 -247 -294 0
-207 -247 -295 0
-207 -247 -296 0
-207 -247 -297 0
-207 -247 -298 0
-207 -247 -299 0
-207 -247 -300 0
-207 -247 -301 0
-207 -247 -302 0
-207 -247 -303 0
-207 -247 -304 0
-207 -247 -305 0
-207 -247 -306 0
-207 -247 -307 0
-207 -247 -308 0
-207 -247 -309 0
-207 -247 -310 0
-207 -247 -311 0
-207 -247 -312 0
-207 -247 -313 0
-207 -247 -314 0
-207 -247 -315 0
-207 -248 -291 0
-207 -248 -292 0
-207 -248 -293 0
-207 -248 -294 0
-207 -248 -295 0
-207 -248 -296 0
-207 -248 -297 0
-207 -248 -298 0
-207 -248 -299 0
-207 -248 -300 0
-207 -248 -301 0
-207 -248 -302 0
-207 -248 -303 0
-207 -248 -304 0
-207 -248 -305 0
-207 -248 -306 0
-207 -248 -307 0
-207 -248 -308 0
-207 -248 -309 0
-207 -248 -310 0
-207 -248 -311 0
-207 -248 -312 0
-207 -248 -313 0
-207 -248 -314 0
-207 -248 -315 0
-207 -249 -291 0
-207 -249 -292 0
-207 -249 -293 0
-207 -249 -294 0
-207 -249 -295 0
-207 -249 -296 0
-207 -249 -297 0
-207 -249 -298 0
-207 -249 -299 0
-207 -249 -300 0
-207 -249 -301 0
-207 -249 -302 0
-207 -249 -303 0
-207 -249 -304 0
-207 -249 -305 0
-207 -249 -306 0
-207 -249 -307 0
-207 -249 -308 0
-207 -249 -309 0
-207 -249 -310 0
-207 -249 -311 0
-207 -249 -312 0
-207 -249 -313 0
-207 -249 -314 0
-207 -249 -315 0
-207 -250 -291 0
-207 -250 -292 0
-207 -250 -293 0
-207 -250 -294 0
-207 -250 -295 0
-207 -250 -296 0
-207 -250 -297 0
-207 -250 -298 0
-207 -250 -299 0
-207 -250 -300 0
-207 -250 -301 0
-207 -250 -302 0
-207 -250 -303 0
-207 -250 -304 0
-207 -250 -305 0
-207 -250 -306 0
-207 -250 -307 0
-207 -250 -308 0
-207 -250 -309 0
-207 -250 -310 0
-207 -250 -311 0
-207 -250 -312 0
-207 -250 -313 0
-207 -250 -314 0
-207 -250 -315 0
-207 -251 -291 0
-207 -251 -292 0
-207 -251 -293 0
-207 -251 -294 0
-207 -251 -295 0
-207 -251 -296 0
-207 -251 -297 0
-207 -251 -298 0
-207 -251 -299 0
-207 -251 -300 0
-207 -251 -301 0
-207 -251 -302 0
-207 -251 -303 0
-207 -251 -304 0
-207 -251 -305 0
-207 -251 -306 0
-207 -251 -307 0
-207 -251 -308 0
-207 -251 -309 0
-207 -251 -310 0
-207 -251 -311 0
-207 -251 -312 0
-207 -251 -313 0
-207 -251 -314 0
-207 -251 -315 0
-207 -252 -291 0
-207 -252 -292 0
-207 -252 -293 0
-207 -252 -294 0
-207 -252 -295 0
-207 -252 -296 0
-207 -252 -297 0
-207 -252 -298 0
-207 -252 -299 0
-207 -252 -300 0
-207 -252 -301 0
-207 -252 -302 0
-207 -252 -303 0
-207 -252 -304 0
-207 -252 -305 0
-207 -252 -306 0
-207 -252 -307 0
-207 -252 -308 0
-207 -252 -309 0
-207 -252 -310 0
-207 -252 -311 0
-207 -252 -312 0
-207 -252 -313 0
-207 -252 -314 0
-207 -252 -315 0
-207 -253 -291 0
-207 -253 -292 0
-207 -253 -293 0
-207 -253 -294 0
-207 -253 -295 0
-207 -253 -296 0
-207 -253 -297 0
-207 -253 -298 0
-207 -253 -299 0
-207 -253 -300 0
-207 -253 -301 0
-207 -253 -302 0
-207 -253 -303 0
-207 -253 -304 0
-207 -253 -305 0
-207 -253 -306 0
-207 -253 -307 0
-207 -253 -308 0
-207 -253 -309 0
-207 -253 -310 0
-207 -253 -311 0
-207 -253 -312 0
-207 -253 -313 0
-207 -253 -314 0
-207 -253 -315 0
-207 -254 -291 0
-207 -254 -292 0
-207 -254 -293 0
-207 -254 -294 0
-207 -254 -295 0
-207 -254 -296 0
-207 -254 -297 0
-207 -254 -298 0
-207 -254 -299 0
-207 -254 -300 0
-207 -254 -301 0
-207 -254 -302 0
-207 -254 -303 0
-207 -254 -304 0
-207 -254 -305 0
-207 -254 -306 0
-207 -254 -307 0
-207 -254 -308 0
-207 -254 -309 0
-207 -254 -310 0
-207 -254 -311 0
-207 -254 -312 0
-207 -254 -313 0
-207 -254 -314 0
-207 -254 -315 0
-207 -255 -291 0
-207 -255 -292 0
-207 -255 -293 0
-207 -255 -294 0
-207 -255 -295 0
-207 -255 -296 0
-207 -255 -297 0
-207 -255 -298 0
-207 -255 -299 0
-207 -255 -300 0
-207 -255 -301 0
-207 -255 -302 0
-207 -255 -303 0
-207 -255 -304 0
-207 -255 -305 0
-207 -255 -306 0
-207 -255 -307 0
-207 -255 -308 0
-207 -255 -309 0
-207 -255 -310 0
-207 -255 -311 0
-207 -255 -312 0
-207 -255 -313 0
-207 -255 -314 0
-207 -255 -315 0
-207 -256 -291 0
-207 -256 -292 0
-207 -256 -293 0
-207 -256 -294 0
-207 -256 -295 0
-207 -256 -296 0
-207 -256 -297 0
-207 -256 -298 0
-207 -256 -299 0
-207 -256 -300 0
-207 -256 -301 0
-207 -256 -302 0
-207 -256 -303 0
-207 -256 -304 0
-207 -256 -305 0
-207 -256 -306 0
-207 -256 -307 0
-207 -256 -308 0
-207 -256 -309 0
-207 -256 -310 0
-207 -256 -311 0
-207 -256 -312 0
-207 -256 -313 0
-207 -256 -314 0
-207 -256 -315 0
-207 -257 -291 0
-207 -257 -292 0
-207 -257 -293 0
-207 -257 -294 0
-207 -257 -295 0
-207 -257 -296 0
-207 -257 -297 0
-207 -257 -298 0
-207 -257 -299 0
-207 -257 -300 0
-207 -257 -301 0
-207 -257 -302 0
-207 -257 -303 0
-207 -257 -304 0
-207 -257 -305 0
-207 -257 -306 0
-207 -257 -307 0
-207 -257 -308 0
-207 -257 -309 0
-207 -257 -310 0
-207 -257 -311 0
-207 -257 -312 0
-207 -257 -313 0
-207 -257 -314 0
-207 -257 -315 0
-207 -258 -291 0
-207 -258 -292 0
-207 -258 -293 0
-207 -258 -294 0
-207 -258 -295 0
-207 -258 -296 0
-207 -258 -297 0
-207 -258 -298 0
-207 -258 -299 0
-207 -258 -300 0
-207 -258 -301 0
-207 -258 -302 0
-207 -258 -303 0
-207 -258 -304 0
-207 -258 -305 0
-207 -258 -306 0
-207 -258 -307 0
-207 -258 -308 0
-207 -258 -309 0
-207 -258 -310 0
-207 -258 -311 0
-207 -258 -312 0
-207 -258 -313 0
-207 -258 -314 0
-207 -258 -315 0
-207 -259 -291 0
-207 -259 -292 0
-207 -259 -293 0
-207 -259 -294 0
-207 -259 -295 0
-207 -259 -296 0
-207 -259 -297 0
-207 -259 -298 0
-207 -259 -299 0
-207 -259 -300 0
-207 -259 -301 0
-207 -259 -302 0
-207 -259 -303 0
-207 -259 -304 0
-207 -259 -305 0
-207 -259 -306 0
-207 -259 -307 0
-207 -259 -308 0
-207 -259 -309 0
-207 -259 -310 0
-207 -259 -311 0
-207 -259 -312 0
-207 -259 -313 0
-207 -259 -314 0
-207 -259 -315 0
-207 -260 -291 0
-207 -260 -292 0
-207 -260 -293 0
-207 -260 -294 0
-207 -260 -295 0
-207 -260 -296 0
-207 -260 -297 0
-207 -260 -298 0
-207 -260 -299 0
-207 -260 -300 0
-207 -260 -301 0
-207 -260 -302 0
-207 -260 -303 0
-207 -260 -304 0
-207 -260 -305 0
-207 -260 -306 0
-207 -260 -307 0
-207 -260 -308 0
-207 -260 -309 0
-207 -260 -310 0
-207 -260 -311 0
-207 -260 -312 0
-207 -260 -313 0
-207 -260 -314 0
-207 -260 -315 0
-207 -261 -291 0
-207 -261 -292 0
-207 -261 -293 0
-207 -261 -294 0
-207 -261 -295 0
-207 -261 -296 0
-207 -261 -297 0
-207 -261 -298 0
-207 -261 -299 0
-207 -261 -300 0
-207 -261 -301 0
-207 -261 -302 0
-207 -261 -303 0
-207 -261 -304 0
-207 -261 -305 0
-207 -261 -306 0
-207 -261 -307 0
-207 -261 -308 0
-207 -261 -309 0
-207 -261 -310 0
-207 -261 -311 0
-207 -261 -312 0
-207 -261 -313 0
-207 -261 -314 0
-207 -261 -315 0
-207 -262 -291 0
-207 -262 -292 0
-207 -262 -293 0
-207 -262 -294 0
-207 -262 -295 0
-207 -262 -296 0
-207 -262 -297 0
-207 -262 -298 0
-207 -262 -299 0
-207 -262 -300 0
-207 -262 -301 0
-207 -262 -302 0
-207 -262 -303 0
-207 -262 -304 0
-207 -262 -305 0
-207 -262 -306 0
-207 -262 -307 0
-207 -262 -308 0
-207 -262 -309 0
-207 -262 -310 0
-207 -262 -311 0
-207 -262 -312 0
-207 -262 -313 0
-207 -262 -314 0
-207 -262 -315 0
-207 -263 -291 0
-207 -263 -292 0
-207 -263 -293 0
-207 -263 -294 0
-207 -263 -295 0
-207 -263 -296 0
-207 -263 -297 0
-207 -263 -298 0
-207 -263 -299 0
-207 -263 -300 0
-207 -263 -301 0
-207 -263 -302 0
-207 -263 -303 0
-207 -263 -304 0
-207 -263 -305 0
-207 -263 -306 0
-207 -263 -307 0
-207 -263 -308 0
-207 -263 -309 0
-207 -263 -310 0
-207 -263 -311 0
-207 -263 -312 0
-207 -263 -313 0
-207 -263 -314 0
-207 -263 -315 0
-207 -264 -291 0
-207 -264 -292 0
-207 -264 -293 0
-207 -264 -294 0
-207 -264 -295 0
-207 -264 -296 0
-207 -264 -297 0
-207 -264 -298 0
-207 -264 -299 0
-207 -264 -300 0
-207 -264 -301 0
-207 -264 -302 0
-207 -264 -303 0
-207 -264 -304 0
-207 -264 -305 0
-207 -264 -306 0
-207 -264 -307 0
-207 -264 -308 0
-207 -264 -309 0
-207 -264 -310 0
-207 -264 -311 0
-207 -264 -312 0
-207 -264 -313 0
-207 -264 -314 0
-207 -264 -315 0
-207 -265 -291 0
-207 -265 -292 0
-207 -265 -293 0
-207 -265 -294 0
-207 -265 -295 0
-207 -265 -296 0
-207 -265 -297 0
-207 -265 -298 0
-207 -265 -299 0
-207 -265 -300 0
-207 -265 -301 0
-207 -265 -302 0
-207 -265 -303 0
-207 -265 -304 0
-207 -265 -305 0
-207 -265 -306 0
-207 -265 -307 0
-207 -265 -308 0
-207 -265 -309 0
-207 -265 -310 0
-207 -265 -311 0
-207 -265 -312 0
-207 -265 -313 0
-207 -265 -314 0
-207 -265 -315 0
-208 -241 -291 361 0
-208 -241 -292 362 0
-208 -241 -293 363 0
-208 -241 -294 364 0
-208 -241 -295 365 0
-208 -241 -296 0
-208 -241 -297 0
-208 -241 -298 0
-208 -241 -299 0
-208 -241 -300 0
-208 -241 -301 0
-208 -241 -302 0
-208 -241 -303 0
-208 -241 -304 0
-208 -241 -305 0
-208 -241 -306 0
-208 -241 -307 0
-208 -241 -308 0
-208 -241 -309 0
-208 -241 -310 0
-208 -241 -311 0
-208 -241 -312 0
-208 -241 -313 0
-208 -241 -314 0
-208 -241 -315 0
-208 -242 -291 362 0
-208 -242 -292 363 0
-208 -242 -293 364 0
-208 -242 -294 365 0
-208 -242 -295 0
-208 -242 -296 0
-208 -242 -297 0
-208 -242 -298 0
-208 -242 -299 0
-208 -242 -300 0
-208 -242 -301 0
-208 -242 -302 0
-208 -242 -303 0
-208 -242 -304 0
-208 -242 -305 0
-208 -242 -306 0
-208 -242 -307 0
-208 -242 -308 0
-208 -242 -309 0
-208 -242 -310 0
-208 -242 -311 0
-208 -242 -312 0
-208 -242 -313 0
-208 -242 -314 0
-208 -242 -315 0
-208 -243 -291 363 0
-208 -243 -292 364 0
-208 -243 -293 365 0
-208 -243 -294 0
-208 -243 -295 0
-208 -243 -296 0
-208 -243 -297 0
-208 -243 -298 0
-208 -243 -299 0
-208 -243 -300 0
-208 -243 -301 0
-208 -243 -302 0
-208 -243 -303 0
-208 -243 -304 0
-208 -243 -305 0
-208 -243 -306 0
-208 -243 -307 0
-208 -243 -308 0
-208 -243 -309 0
-208 -243 -310 0
-208 -243 -311 0
-208 -243 -312 0
-208 -243 -313 0
-208 -243 -314 0
-208 -243 -315 0
-208 -244 -291 364 0
-208 -244 -292 365 0
-208 -244 -293 0
-208 -244 -294 0
-208 -244 -295 0
-208 -244 -296 0
-208 -244 -297 0
-208 -244 -298 0
-208 -244 -299 0
-208 -244 -300 0
-208 -244 -301 0
-208 -244 -302 0
-208 -244 -303 0
-208 -244 -304 0
-208 -244 -305 0
-208 -244 -306 0
-208 -244 -307 0
-208 -244 -308 0
-208 -244 -309 0
-208 -244 -310 0
-208 -244 -311 0
-208 -244 -312 0
-208 -244 -313 0
-208 -244 -314 0
-208 -244 -315 0
-208 -245 -291 365 0
-208 -245 -292 0
-208 -245 -293 0
-208 -245 -294 0
-208 -245 -295 0
-208 -245 -296 0
-208 -245 -297 0
-208 -245 -298 0
-208 -245 -299 0
-208 -245 -300 0
-208 -245 -301 0
-208 -245 -302 0
-208 -245 -303 0
-208 -245 -304 0
-208 -245 -305 0
-208 -245 -306 0
-208 -245 -307 0
-208 -245 -308 0
-208 -245 -309 0
-208 -245 -310 0
-208 -245 -311 0
-208 -245 -312 0
-208 -245 -313 0
-208 -245 -314 0
-208 -245 -315 0
-208 -246 -291 0
-208 -246 -292 0
-208 -246 -293 0
-208 -246 -294 0
-208 -246 -295 0
-208 -246 -296 0
-208 -246 -297 0
-208 -246 -298 0
-208 -246 -299 0
-208 -246 -300 0
-208 -246 -301 0
-208 -246 -302 0
-208 -246 -303 0
-208 -246 -304 0
-208 -246 -305 0
-208 -246 -306 0
-208 -246 -307 0
-208 -246 -308 0
-208 -246 -309 0
-208 -246 -310 0
-208 -246 -311 0
-208 -246 -312 0
-208 -246 -313 0
-208 -246 -314 0
-208 -246 -315 0
-208 -247 -291 0
-208 -247 -292 0
-208 -247 -293 0
-208 -247 -294 0
-208 -247 -295 0
-208 -247 -296 0
-208 -247 -297 0
-208 -247 -298 0
-208 -247 -299 0
-208 -247 -300 0
-208 -247 -301 0
-208 -247 -302 0
-208 -247 -303 0
-208 -247 -304 0
-208 -247 -305 0
-208 -247 -306 0
-208 -247 -307 0
-208 -247 -308 0
-208 -247 -309 0
-208 -247 -310 0
-208 -247 -311 0
-208 -247 -312 0
-208 -247 -313 0
-208 -247 -314 0
-208 -247 -315 0
-208 -248 -291 0
-208 -248 -292 0
-208 -248 -293 0
-208 -248 -294 0
-208 -248 -295 0
-208 -248 -296 0
-208 -248 -297 0
-208 -248 -298 0
-208 -248 -299 0
-208 -248 -300 0
-208 -248 -301 0
-208 -248 -302 0
-208 -248 -303 0
-208 -248 -304 0
-208 -248 -305 0
-208 -248 -306 0
-208 -248 -307 0
-208 -248 -308 0
-208 -248 -309 0
-208 -248 -310 0
-208 -248 -311 0
-208 -248 -312 0
-208 -248 -313 0
-208 -248 -314 0
-208 -248 -315 0
-208 -249 -291 0
-208 -249 -292 0
-208 -249 -293 0
-208 -249 -294 0
-208 -249 -295 0
-208 -249 -296 0
-208 -249 -297 0
-208 -249 -298 0
-208 -249 -299 0
-208 -249 -300 0
-208 -249 -301 0
-208 -249 -302 0
-208 -249 -303 0
-208 -249 -304 0
-208 -249 -305 0
-208 -249 -306 0
-208 -249 -307 0
-208 -249 -308 0
-208 -249 -309 0
-208 -249 -310 0
-208 -249 -311 0
-208 -249 -312 0
-208 -249 -313 0
-208 -249 -314 0
-208 -249 -315 0
-208 -250 -291 0
-208 -250 -292 0
-208 -250 -293 0
-208 -250 -294 0
-208 -250 -295 0
-208 -250 -296 0
-208 -250 -297 0
-208 -250 -298 0
-208 -250 -299 0
-208 -250 -300 0
-208 -250 -301 0
-208 -250 -302 0
-208 -250 -303 0
-208 -250 -304 0
-208 -250 -305 0
-208 -250 -306 0
-208 -250 -307 0
-208 -250 -308 0
-208 -250 -309 0
-208 -250 -310 0
-208 -250 -311 0
-208 -250 -312 0
-208 -250 -313 0
-208 -250 -314 0
-208 -250 -315 0
-208 -251 -291 0
-208 -251 -292 0
-208 -251 -293 0
-208 -251 -294 0
-208 -251 -295 0
-208 -251 -296 0
-208 -251 -297 0
-208 -251 -298 0
-208 -251 -299 0
-208 -251 -300 0
-208 -251 -301 0
-208 -251 -302 0
-208 -251 -303 0
-208 -251 -304 0
-208 -251 -305 0
-208 -251 -306 0
-208 -251 -307 0
-208 -251 -308 0
-208 -251 -309 0
-208 -251 -310 0
-208 -251 -311 0
-208 -251 -312 0
-208 -251 -313 0
-208 -251 -314 0
-208 -251 -315 0
-208 -252 -291 0
-208 -252 -292 0
-208 -252 -293 0
-208 -252 -294 0
-208 -252 -295 0
-208 -252 -296 0
-208 -252 -297 0
-208 -252 -298 0
-208 -252 -299 0
-208 -252 -300 0
-208 -252 -301 0
-208 -252 -302 0
-208 -252 -303 0
-208 -252 -304 0
-208 -252 -305 0
-208 -252 -306 0
-208 -252 -307 0
-208 -252 -308 0
-208 -252 -309 0
-208 -252 -310 0
-208 -252 -311 0
-208 -252 -312 0
-208 -252 -313 0
-208 -252 -314 0
-208 -252 -315 0
-208 -253 -291 0
-208 -253 -292 0
-208 -253 -293 0
-208 -253 -294 0
-208 -253 -295 0
-208 -253 -296 0
-208 -253 -297 0
-208 -253 -298 0
-208 -253 -299 0
-208 -253 -300 0
-208 -253 -301 0
-208 -253 -302 0
-208 -253 -303 0
-208 -253 -304 0
-208 -253 -305 0
-208 -253 -306 0
-208 -253 -307 0
-208 -253 -308 0
-208 -253 -309 0
-208 -253 -310 0
-208 -253 -311 0
-208 -253 -312 0
-208 -253 -313 0
-208 -253 -314 0
-208 -253 -315 0
-208 -254 -291 0
-208 -254 -292 0
-208 -254 -293 0
-208 -254 -294 0
-208 -254 -295 0
-208 -254 -296 0
-208 -254 -297 0
-208 -254 -298 0
-208 -254 -299 0
-208 -254 -300 0
-208 -254 -301 0
-208 -254 -302 0
-208 -254 -303 0
-208 -254 -304 0
-208 -254 -305 0
-208 -254 -306 0
-208 -254 -307 0
-208 -254 -308 0
-208 -254 -309 0
-208 -254 -310 0
-208 -254 -311 0
-208 -254 -312 0
-208 -254 -313 0
-208 -254 -314 0
-208 -254 -315 0
-208 -255 -291 0
-208 -255 -292 0
-208 -255 -293 0
-208 -255 -294 0
-208 -255 -295 0
-208 -255 -296 0
-208 -255 -297 0
-208 -255 -298 0
-208 -255 -299 0
-208 -255 -300 0
-208 -255 -301 0
-208 -255 -302 0
-208 -255 -303 0
-208 -255 -304 0
-208 -255 -305 0
-208 -255 -306 0
-208 -255 -307 0
-208 -255 -308 0
-208 -255 -309 0
-208 -255 -310 0
-208 -255 -311 0
-208 -255 -312 0
-208 -255 -313 0
-208 -255 -314 0
-208 -255 -315 0
-208 -256 -291 0
-208 -256 -292 0
-208 -256 -293 0
-208 -256 -294 0
-208 -256 -295 0
-208 -256 -296 0
-208 -256 -297 0
-208 -256 -298 0
-208 -256 -299 0
-208 -256 -300 0
-208 -256 -301 0
-208 -256 -302 0
-208 -256 -303 0
-208 -256 -304 0
-208 -256 -305 0
-208 -256 -306 0
-208 -256 -307 0
-208 -256 -308 0
-208 -256 -309 0
-208 -256 -310 0
-208 -256 -311 0
-208 -256 -312 0
-208 -256 -313 0
-208 -256 -314 0
-208 -256 -315 0
-208 -257 -291 0
-208 -257 -292 0
-208 -257 -293 0
-208 -257 -294 0
-208 -257 -295 0
-208 -257 -296 0
-208 -257 -297 0
-208 -257 -298 0
-208 -257 -299 0
-208 -257 -300 0
-208 -257 -301 0
-208 -257 -302 0
-208 -257 -303 0
-208 -257 -304 0
-208 -257 -305 0
-208 -257 -306 0
-208 -257 -307 0
-208 -257 -308 0
-208 -257 -309 0
-208 -257 -310 0
-208 -257 -311 0
-208 -257 -312 0
-208 -257 -313 0
-208 -257 -314 0
-208 -257 -315 0
-208 -258 -291 0
-208 -258 -292 0
-208 -258 -293 0
-208 -258 -294 0
-208 -258 -295 0
-208 -258 -296 0
-208 -258 -297 0
-208 -258 -298 0
-208 -258 -299 0
-208 -258 -300 0
-208 -258 -301 0
-208 -258 -302 0
-208 -258 -303 0
-208 -258 -304 0
-208 -258 -305 0
-208 -258 -306 0
-208 -258 -307 0
-208 -258 -308 0
-208 -258 -309 0
-208 -258 -310 0
-208 -258 -311 0
-208 -258 -312 0
-208 -258 -313 0
-208 -258 -314 0
-208 -258 -315 0
-208 -259 -291 0
-208 -259 -292 0
-208 -259 -293 0
-208 -259 -294 0
-208 -259 -295 0
-208 -259 -296 0
-208 -259 -297 0
-208 -259 -298 0
-208 -259 -299 0
-208 -259 -300 0
-208 -259 -301 0
-208 -259 -302 0
-208 -259 -303 0
-208 -259 -304 0
-208 -259 -305 0
-208 -259 -306 0
-208 -259 -307 0
-208 -259 -308 0
-208 -259 -309 0
-208 -259 -310 0
-208 -259 -311 0
-208 -259 -312 0
-208 -259 -313 0
-208 -259 -314 0
-208 -259 -315 0
-208 -260 -291 0
-208 -260 -292 0
-208 -260 -293 0
-208 -260 -294 0
-208 -260 -295 0
-208 -260 -296 0
-208 -260 -297 0
-208 -260 -298 0
-208 -260 -299 0
-208 -260 -300 0
-208 -260 -301 0
-208 -260 -302 0
-208 -260 -303 0
-208 -260 -304 0
-208 -260 -305 0
-208 -260 -306 0
-208 -260 -307 0
-208 -260 -308 0
-208 -260 -309 0
-208 -260 -310 0
-208 -260 -311 0
-208 -260 -312 0
-208 -260 -313 0
-208 -260 -314 0
-208 -260 -315 0
-208 -261 -291 0
-208 -261 -292 0
-208 -261 -293 0
-208 -261 -294 0
-208 -261 -295 0
-208 -261 -296 0
-208 -261 -297 0
-208 -261 -298 0
-208 -261 -299 0
-208 -261 -300 0
-208 -261 -301 0
-208 -261 -302 0
-208 -261 -303 0
-208 -261 -304 0
-208 -261 -305 0
-208 -261 -306 0
-208 -261 -307 0
-208 -261 -308 0
-208 -261 -309 0
-208 -261 -310 0
-208 -261 -311 0
-208 -261 -312 0
-208 -261 -313 0
-208 -261 -314 0
-208 -261 -315 0
-208 -262 -291 0
-208 -262 -292 0
-208 -262 -293 0
-208 -262 -294 0
-208 -262 -295 0
-208 -262 -296 0
-208 -262 -297 0
-208 -262 -298 0
-208 -262 -299 0
-208 -262 -300 0
-208 -262 -301 0
-208 -262 -302 0
-208 -262 -303 0
-208 -262 -304 0
-208 -262 -305 0
-208 -262 -306 0
-208 -262 -307 0
-208 -262 -308 0
-208 -262 -309 0
-208 -262 -310 0
-208 -262 -311 0
-208 -262 -312 0
-208 -262 -313 0
-208 -262 -314 0
-208 -262 -315 0
-208 -263 -291 0
-208 -263 -292 0
-208 -263 -293 0
-208 -263 -294 0
-208 -263 -295 0
-208 -263 -296 0
-208 -263 -297 0
-208 -263 -298 0
-208 -263 -299 0
-208 -263 -300 0
-208 -263 -301 0
-208 -263 -302 0
-208 -263 -303 0
-208 -263 -304 0
-208 -263 -305 0
-208 -263 -306 0
-208 -263 -307 0
-208 -263 -308 0
-208 -263 -309 0
-208 -263 -310 0
-208 -263 -311 0
-208 -263 -312 0
-208 -263 -313 0
-208 -263 -314 0
-208 -263 -315 0
-208 -264 -291 0
-208 -264 -292 0
-208 -264 -293 0
-208 -264 -294 0
-208 -264 -295 0
-208 -264 -296 0
-208 -264 -297 0
-208 -264 -298 0
-208 -264 -299 0
-208 -264 -300 0
-208 -264 -301 0
-208 -264 -302 0
-208 -264 -303 0
-208 -264 -304 0
-208 -264 -305 0
-208 -264 -306 0
-208 -264 -307 0
-208 -264 -308 0
-208 -264 -309 0
-208 -264 -310 0
-208 -264 -311 0
-208 -264 -312 0
-208 -264 -313 0
-208 -264 -314 0
-208 -264 -315 0
-208 -265 -291 0
-208 -265 -292 0
-208 -265 -293 0
-208 -265 -294 0
-208 -265 -295 0
-208 -265 -296 0
-208 -265 -297 0
-208 -265 -298 0
-208 -265 -299 0
-208 -265 -300 0
-208 -265 -301 0
-208 -265 -302 0
-208 -265 -303 0
-208 -265 -304 0
-208 -265 -305 0
-208 -265 -306 0
-208 -265 -307 0
-208 -265 -308 0
-208 -265 -309 0
-208 -265 -310 0
-208 -265 -311 0
-208 -265 -312 0
-208 -265 -313 0
-208 -265 -314 0
-208 -265 -315 0
-209 -241 -291 362 0
-209 -241 -292 363 0
-209 -241 -293 364 0
-209 -241 -294 365 0
-209 -241 -295 0
-209 -241 -296 0
-209 -241 -297 0
-209 -241 -298 0
-209 -241 -299 0
-209 -241 -300 0
-209 -241 -301 0
-209 -241 -302 0
-209 -241 -303 0
-209 -241 -304 0
-209 -241 -305 0
-209 -241 -306 0
-209 -241 -307 0
-209 -241 -308 0
-209 -241 -309 0
-209 -241 -310 0
-209 -241 -311 0
-209 -241 -312 0
-209 -241 -313 0
-209 -241 -314 0
-209 -241 -315 0
-209 -242 -291 363 0
-209 -242 -292 364 0
-209 -242 -293 365 0
-209 -242 -294 0
-209 -242 -295 0
-209 -242 -296 0
-209 -242 -297 0
-209 -242 -298 0
-209 -242 -299 0
-209 -242 -300 0
-209 -242 -301 0
-209 -242 -302 0
-209 -242 -303 0
-209 -242 -304 0
-209 -242 -305 0
-209 -242 -306 0
-209 -242 -307 0
-209 -242 -308 0
-209 -242 -309 0
-209 -242 -310 0
-209 -242 -311 0
-209 -242 -312 0
-209 -242 -313 0
-209 -242 -314 0
-209 -242 -315 0
-209 -243 -291 364 0
-209 -243 -292 365 0
-209 -243 -293 0
-209 -243 -294 0
-209 -243 -295 0
-209 -243 -296 0
-209 -243 -297 0
-209 -243 -298 0
-209 -243 -299 0
-209 -243 -300 0
-209 -243 -301 0
-209 -243 -302 0
-209 -243 -303 0
-209 -243 -304 0
-209 -243 -305 0
-209 -243 -306 0
-209 -243 -307 0
-209 -243 -308 0
-209 -243 -309 0
-209 -243 -310 0
-209 -243 -311 0
-209 -243 -312 0
-209 -243 -313 0
-209 -243 -314 0
-209 -243 -315 0
-209 -244 -291 365 0
-209 -244 -292 0
-209 -244 -293 0
-209 -244 -294 0
-209 -244 -295 0
-209 -244 -296 0
-209 -244 -297 0
-209 -244 -298 0
-209 -244 -299 0
-209 -244 -300 0
-209 -244 -301 0
-209 -244 -302 0
-209 -244 -303 0
-209 -244 -304 0
-209 -244 -305 0
-209 -244 -306 0
-209 -244 -307 0
-209 -244 -308 0
-209 -244 -309 0
-209 -244 -310 0
-209 -244 -311 0
-209 -244 -312 0
-209 -244 -313 0
-209 -244 -314 0
-209 -244 -315 0
-209 -245 -291 0
-209 -245 -292 0
-209 -245 -293 0
-209 -245 -294 0
-209 -245 -295 0
-209 -245 -296 0
-209 -245 -297 0
-209 -245 -298 0
-209 -245 -299 0
-209 -245 -300 0
-209 -245 -301 0
-209 -245 -302 0
-209 -245 -303 0
-209 -245 -304 0
-209 -245 -305 0
-209 -245 -306 0
-209 -245 -307 0
-209 -245 -308 0
-209 -245 -309 0
-209 -245 -310 0
-209 -245 -311 0
-209 -245 -312 0
-209 -245 -313 0
-209 -245 -314 0
-209 -245 -315 0
-209 -246 -291 0
-209 -246 -292 0
-209 -246 -293 0
-209 -246 -294 0
-209 -246 -295 0
-209 -246 -296 0
-209 -246 -297 0
-209 -246 -298 0
-209 -246 -299 0
-209 -246 -300 0
-209 -246 -301 0
-209 -246 -302 0
-209 -246 -303 0
-209 -246 -304 0
-209 -246 -305 0
-209 -246 -306 0
-209 -246 -307 0
-209 -246 -308 0
-209 -246 -309 0
-209 -246 -310 0
-209 -246 -311 0
-209 -246 -312 0
-209 -246 -313 0
-209 -246 -314 0
-209 -246 -315 0
-209 -247 -291 0
-209 -247 -292 0
-209 -247 -293 0
-209 -247 -294 0
-209 -247 -295 0
-209 -247 -296 0
-209 -247 -297 0
-209 -247 -298 0
-209 -247 -299 0
-209 -247 -300 0
-209 -247 -301 0
-209 -247 -302 0
-209 -247 -303 0
-209 -247 -304 0
-209 -247 -305 0
-209 -247 -306 0
-209 -247 -307 0
-209 -247 -308 0
-209 -247 -309 0
-209 -247 -310 0
-209 -247 -311 0
-209 -247 -312 0
-209 -247 -313 0
-209 -247 -314 0
-209 -247 -315 0
-209 -248 -291 0
-209 -248 -292 0
-209 -248 -293 0
-209 -248 -294 0
-209 -248 -295 0
-209 -248 -296 0
-209 -248 -297 0
-209 -248 -298 0
-209 -248 -299 0
-209 -248 -300 0
-209 -248 -301 0
-209 -248 -302 0
-209 -248 -303 0
-209 -248 -304 0
-209 -248 -305 0
-209 -248 -306 0
-209 -248 -307 0
-209 -248 -308 0
-209 -248 -309 0
-209 -248 -310 0
-209 -248 -311 0
-209 -248 -312 0
-209 -248 -313 0
-209 -248 -314 0
-209 -248 -315 0
-209 -249 -291 0
-209 -249 -292 0
-209 -249 -293 0
-209 -249 -294 0
-209 -249 -295 0
-209 -249 -296 0
-209 -249 -297 0
-209 -249 -298 0
-209 -249 -299 0
-209 -249 -300 0
-209 -249 -301 0
-209 -249 -302 0
-209 -249 -303 0
-209 -249 -304 0
-209 -249 -305 0
-209 -249 -306 0
-209 -249 -307 0
-209 -249 -308 0
-209 -249 -309 0
-209 -249 -310 0
-209 -249 -311 0
-209 -249 -312 0
-209 -249 -313 0
-209 -249 -314 0
-209 -249 -315 0
-209 -250 -291 0
-209 -250 -292 0
-209 -250 -293 0
-209 -250 -294 0
-209 -250 -295 0
-209 -250 -296 0
-209 -250 -297 0
-209 -250 -298 0
-209 -250 -299 0
-209 -250 -300 0
-209 -250 -301 0
-209 -250 -302 0
-209 -250 -303 0
-209 -250 -304 0
-209 -250 -305 0
-209 -250 -306 0
-209 -250 -307 0
-209 -250 -308 0
-209 -250 -309 0
-209 -250 -310 0
-209 -250 -311 0
-209 -250 -312 0
-209 -250 -313 0
-209 -250 -314 0
-209 -250 -315 0
-209 -251 -291 0
-209 -251 -292 0
-209 -251 -293 0
-209 -251 -294 0
-209 -251 -295 0
-209 -251 -296 0
-209 -251 -297 0
-209 -251 -298 0
-209 -251 -299 0
-209 -251 -300 0
-209 -251 -301 0
-209 -251 -302 0
-209 -251 -303 0
-209 -251 -304 0
-209 -251 -305 0
-209 -251 -306 0
-209 -251 -307 0
-209 -251 -308 0
-209 -251 -309 0
-209 -251 -310 0
-209 -251 -311 0
-209 -251 -312 0
-209 -251 -313 0
-209 -251 -314 0
-209 -251 -315 0
-209 -252 -291 0
-209 -252 -292 0
-209 -252 -293 0
-209 -252 -294 0
-209 -252 -295 0
-209 -252 -296 0
-209 -252 -297 0
-209 -252 -298 0
-209 -252 -299 0
-209 -252 -300 0
-209 -252 -301 0
-209 -252 -302 0
-209 -252 -303 0
-209 -252 -304 0
-209 -252 -305 0
-209 -252 -306 0
-209 -252 -307 0
-209 -252 -308 0
-209 -252 -309 0
-209 -252 -310 0
-209 -252 -311 0
-209 -252 -312 0
-209 -252 -313 0
-209 -252 -314 0
-209 -252 -315 0
-209 -253 -291 0
-209 -253 -292 0
-209 -253 -293 0
-209 -253 -294 0
-209 -253 -295 0
-209 -253 -296 0
-209 -253 -297 0
-209 -253 -298 0
-209 -253 -299 0
-209 -253 -300 0
-209 -253 -301 0
-209 -253 -302 0
-209 -253 -303 0
-209 -253 -304 0
-209 -253 -305 0
-209 -253 -306 0
-209 -253 -307 0
-209 -253 -308 0
-209 -253 -309 0
-209 -253 -310 0
-209 -253 -311 0
-209 -253 -312 0
-209 -253 -313 0
-209 -253 -314 0
-209 -253 -315 0
-209 -254 -291 0
-209 -254 -292 0
-209 -254 -293 0
-209 -254 -294 0
-209 -254 -295 0
-209 -254 -296 0
-209 -254 -297 0
-209 -254 -298 0
-209 -254 -299 0
-209 -254 -300 0
-209 -254 -301 0
-209 -254 -302 0
-209 -254 -303 0
-209 -254 -304 0
-209 -254 -305 0
-209 -254 -306 0
-209 -254 -307 0
-209 -254 -308 0
-209 -254 -309 0
-209 -254 -310 0
-209 -254 -311 0
-209 -254 -312 0
-209 -254 -313 0
-209 -254 -314 0
-209 -254 -315 0
-209 -255 -291 0
-209 -255 -292 0
-209 -255 -293 0
-209 -255 -294 0
-209 -255 -295 0
-209 -255 -296 0
-209 -255 -297 0
-209 -255 -298 0
-209 -255 -299 0
-209 -255 -300 0
-209 -255 -301 0
-209 -255 -302 0
-209 -255 -303 0
-209 -255 -304 0
-209 -255 -305 0
-209 -255 -306 0
-209 -255 -307 0
-209 -255 -308 0
-209 -255 -309 0
-209 -255 -310 0
-209 -255 -311 0
-209 -255 -312 0
-209 -255 -313 0
-209 -255 -314 0
-209 -255 -315 0
-209 -256 -291 0
-209 -256 -292 0
-209 -256 -293 0
-209 -256 -294 0
-209 -256 -295 0
-209 -256 -296 0
-209 -256 -297 0
-209 -256 -298 0
-209 -256 -299 0
-209 -256 -300 0
-209 -256 -301 0
-209 -256 -302 0
-209 -256 -303 0
-209 -256 -304 0
-209 -256 -305 0
-209 -256 -306 0
-209 -256 -307 0
-209 -256 -308 0
-209 -256 -309 0
-209 -256 -310 0
-209 -256 -311 0
-209 -256 -312 0
-209 -256 -313 0
-209 -256 -314 0
-209 -256 -315 0
-209 -257 -291 0
-209 -257 -292 0
-209 -257 -293 0
-209 -257 -294 0
-209 -257 -295 0
-209 -257 -296 0
-209 -257 -297 0
-209 -257 -298 0
-209 -257 -299 0
-209 -257 -300 0
-209 -257 -301 0
-209 -257 -302 0
-209 -257 -303 0
-209 -257 -304 0
-209 -257 -305 0
-209 -257 -306 0
-209 -257 -307 0
-209 -257 -308 0
-209 -257 -309 0
-209 -257 -310 0
-209 -257 -311 0
-209 -257 -312 0
-209 -257 -313 0
-209 -257 -314 0
-209 -257 -315 0
-209 -258 -291 0
-209 -258 -292 0
-209 -258 -293 0
-209 -258 -294 0
-209 -258 -295 0
-209 -258 -296 0
-209 -258 -297 0
-209 -258 -298 0
-209 -258 -299 0
-209 -258 -300 0
-209 -258 -301 0
-209 -258 -302 0
-209 -258 -303 0
-209 -258 -304 0
-209 -258 -305 0
-209 -258 -306 0
-209 -258 -307 0
-209 -258 -308 0
-209 -258 -309 0
-209 -258 -310 0
-209 -258 -311 0
-209 -258 -312 0
-209 -258 -313 0
-209 -258 -314 0
-209 -258 -315 0
-209 -259 -291 0
-209 -259 -292 0
-209 -259 -293 0
-209 -259 -294 0
-209 -259 -295 0
-209 -259 -296 0
-209 -259 -297 0
-209 -259 -298 0
-209 -259 -299 0
-209 -259 -300 0
-209 -259 -301 0
-209 -259 -302 0
-209 -259 -303 0
-209 -259 -304 0
-209 -259 -305 0
-209 -259 -306 0
-209 -259 -307 0
-209 -259 -308 0
-209 -259 -309 0
-209 -259 -310 0
-209 -259 -311 0
-209 -259 -312 0
-209 -259 -313 0
-209 -259 -314 0
-209 -259 -315 0
-209 -260 -291 0
-209 -260 -292 0
-209 -260 -293 0
-209 -260 -294 0
-209 -260 -295 0
-209 -260 -296 0
-209 -260 -297 0
-209 -260 -298 0
-209 -260 -299 0
-209 -260 -300 0
-209 -260 -301 0
-209 -260 -302 0
-209 -260 -303 0
-209 -260 -304 0
-209 -260 -305 0
-209 -260 -306 0
-209 -260 -307 0
-209 -260 -308 0
-209 -260 -309 0
-209 -260 -310 0
-209 -260 -311 0
-209 -260 -312 0
-209 -260 -313 0
-209 -260 -314 0
-209 -260 -315 0
-209 -261 -291 0
-209 -261 -292 0
-209 -261 -293 0
-209 -261 -294 0
-209 -261 -295 0
-209 -261 -296 0
-209 -261 -297 0
-209 -261 -298 0
-209 -261 -299 0
-209 -261 -300 0
-209 -261 -301 0
-209 -261 -302 0
-209 -261 -303 0
-209 -261 -304 0
-209 -261 -305 0
-209 -261 -306 0
-209 -261 -307 0
-209 -261 -308 0
-209 -261 -309 0
-209 -261 -310 0
-209 -261 -311 0
-209 -261 -312 0
-209 -261 -313 0
-209 -261 -314 0
-209 -261 -315 0
-209 -262 -291 0
-209 -262 -292 0
-209 -262 -293 0
-209 -262 -294 0
-209 -262 -295 0
-209 -262 -296 0
-209 -262 -297 0
-209 -262 -298 0
-209 -262 -299 0
-209 -262 -300 0
-209 -262 -301 0
-209 -262 -302 0
-209 -262 -303 0
-209 -262 -304 0
-209 -262 -305 0
-209 -262 -306 0
-209 -262 -307 0
-209 -262 -308 0
-209 -262 -309 0
-209 -262 -310 0
-209 -262 -311 0
-209 -262 -312 0
-209 -262 -313 0
-209 -262 -314 0
-209 -262 -315 0
-209 -263 -291 0
-209 -263 -292 0
-209 -263 -293 0
-209 -263 -294 0
-209 -263 -295 0
-209 -263 -296 0
-209 -263 -297 0
-209 -263 -298 0
-209 -263 -299 0
-209 -263 -300 0
-209 -263 -301 0
-209 -263 -302 0
-209 -263 -303 0
-209 -263 -304 0
-209 -263 -305 0
-209 -263 -306 0
-209 -263 -307 0
-209 -263 -308 0
-209 -263 -309 0
-209 -263 -310 0
-209 -263 -311 0
-209 -263 -312 0
-209 -263 -313 0
-209 -263 -314 0
-209 -263 -315 0
-209 -264 -291 0
-209 -264 -292 0
-209 -264 -293 0
-209 -264 -294 0
-209 -264 -295 0
-209 -264 -296 0
-209 -264 -297 0
-209 -264 -298 0
-209 -264 -299 0
-209 -264 -300 0
-209 -264 -301 0
-209 -264 -302 0
-209 -264 -303 0
-209 -264 -304 0
-209 -264 -305 0
-209 -264 -306 0
-209 -264 -307 0
-209 -264 -308 0
-209 -264 -309 0
-209 -264 -310 0
-209 -264 -311 0
-209 -264 -312 0
-209 -264 -313 0
-209 -264 -314 0
-209 -264 -315 0
-209 -265 -291 0
-209 -265 -292 0
-209 -265 -293 0
-209 -265 -294 0
-209 -265 -295 0
-209 -265 -296 0
-209 -265 -297 0
-209 -265 -298 0
-209 -265 -299 0
-209 -265 -300 0
-209 -265 -301 0
-209 -265 -302 0
-209 -265 -303 0
-209 -265 -304 0
-209 -265 -305 0
-209 -265 -306 0
-209 -265 -307 0
-209 -265 -308 0
-209 -265 -309 0
-209 -265 -310 0
-209 -265 -311 0
-209 -265 -312 0
-209 -265 -313 0
-209 -265 -314 0
-209 -265 -315 0
-210 -241 -291 363 0
-210 -241 -292 364 0
-210 -241 -293 365 0
-210 -241 -294 0
-210 -241 -295 0
-210 -241 -296 0
-210 -241 -297 0
-210 -241 -298 0
-210 -241 -299 0
-210 -241 -300 0
-210 -241 -301 0
-210 -241 -302 0
-210 -241 -303 0
-210 -241 -304 0
-210 -241 -305 0
-210 -241 -306 0
-210 -241 -307 0
-210 -241 -308 0
-210 -241 -309 0
-210 -241 -310 0
-210 -241 -311 0
-210 -241 -312 0
-210 -241 -313 0
-210 -241 -314 0
-210 -241 -315 0
-210 -242 -291 364 0
-210 -242 -292 365 0
-210 -242 -293 0
-210 -242 -294 0
-210 -242 -295 0
-210 -242 -296 0
-210 -242 -297 0
-210 -242 -298 0
-210 -242 -299 0
-210 -242 -300 0
-210 -242 -301 0
-210 -242 -302 0
-210 -242 -303 0
-210 -242 -304 0
-210 -242 -305 0
-210 -242 -306 0
-210 -242 -307 0
-210 -242 -308 0
-210 -242 -309 0
-210 -242 -310 0
-210 -242 -311 0
-210 -242 -312 0
-210 -242 -313 0
-210 -242 -314 0
-210 -242 -315 0
-210 -243 -291 365 0
-210 -243 -292 0
-210 -243 -293 0
-210 -243 -294 0
-210 -243 -295 0
-210 -243 -296 0
-210 -243 -297 0
-210 -243 -298 0
-210 -243 -299 0
-210 -243 -300 0
-210 -243 -301 0
-210 -243 -302 0
-210 -243 -303 0
-210 -243 -304 0
-210 -243 -305 0
-210 -243 -306 0
-210 -243 -307 0
-210 -243 -308 0
-210 -243 -309 0
-210 -243 -310 0
-210 -243 -311 0
-210 -243 -312 0
-210 -243 -313 0
-210 -243 -314 0
-210 -243 -315 0
-210 -244 -291 0
-210 -244 -292 0
-210 -244 -293 0
-210 -244 -294 0
-210 -244 -295 0
-210 -244 -296 0
-210 -244 -297 0
-210 -244 -298 0
-210 -244 -299 0
-210 -244 -300 0
-210 -244 -301 0
-210 -244 -302 0
-210 -244 -303 0
-210 -244 -304 0
-210 -244 -305 0
-210 -244 -306 0
-210 -244 -307 0
-210 -244 -308 0
-210 -244 -309 0
-210 -244 -310 0
-210 -244 -311 0
-210 -244 -312 0
-210 -244 -313 0
-210 -244 -314 0
-210 -244 -315 0
-210 -245 -291 0
-210 -245 -292 0
-210 -245 -293 0
-210 -245 -294 0
-210 -245 -295 0
-210 -245 -296 0
-210 -245 -297 0
-210 -245 -298 0
-210 -245 -299 0
-210 -245 -300 0
-210 -245 -301 0
-210 -245 -302 0
-210 -245 -303 0
-210 -245 -304 0
-210 -245 -305 0
-210 -245 -306 0
-210 -245 -307 0
-210 -245 -308 0
-210 -245 -309 0
-210 -245 -310 0
-210 -245 -311 0
-210 -245 -312 0
-210 -245 -313 0
-210 -245 -314 0
-210 -245 -315 0
-210 -246 -291 0
-210 -246 -292 0
-210 -246 -293 0
-210 -246 -294 0
-210 -246 -295 0
-210 -246 -296 0
-210 -246 -297 0
-210 -246 -298 0
-210 -246 -299 0
-210 -246 -300 0
-210 -246 -301 0
-210 -246 -302 0
-210 -246 -303 0
-210 -246 -304 0
-210 -246 -305 0
-210 -246 -306 0
-210 -246 -307 0
-210 -246 -308 0
-210 -246 -309 0
-210 -246 -310 0
-210 -246 -311 0
-210 -246 -312 0
-210 -246 -313 0
-210 -246 -314 0
-210 -246 -315 0
-210 -247 -291 0
-210 -247 -292 0
-210 -247 -293 0
-210 -247 -294 0
-210 -247 -295 0
-210 -247 -296 0
-210 -247 -297 0
-210 -247 -298 0
-210 -247 -299 0
-210 -247 -300 0
-210 -247 -301 0
-210 -247 -302 0
-210 -247 -303 0
-210 -247 -304 0
-210 -247 -305 0
-210 -247 -306 0
-210 -247 -307 0
-210 -247 -308 0
-210 -247 -309 0
-210 -247 -310 0
-210 -247 -311 0
-210 -247 -312 0
-210 -247 -313 0
-210 -247 -314 0
-210 -247 -315 0
-210 -248 -291 0
-210 -248 -292 0
-210 -248 -293 0
-210 -248 -294 0
-210 -248 -295 0
-210 -248 -296 0
-210 -248 -297 0
-210 -248 -298 0
-210 -248 -299 0
-210 -248 -300 0
-210 -248 -301 0
-210 -248 -302 0
-210 -248 -303 0
-210 -248 -304 0
-210 -248 -305 0
-210 -248 -306 0
-210 -248 -307 0
-210 -248 -308 0
-210 -248 -309 0
-210 -248 -310 0
-210 -248 -311 0
-210 -248 -312 0
-210 -248 -313 0
-210 -248 -314 0
-210 -248 -315 0
-210 -249 -291 0
-210 -249 -292 0
-210 -249 -293 0
-210 -249 -294 0
-210 -249 -295 0
-210 -249 -296 0
-210 -249 -297 0
-210 -249 -298 0
-210 -249 -299 0
-210 -249 -300 0
-210 -249 -301 0
-210 -249 -302 0
-210 -249 -303 0
-210 -249 -304 0
-210 -249 -305 0
-210 -249 -306 0
-210 -249 -307 0
-210 -249 -308 0
-210 -249 -309 0
-210 -249 -310 0
-210 -249 -311 0
-210 -249 -312 0
-210 -249 -313 0
-210 -249 -314 0
-210 -249 -315 0
-210 -250 -291 0
-210 -250 -292 0
-210 -250 -293 0
-210 -250 -294 0
-210 -250 -295 0
-210 -250 -296 0
-210 -250 -297 0
-210 -250 -298 0
-210 -250 -299 0
-210 -250 -300 0
-210 -250 -301 0
-210 -250 -302 0
-210 -250 -303 0
-210 -250 -304 0
-210 -250 -305 0
-210 -250 -306 0
-210 -250 -307 0
-210 -250 -308 0
-210 -250 -309 0
-210 -250 -310 0
-210 -250 -311 0
-210 -250 -312 0
-210 -250 -313 0
-210 -250 -314 0
-210 -250 -315 0
-210 -251 -291 0
-210 -251 -292 0
-210 -251 -293 0
-210 -251 -294 0
-210 -251 -295 0
-210 -251 -296 0
-210 -251 -297 0
-210 -251 -298 0
-210 -251 -299 0
-210 -251 -300 0
-210 -251 -301 0
-210 -251 -302 0
-210 -251 -303 0
-210 -251 -304 0
-210 -251 -305 0
-210 -251 -306 0
-210 -251 -307 0
-210 -251 -308 0
-210 -251 -309 0
-210 -251 -310 0
-210 -251 -311 0
-210 -251 -312 0
-210 -251 -313 0
-210 -251 -314 0
-210 -251 -315 0
-210 -252 -291 0
-210 -252 -292 0
-210 -252 -293 0
-210 -252 -294 0
-210 -252 -295 0
-210 -252 -296 0
-210 -252 -297 0
-210 -252 -298 0
-210 -252 -299 0
-210 -252 -300 0
-210 -252 -301 0
-210 -252 -302 0
-210 -252 -303 0
-210 -252 -304 0
-210 -252 -305 0
-210 -252 -306 0
-210 -252 -307 0
-210 -252 -308 0
-210 -252 -309 0
-210 -252 -310 0
-210 -252 -311 0
-210 -252 -312 0
-210 -252 -313 0
-210 -252 -314 0
-210 -252 -315 0
-210 -253 -291 0
-210 -253 -292 0
-210 -253 -293 0
-210 -253 -294 0
-210 -253 -295 0
-210 -253 -296 0
-210 -253 -297 0
-210 -253 -298 0
-210 -253 -299 0
-210 -253 -300 0
-210 -253 -301 0
-210 -253 -302 0
-210 -253 -303 0
-210 -253 -304 0
-210 -253 -305 0
-210 -253 -306 0
-210 -253 -307 0
-210 -253 -308 0
-210 -253 -309 0
-210 -253 -310 0
-210 -253 -311 0
-210 -253 -312 0
-210 -253 -313 0
-210 -253 -314 0
-210 -253 -315 0
-210 -254 -291 0
-210 -254 -292 0
-210 -254 -293 0
-210 -254 -294 0
-210 -254 -295 0
-210 -254 -296 0
-210 -254 -297 0
-210 -254 -298 0
-210 -254 -299 0
-210 -254 -300 0
-210 -254 -301 0
-210 -254 -302 0
-210 -254 -303 0
-210 -254 -304 0
-210 -254 -305 0
-210 -254 -306 0
-210 -254 -307 0
-210 -254 -308 0
-210 -254 -309 0
-210 -254 -310 0
-210 -254 -311 0
-210 -254 -312 0
-210 -254 -313 0
-210 -254 -314 0
-210 -254 -315 0
-210 -255 -291 0
-210 -255 -292 0
-210 -255 -293 0
-210 -255 -294 0
-210 -255 -295 0
-210 -255 -296 0
-210 -255 -297 0
-210 -255 -298 0
-210 -255 -299 0
-210 -255 -300 0
-210 -255 -301 0
-210 -255 -302 0
-210 -255 -303 0
-210 -255 -304 0
-210 -255 -305 0
-210 -255 -306 0
-210 -255 -307 0
-210 -255 -308 0
-210 -255 -309 0
-210 -255 -310 0
-210 -255 -311 0
-210 -255 -312 0
-210 -255 -313 0
-210 -255 -314 0
-210 -255 -315 0
-210 -256 -291 0
-210 -256 -292 0
-210 -256 -293 0
-210 -256 -294 0
-210 -256 -295 0
-210 -256 -296 0
-210 -256 -297 0
-210 -256 -298 0
-210 -256 -299 0
-210 -256 -300 0
-210 -256 -301 0
-210 -256 -302 0
-210 -256 -303 0
-210 -256 -304 0
-210 -256 -305 0
-210 -256 -306 0
-210 -256 -307 0
-210 -256 -308 0
-210 -256 -309 0
-210 -256 -310 0
-210 -256 -311 0
-210 -256 -312 0
-210 -256 -313 0
-210 -256 -314 0
-210 -256 -315 0
-210 -257 -291 0
-210 -257 -292 0
-210 -257 -293 0
-210 -257 -294 0
-210 -257 -295 0
-210 -257 -296 0
-210 -257 -297 0
-210 -257 -298 0
-210 -257 -299 0
-210 -257 -300 0
-210 -257 -301 0
-210 -257 -302 0
-210 -257 -303 0
-210 -257 -304 0
-210 -257 -305 0
-210 -257 -306 0
-210 -257 -307 0
-210 -257 -308 0
-210 -257 -309 0
-210 -257 -310 0
-210 -257 -311 0
-210 -257 -312 0
-210 -257 -313 0
-210 -257 -314 0
-210 -257 -315 0
-210 -258 -291 0
-210 -258 -292 0
-210 -258 -293 0
-210 -258 -294 0
-210 -258 -295 0
-210 -258 -296 0
-210 -258 -297 0
-210 -258 -298 0
-210 -258 -299 0
-210 -258 -300 0
-210 -258 -301 0
-210 -258 -302 0
-210 -258 -303 0
-210 -258 -304 0
-210 -258 -305 0
-210 -258 -306 0
-210 -258 -307 0
-210 -258 -308 0
-210 -258 -309 0
-210 -258 -310 0
-210 -258 -311 0
-210 -258 -312 0
-210 -258 -313 0
-210 -258 -314 0
-210 -258 -315 0
-210 -259 -291 0
-210 -259 -292 0
-210 -259 -293 0
-210 -259 -294 0
-210 -259 -295 0
-210 -259 -296 0
-210 -259 -297 0
-210 -259 -298 0
-210 -259 -299 0
-210 -259 -300 0
-210 -259 -301 0
-210 -259 -302 0
-210 -259 -303 0
-210 -259 -304 0
-210 -259 -305 0
-210 -259 -306 0
-210 -259 -307 0
-210 -259 -308 0
-210 -259 -309 0
-210 -259 -310 0
-210 -259 -311 0
-210 -259 -312 0
-210 -259 -313 0
-210 -259 -314 0
-210 -259 -315 0
-210 -260 -291 0
-210 -260 -292 0
-210 -260 -293 0
-210 -260 -294 0
-210 -260 -295 0
-210 -260 -296 0
-210 -260 -297 0
-210 -260 -298 0
-210 -260 -299 0
-210 -260 -300 0
-210 -260 -301 0
-210 -260 -302 0
-210 -260 -303 0
-210 -260 -304 0
-210 -260 -305 0
-210 -260 -306 0
-210 -260 -307 0
-210 -260 -308 0
-210 -260 -309 0
-210 -260 -310 0
-210 -260 -311 0
-210 -260 -312 0
-210 -260 -313 0
-210 -260 -314 0
-210 -260 -315 0
-210 -261 -291 0
-210 -261 -292 0
-210 -261 -293 0
-210 -261 -294 0
-210 -261 -295 0
-210 -261 -296 0
-210 -261 -297 0
-210 -261 -298 0
-210 -261 -299 0
-210 -261 -300 0
-210 -261 -301 0
-210 -261 -302 0
-210 -261 -303 0
-210 -261 -304 0
-210 -261 -305 0
-210 -261 -306 0
-210 -261 -307 0
-210 -261 -308 0
-210 -261 -309 0
-210 -261 -310 0
-210 -261 -311 0
-210 -261 -312 0
-210 -261 -313 0
-210 -261 -314 0
-210 -261 -315 0
-210 -262 -291 0
-210 -262 -292 0
-210 -262 -293 0
-210 -262 -294 0
-210 -262 -295 0
-210 -262 -296 0
-210 -262 -297 0
-210 -262 -298 0
-210 -262 -299 0
-210 -262 -300 0
-210 -262 -301 0
-210 -262 -302 0
-210 -262 -303 0
-210 -262 -304 0
-210 -262 -305 0
-210 -262 -306 0
-210 -262 -307 0
-210 -262 -308 0
-210 -262 -309 0
-210 -262 -310 0
-210 -262 -311 0
-210 -262 -312 0
-210 -262 -313 0
-210 -262 -314 0
-210 -262 -315 0
-210 -263 -291 0
-210 -263 -292 0
-210 -263 -293 0
-210 -263 -294 0
-210 -263 -295 0
-210 -263 -296 0
-210 -263 -297 0
-210 -263 -298 0
-210 -263 -299 0
-210 -263 -300 0
-210 -263 -301 0
-210 -263 -302 0
-210 -263 -303 0
-210 -263 -304 0
-210 -263 -305 0
-210 -263 -306 0
-210 -263 -307 0
-210 -263 -308 0
-210 -263 -309 0
-210 -263 -310 0
-210 -263 -311 0
-210 -263 -312 0
-210 -263 -313 0
-210 -263 -314 0
-210 -263 -315 0
-210 -264 -291 0
-210 -264 -292 0
-210 -264 -293 0
-210 -264 -294 0
-210 -264 -295 0
-210 -264 -296 0
-210 -264 -297 0
-210 -264 -298 0
-210 -264 -299 0
-210 -264 -300 0
-210 -264 -301 0
-210 -264 -302 0
-210 -264 -303 0
-210 -264 -304 0
-210 -264 -305 0
-210 -264 -306 0
-210 -264 -307 0
-210 -264 -308 0
-210 -264 -309 0
-210 -264 -310 0
-210 -264 -311 0
-210 -264 -312 0
-210 -264 -313 0
-210 -264 -314 0
-210 -264 -315 0
-210 -265 -291 0
-210 -265 -292 0
-210 -265 -293 0
-210 -265 -294 0
-210 -265 -295 0
-210 -265 -296 0
-210 -265 -297 0
-210 -265 -298 0
-210 -265 -299 0
-210 -265 -300 0
-210 -265 -301 0
-210 -265 -302 0
-210 -265 -303 0
-210 -265 -304 0
-210 -265 -305 0
-210 -265 -306 0
-210 -265 -307 0
-210 -265 -308 0
-210 -265 -309 0
-210 -265 -310 0
-210 -265 -311 0
-210 -265 -312 0
-210 -265 -313 0
-210 -265 -314 0
-210 -265 -315 0
-211 -241 -291 364 0
-211 -241 -292 365 0
-211 -241 -293 0
-211 -241 -294 0
-211 -241 -295 0
-211 -241 -296 0
-211 -241 -297 0
-211 -241 -298 0
-211 -241 -299 0
-211 -241 -300 0
-211 -241 -301 0
-211 -241 -302 0
-211 -241 -303 0
-211 -241 -304 0
-211 -241 -305 0
-211 -241 -306 0
-211 -241 -307 0
-211 -241 -308 0
-211 -241 -309 0
-211 -241 -310 0
-211 -241 -311 0
-211 -241 -312 0
-211 -241 -313 0
-211 -241 -314 0
-211 -241 -315 0
-211 -242 -291 365 0
-211 -242 -292 0
-211 -242 -293 0
-211 -242 -294 0
-211 -242 -295 0
-211 -242 -296 0
-211 -242 -297 0
-211 -242 -298 0
-211 -242 -299 0
-211 -242 -300 0
-211 -242 -301 0
-211 -242 -302 0
-211 -242 -303 0
-211 -242 -304 0
-211 -242 -305 0
-211 -242 -306 0
-211 -242 -307 0
-211 -242 -308 0
-211 -242 -309 0
-211 -242 -310 0
-211 -242 -311 0
-211 -242 -312 0
-211 -242 -313 0
-211 -242 -314 0
-211 -242 -315 0
-211 -243 -291 0
-211 -243 -292 0
-211 -243 -293 0
-211 -243 -294 0
-211 -243 -295 0
-211 -243 -296 0
-211 -243 -297 0
-211 -243 -298 0
-211 -243 -299 0
-211 -243 -300 0
-211 -243 -301 0
-211 -243 -302 0
-211 -243 -303 0
-211 -243 -304 0
-211 -243 -305 0
-211 -243 -306 0
-211 -243 -307 0
-211 -243 -308 0
-211 -243 -309 0
-211 -243 -310 0
-211 -243 -311 0
-211 -243 -312 0
-211 -243 -313 0
-211 -243 -314 0
-211 -243 -315 0
-211 -244 -291 0
-211 -244 -292 0
-211 -244 -293 0
-211 -244 -294 0
-211 -244 -295 0
-211 -244 -296 0
-211 -244 -297 0
-211 -244 -298 0
-211 -244 -299 0
-211 -244 -300 0
-211 -244 -301 0
-211 -244 -302 0
-211 -244 -303 0
-211 -244 -304 0
-211 -244 -305 0
-211 -244 -306 0
-211 -244 -307 0
-211 -244 -308 0
-211 -244 -309 0
-211 -244 -310 0
-211 -244 -311 0
-211 -244 -312 0
-211 -244 -313 0
-211 -244 -314 0
-211 -244 -315 0
-211 -245 -291 0
-211 -245 -292 0
-211 -245 -293 0
-211 -245 -294 0
-211 -245 -295 0
-211 -245 -296 0
-211 -245 -297 0
-211 -245 -298 0
-211 -245 -299 0
-211 -245 -300 0
-211 -245 -301 0
-211 -245 -302 0
-211 -245 -303 0
-211 -245 -304 0
-211 -245 -305 0
-211 -245 -306 0
-211 -245 -307 0
-211 -245 -308 0
-211 -245 -309 0
-211 -245 -310 0
-211 -245 -311 0
-211 -245 -312 0
-211 -245 -313 0
-211 -245 -314 0
-211 -245 -315 0
-211 -246 -291 0
-211 -246 -292 0
-211 -246 -293 0
-211 -246 -294 0
-211 -246 -295 0
-211 -246 -296 0
-211 -246 -297 0
-211 -246 -298 0
-211 -246 -299 0
-211 -246 -300 0
-211 -246 -301 0
-211 -246 -302 0
-211 -246 -303 0
-211 -246 -304 0
-211 -246 -305 0
-211 -246 -306 0
-211 -246 -307 0
-211 -246 -308 0
-211 -246 -309 0
-211 -246 -310 0
-211 -246 -311 0
-211 -246 -312 0
-211 -246 -313 0
-211 -246 -314 0
-211 -246 -315 0
-211 -247 -291 0
-211 -247 -292 0
-211 -247 -293 0
-211 -247 -294 0
-211 -247 -295 0
-211 -247 -296 0
-211 -247 -297 0
-211 -247 -298 0
-211 -247 -299 0
-211 -247 -300 0
-211 -247 -301 0
-211 -247 -302 0
-211 -247 -303 0
-211 -247 -304 0
-211 -247 -305 0
-211 -247 -306 0
-211 -247 -307 0
-211 -247 -308 0
-211 -247 -309 0
-211 -247 -310 0
-211 -247 -311 0
-211 -247 -312 0
-211 -247 -313 0
-211 -247 -314 0
-211 -247 -315 0
-211 -248 -291 0
-211 -248 -292 0
-211 -248 -293 0
-211 -248 -294 0
-211 -248 -295 0
-211 -248 -296 0
-211 -248 -297 0
-211 -248 -298 0
-211 -248 -299 0
-211 -248 -300 0
-211 -248 -301 0
-211 -248 -302 0
-211 -248 -303 0
-211 -248 -304 0
-211 -248 -305 0
-211 -248 -306 0
-211 -248 -307 0
-211 -248 -308 0
-211 -248 -309 0
-211 -248 -310 0
-211 -248 -311 0
-211 -248 -312 0
-211 -248 -313 0
-211 -248 -314 0
-211 -248 -315 0
-211 -249 -291 0
-211 -249 -292 0
-211 -249 -293 0
-211 -249 -294 0
-211 -249 -295 0
-211 -249 -296 0
-211 -249 -297 0
-211 -249 -298 0
-211 -249 -299 0
-211 -249 -300 0
-211 -249 -301 0
-211 -249 -302 0
-211 -249 -303 0
-211 -249 -304 0
-211 -249 -305 0
-211 -249 -306 0
-211 -249 -307 0
-211 -249 -308 0
-211 -249 -309 0
-211 -249 -310 0
-211 -249 -311 0
-211 -249 -312 0
-211 -249 -313 0
-211 -249 -314 0
-211 -249 -315 0
-211 -250 -291 0
-211 -250 -292 0
-211 -250 -293 0
-211 -250 -294 0
-211 -250 -295 0
-211 -250 -296 0
-211 -250 -297 0
-211 -250 -298 0
-211 -250 -299 0
-211 -250 -300 0
-211 -250 -301 0
-211 -250 -302 0
-211 -250 -303 0
-211 -250 -304 0
-211 -250 -305 0
-211 -250 -306 0
-211 -250 -307 0
-211 -250 -308 0
-211 -250 -309 0
-211 -250 -310 0
-211 -250 -311 0
-211 -250 -312 0
-211 -250 -313 0
-211 -250 -314 0
-211 -250 -315 0
-211 -251 -291 0
-211 -251 -292 0
-211 -251 -293 0
-211 -251 -294 0
-211 -251 -295 0
-211 -251 -296 0
-211 -251 -297 0
-211 -251 -298 0
-211 -251 -299 0
-211 -251 -300 0
-211 -251 -301 0
-211 -251 -302 0
-211 -251 -303 0
-211 -251 -304 0
-211 -251 -305 0
-211 -251 -306 0
-211 -251 -307 0
-211 -251 -308 0
-211 -251 -309 0
-211 -251 -310 0
-211 -251 -311 0
-211 -251 -312 0
-211 -251 -313 0
-211 -251 -314 0
-211 -251 -315 0
-211 -252 -291 0
-211 -252 -292 0
-211 -252 -293 0
-211 -252 -294 0
-211 -252 -295 0
-211 -252 -296 0
-211 -252 -297 0
-211 -252 -298 0
-211 -252 -299 0
-211 -252 -300 0
-211 -252 -301 0
-211 -252 -302 0
-211 -252 -303 0
-211 -252 -304 0
-211 -252 -305 0
-211 -252 -306 0
-211 -252 -307 0
-211 -252 -308 0
-211 -252 -309 0
-211 -252 -310 0
-211 -252 -311 0
-211 -252 -312 0
-211 -252 -313 0
-211 -252 -314 0
-211 -252 -315 0
-211 -253 -291 0
-211 -253 -292 0
-211 -253 -293 0
-211 -253 -294 0
-211 -253 -295 0
-211 -253 -296 0
-211 -253 -297 0
-211 -253 -298 0
-211 -253 -299 0
-211 -253 -300 0
-211 -253 -301 0
-211 -253 -302 0
-211 -253 -303 0
-211 -253 -304 0
-211 -253 -305 0
-211 -253 -306 0
-211 -253 -307 0
-211 -253 -308 0
-211 -253 -309 0
-211 -253 -310 0
-211 -253 -311 0
-211 -253 -312 0
-211 -253 -313 0
-211 -253 -314 0
-211 -253 -315 0
-211 -254 -291 0
-211 -254 -292 0
-211 -254 -293 0
-211 -254 -294 0
-211 -254 -295 0
-211 -254 -296 0
-211 -254 -297 0
-211 -254 -298 0
-211 -254 -299 0
-211 -254 -300 0
-211 -254 -301 0
-211 -254 -302 0
-211 -254 -303 0
-211 -254 -304 0
-211 -254 -305 0
-211 -254 -306 0
-211 -254 -307 0
-211 -254 -308 0
-211 -254 -309 0
-211 -254 -310 0
-211 -254 -311 0
-211 -254 -312 0
-211 -254 -313 0
-211 -254 -314 0
-211 -254 -315 0
-211 -255 -291 0
-211 -255 -292 0
-211 -255 -293 0
-211 -255 -294 0
-211 -255 -295 0
-211 -255 -296 0
-211 -255 -297 0
-211 -255 -298 0
-211 -255 -299 0
-211 -255 -300 0
-211 -255 -301 0
-211 -255 -302 0
-211 -255 -303 0
-211 -255 -304 0
-211 -255 -305 0
-211 -255 -306 0
-211 -255 -307 0
-211 -255 -308 0
-211 -255 -309 0
-211 -255 -310 0
-211 -255 -311 0
-211 -255 -312 0
-211 -255 -313 0
-211 -255 -314 0
-211 -255 -315 0
-211 -256 -291 0
-211 -256 -292 0
-211 -256 -293 0
-211 -256 -294 0
-211 -256 -295 0
-211 -256 -296 0
-211 -256 -297 0
-211 -256 -298 0
-211 -256 -299 0
-211 -256 -300 0
-211 -256 -301 0
-211 -256 -302 0
-211 -256 -303 0
-211 -256 -304 0
-211 -256 -305 0
-211 -256 -306 0
-211 -256 -307 0
-211 -256 -308 0
-211 -256 -309 0
-211 -256 -310 0
-211 -256 -311 0
-211 -256 -312 0
-211 -256 -313 0
-211 -256 -314 0
-211 -256 -315 0
-211 -257 -291 0
-211 -257 -292 0
-211 -257 -293 0
-211 -257 -294 0
-211 -257 -295 0
-211 -257 -296 0
-211 -257 -297 0
-211 -257 -298 0
-211 -257 -299 0
-211 -257 -300 0
-211 -257 -301 0
-211 -257 -302 0
-211 -257 -303 0
-211 -257 -304 0
-211 -257 -305 0
-211 -257 -306 0
-211 -257 -307 0
-211 -257 -308 0
-211 -257 -309 0
-211 -257 -310 0
-211 -257 -311 0
-211 -257 -312 0
-211 -257 -313 0
-211 -257 -314 0
-211 -257 -315 0
-211 -258 -291 0
-211 -258 -292 0
-211 -258 -293 0
-211 -258 -294 0
-211 -258 -295 0
-211 -258 -296 0
-211 -258 -297 0
-211 -258 -298 0
-211 -258 -299 0
-211 -258 -300 0
-211 -258 -301 0
-211 -258 -302 0
-211 -258 -303 0
-211 -258 -304 0
-211 -258 -305 0
-211 -258 -306 0
-211 -258 -307 0
-211 -258 -308 0
-211 -258 -309 0
-211 -258 -310 0
-211 -258 -311 0
-211 -258 -312 0
-211 -258 -313 0
-211 -258 -314 0
-211 -258 -315 0
-211 -259 -291 0
-211 -259 -292 0
-211 -259 -293 0
-211 -259 -294 0
-211 -259 -295 0
-211 -259 -296 0
-211 -259 -297 0
-211 -259 -298 0
-211 -259 -299 0
-211 -259 -300 0
-211 -259 -301 0
-211 -259 -302 0
-211 -259 -303 0
-211 -259 -304 0
-211 -259 -305 0
-211 -259 -306 0
-211 -259 -307 0
-211 -259 -308 0
-211 -259 -309 0
-211 -259 -310 0
-211 -259 -311 0
-211 -259 -312 0
-211 -259 -313 0
-211 -259 -314 0
-211 -259 -315 0
-211 -260 -291 0
-211 -260 -292 0
-211 -260 -293 0
-211 -260 -294 0
-211 -260 -295 0
-211 -260 -296 0
-211 -260 -297 0
-211 -260 -298 0
-211 -260 -299 0
-211 -260 -300 0
-211 -260 -301 0
-211 -260 -302 0
-211 -260 -303 0
-211 -260 -304 0
-211 -260 -305 0
-211 -260 -306 0
-211 -260 -307 0
-211 -260 -308 0
-211 -260 -309 0
-211 -260 -310 0
-211 -260 -311 0
-211 -260 -312 0
-211 -260 -313 0
-211 -260 -314 0
-211 -260 -315 0
-211 -261 -291 0
-211 -261 -292 0
-211 -261 -293 0
-211 -261 -294 0
-211 -261 -295 0
-211 -261 -296 0
-211 -261 -297 0
-211 -261 -298 0
-211 -261 -299 0
-211 -261 -300 0
-211 -261 -301 0
-211 -261 -302 0
-211 -261 -303 0
-211 -261 -304 0
-211 -261 -305 0
-211 -261 -306 0
-211 -261 -307 0
-211 -261 -308 0
-211 -261 -309 0
-211 -261 -310 0
-211 -261 -311 0
-211 -261 -312 0
-211 -261 -313 0
-211 -261 -314 0
-211 -261 -315 0
-211 -262 -291 0
-211 -262 -292 0
-211 -262 -293 0
-211 -262 -294 0
-211 -262 -295 0
-211 -262 -296 0
-211 -262 -297 0
-211 -262 -298 0
-211 -262 -299 0
-211 -262 -300 0
-211 -262 -301 0
-211 -262 -302 0
-211 -262 -303 0
-211 -262 -304 0
-211 -262 -305 0
-211 -262 -306 0
-211 -262 -307 0
-211 -262 -308 0
-211 -262 -309 0
-211 -262 -310 0
-211 -262 -311 0
-211 -262 -312 0
-211 -262 -313 0
-211 -262 -314 0
-211 -262 -315 0
-211 -263 -291 0
-211 -263 -292 0
-211 -263 -293 0
-211 -263 -294 0
-211 -263 -295 0
-211 -263 -296 0
-211 -263 -297 0
-211 -263 -298 0
-211 -263 -299 0
-211 -263 -300 0
-211 -263 -301 0
-211 -263 -302 0
-211 -263 -303 0
-211 -263 -304 0
-211 -263 -305 0
-211 -263 -306 0
-211 -263 -307 0
-211 -263 -308 0
-211 -263 -309 0
-211 -263 -310 0
-211 -263 -311 0
-211 -263 -312 0
-211 -263 -313 0
-211 -263 -314 0
-211 -263 -315 0
-211 -264 -291 0
-211 -264 -292 0
-211 -264 -293 0
-211 -264 -294 0
-211 -264 -295 0
-211 -264 -296 0
-211 -264 -297 0
-211 -264 -298 0
-211 -264 -299 0
-211 -264 -300 0
-211 -264 -301 0
-211 -264 -302 0
-211 -264 -303 0
-211 -264 -304 0
-211 -264 -305 0
-211 -264 -306 0
-211 -264 -307 0
-211 -264 -308 0
-211 -264 -309 0
-211 -264 -310 0
-211 -264 -311 0
-211 -264 -312 0
-211 -264 -313 0
-211 -264 -314 0
-211 -264 -315 0
-211 -265 -291 0
-211 -265 -292 0
-211 -265 -293 0
-211 -265 -294 0
-211 -265 -295 0
-211 -265 -296 0
-211 -265 -297 0
-211 -265 -298 0
-211 -265 -299 0
-211 -265 -300 0
-211 -265 -301 0
-211 -265 -302 0
-211 -265 -303 0
-211 -265 -304 0
-211 -265 -305 0
-211 -265 -306 0
-211 -265 -307 0
-211 -265 -308 0
-211 -265 -309 0
-211 -265 -310 0
-211 -265 -311 0
-211 -265 -312 0
-211 -265 -313 0
-211 -265 -314 0
-211 -265 -315 0
-212 -241 -291 365 0
-212 -241 -292 0
-212 -241 -293 0
-212 -241 -294 0
-212 -241 -295 0
-212 -241 -296 0
-212 -241 -297 0
-212 -241 -298 0
-212 -241 -299 0
-212 -241 -300 0
-212 -241 -301 0
-212 -241 -302 0
-212 -241 -303 0
-212 -241 -304 0
-212 -241 -305 0
-212 -241 -306 0
-212 -241 -307 0
-212 -241 -308 0
-212 -241 -309 0
-212 -241 -310 0
-212 -241 -311 0
-212 -241 -312 0
-212 -241 -313 0
-212 -241 -314 0
-212 -241 -315 0
-212 -242 -291 0
-212 -242 -292 0
-212 -242 -293 0
-212 -242 -294 0
-212 -242 -295 0
-212 -242 -296 0
-212 -242 -297 0
-212 -242 -298 0
-212 -242 -299 0
-212 -242 -300 0
-212 -242 -301 0
-212 -242 -302 0
-212 -242 -303 0
-212 -242 -304 0
-212 -242 -305 0
-212 -242 -306 0
-212 -242 -307 0
-212 -242 -308 0
-212 -242 -309 0
-212 -242 -310 0
-212 -242 -311 0
-212 -242 -312 0
-212 -242 -313 0
-212 -242 -314 0
-212 -242 -315 0
-212 -243 -291 0
-212 -243 -292 0
-212 -243 -293 0
-212 -243 -294 0
-212 -243 -295 0
-212 -243 -296 0
-212 -243 -297 0
-212 -243 -298 0
-212 -243 -299 0
-212 -243 -300 0
-212 -243 -301 0
-212 -243 -302 0
-212 -243 -303 0
-212 -243 -304 0
-212 -243 -305 0
-212 -243 -306 0
-212 -243 -307 0
-212 -243 -308 0
-212 -243 -309 0
-212 -243 -310 0
-212 -243 -311 0
-212 -243 -312 0
-212 -243 -313 0
-212 -243 -314 0
-212 -243 -315 0
-212 -244 -291 0
-212 -244 -292 0
-212 -244 -293 0
-212 -244 -294 0
-212 -244 -295 0
-212 -244 -296 0
-212 -244 -297 0
-212 -244 -298 0
-212 -244 -299 0
-212 -244 -300 0
-212 -244 -301 0
-212 -244 -302 0
-212 -244 -303 0
-212 -244 -304 0
-212 -244 -305 0
-212 -244 -306 0
-212 -244 -307 0
-212 -244 -308 0
-212 -244 -309 0
-212 -244 -310 0
-212 -244 -311 0
-212 -244 -312 0
-212 -244 -313 0
-212 -244 -314 0
-212 -244 -315 0
-212 -245 -291 0
-212 -245 -292 0
-212 -245 -293 0
-212 -245 -294 0
-212 -245 -295 0
-212 -245 -296 0
-212 -245 -297 0
-212 -245 -298 0
-212 -245 -299 0
-212 -245 -300 0
-212 -245 -301 0
-212 -245 -302 0
-212 -245 -303 0
-212 -245 -304 0
-212 -245 -305 0
-212 -245 -306 0
-212 -245 -307 0
-212 -245 -308 0
-212 -245 -309 0
-212 -245 -310 0
-212 -245 -311 0
-212 -245 -312 0
-212 -245 -313 0
-212 -245 -314 0
-212 -245 -315 0
-212 -246 -291 0
-212 -246 -292 0
-212 -246 -293 0
-212 -246 -294 0
-212 -246 -295 0
-212 -246 -296 0
-212 -246 -297 0
-212 -246 -298 0
-212 -246 -299 0
-212 -246 -300 0
-212 -246 -301 0
-212 -246 -302 0
-212 -246 -303 0
-212 -246 -304 0
-212 -246 -305 0
-212 -246 -306 0
-212 -246 -307 0
-212 -246 -308 0
-212 -246 -309 0
-212 -246 -310 0
-212 -246 -311 0
-212 -246 -312 0
-212 -246 -313 0
-212 -246 -314 0
-212 -246 -315 0
-212 -247 -291 0
-212 -247 -292 0
-212 -247 -293 0
-212 -247 -294 0
-212 -247 -295 0
-212 -247 -296 0
-212 -247 -297 0
-212 -247 -298 0
-212 -247 -299 0
-212 -247 -300 0
-212 -247 -301 0
-212 -247 -302 0
-212 -247 -303 0
-212 -247 -304 0
-212 -247 -305 0
-212 -247 -306 0
-212 -247 -307 0
-212 -247 -308 0
-212 -247 -309 0
-212 -247 -310 0
-212 -247 -311 0
-212 -247 -312 0
-212 -247 -313 0
-212 -247 -314 0
-212 -247 -315 0
-212 -248 -291 0
-212 -248 -292 0
-212 -248 -293 0
-212 -248 -294 0
-212 -248 -295 0
-212 -248 -296 0
-212 -248 -297 0
-212 -248 -298 0
-212 -248 -299 0
-212 -248 -300 0
-212 -248 -301 0
-212 -248 -302 0
-212 -248 -303 0
-212 -248 -304 0
-212 -248 -305 0
-212 -248 -306 0
-212 -248 -307 0
-212 -248 -308 0
-212 -248 -309 0
-212 -248 -310 0
-212 -248 -311 0
-212 -248 -312 0
-212 -248 -313 0
-212 -248 -314 0
-212 -248 -315 0
-212 -249 -291 0
-212 -249 -292 0
-212 -249 -293 0
-212 -249 -294 0
-212 -249 -295 0
-212 -249 -296 0
-212 -249 -297 0
-212 -249 -298 0
-212 -249 -299 0
-212 -249 -300 0
-212 -249 -301 0
-212 -249 -302 0
-212 -249 -303 0
-212 -249 -304 0
-212 -249 -305 0
-212 -249 -306 0
-212 -249 -307 0
-212 -249 -308 0
-212 -249 -309 0
-212 -249 -310 0
-212 -249 -311 0
-212 -249 -312 0
-212 -249 -313 0
-212 -249 -314 0
-212 -249 -315 0
-212 -250 -291 0
-212 -250 -292 0
-212 -250 -293 0
-212 -250 -294 0
-212 -250 -295 0
-212 -250 -296 0
-212 -250 -297 0
-212 -250 -298 0
-212 -250 -299 0
-212 -250 -300 0
-212 -250 -301 0
-212 -250 -302 0
-212 -250 -303 0
-212 -250 -304 0
-212 -250 -305 0
-212 -250 -306 0
-212 -250 -307 0
-212 -250 -308 0
-212 -250 -309 0
-212 -250 -310 0
-212 -250 -311 0
-212 -250 -312 0
-212 -250 -313 0
-212 -250 -314 0
-212 -250 -315 0
-212 -251 -291 0
-212 -251 -292 0
-212 -251 -293 0
-212 -251 -294 0
-212 -251 -295 0
-212 -251 -296 0
-212 -251 -297 0
-212 -251 -298 0
-212 -251 -299 0
-212 -251 -300 0
-212 -251 -301 0
-212 -251 -302 0
-212 -251 -303 0
-212 -251 -304 0
-212 -251 -305 0
-212 -251 -306 0
-212 -251 -307 0
-212 -251 -308 0
-212 -251 -309 0
-212 -251 -310 0
-212 -251 -311 0
-212 -251 -312 0
-212 -251 -313 0
-212 -251 -314 0
-212 -251 -315 0
-212 -252 -291 0
-212 -252 -292 0
-212 -252 -293 0
-212 -252 -294 0
-212 -252 -295 0
-212 -252 -296 0
-212 -252 -297 0
-212 -252 -298 0
-212 -252 -299 0
-212 -252 -300 0
-212 -252 -301 0
-212 -252 -302 0
-212 -252 -303 0
-212 -252 -304 0
-212 -252 -305 0
-212 -252 -306 0
-212 -252 -307 0
-212 -252 -308 0
-212 -252 -309 0
-212 -252 -310 0
-212 -252 -311 0
-212 -252 -312 0
-212 -252 -313 0
-212 -252 -314 0
-212 -252 -315 0
-212 -253 -291 0
-212 -253 -292 0
-212 -253 -293 0
-212 -253 -294 0
-212 -253 -295 0
-212 -253 -296 0
-212 -253 -297 0
-212 -253 -298 0
-212 -253 -299 0
-212 -253 -300 0
-212 -253 -301 0
-212 -253 -302 0
-212 -253 -303 0
-212 -253 -304 0
-212 -253 -305 0
-212 -253 -306 0
-212 -253 -307 0
-212 -253 -308 0
-212 -253 -309 0
-212 -253 -310 0
-212 -253 -311 0
-212 -253 -312 0
-212 -253 -313 0
-212 -253 -314 0
-212 -253 -315 0
-212 -254 -291 0
-212 -254 -292 0
-212 -254 -293 0
-212 -254 -294 0
-212 -254 -295 0
-212 -254 -296 0
-212 -254 -297 0
-212 -254 -298 0
-212 -254 -299 0
-212 -254 -300 0
-212 -254 -301 0
-212 -254 -302 0
-212 -254 -303 0
-212 -254 -304 0
-212 -254 -305 0
-212 -254 -306 0
-212 -254 -307 0
-212 -254 -308 0
-212 -254 -309 0
-212 -254 -310 0
-212 -254 -311 0
-212 -254 -312 0
-212 -254 -313 0
-212 -254 -314 0
-212 -254 -315 0
-212 -255 -291 0
-212 -255 -292 0
-212 -255 -293 0
-212 -255 -294 0
-212 -255 -295 0
-212 -255 -296 0
-212 -255 -297 0
-212 -255 -298 0
-212 -255 -299 0
-212 -255 -300 0
-212 -255 -301 0
-212 -255 -302 0
-212 -255 -303 0
-212 -255 -304 0
-212 -255 -305 0
-212 -255 -306 0
-212 -255 -307 0
-212 -255 -308 0
-212 -255 -309 0
-212 -255 -310 0
-212 -255 -311 0
-212 -255 -312 0
-212 -255 -313 0
-212 -255 -314 0
-212 -255 -315 0
-212 -256 -291 0
-212 -256 -292 0
-212 -256 -293 0
-212 -256 -294 0
-212 -256 -295 0
-212 -256 -296 0
-212 -256 -297 0
-212 -256 -298 0
-212 -256 -299 0
-212 -256 -300 0
-212 -256 -301 0
-212 -256 -302 0
-212 -256 -303 0
-212 -256 -304 0
-212 -256 -305 0
-212 -256 -306 0
-212 -256 -307 0
-212 -256 -308 0
-212 -256 -309 0
-212 -256 -310 0
-212 -256 -311 0
-212 -256 -312 0
-212 -256 -313 0
-212 -256 -314 0
-212 -256 -315 0
-212 -257 -291 0
-212 -257 -292 0
-212 -257 -293 0
-212 -257 -294 0
-212 -257 -295 0
-212 -257 -296 0
-212 -257 -297 0
-212 -257 -298 0
-212 -257 -299 0
-212 -257 -300 0
-212 -257 -301 0
-212 -257 -302 0
-212 -257 -303 0
-212 -257 -304 0
-212 -257 -305 0
-212 -257 -306 0
-212 -257 -307 0
-212 -257 -308 0
-212 -257 -309 0
-212 -257 -310 0
-212 -257 -311 0
-212 -257 -312 0
-212 -257 -313 0
-212 -257 -314 0
-212 -257 -315 0
-212 -258 -291 0
-212 -258 -292 0
-212 -258 -293 0
-212 -258 -294 0
-212 -258 -295 0
-212 -258 -296 0
-212 -258 -297 0
-212 -258 -298 0
-212 -258 -299 0
-212 -258 -300 0
-212 -258 -301 0
-212 -258 -302 0
-212 -258 -303 0
-212 -258 -304 0
-212 -258 -305 0
-212 -258 -306 0
-212 -258 -307 0
-212 -258 -308 0
-212 -258 -309 0
-212 -258 -310 0
-212 -258 -311 0
-212 -258 -312 0
-212 -258 -313 0
-212 -258 -314 0
-212 -258 -315 0
-212 -259 -291 0
-212 -259 -292 0
-212 -259 -293 0
-212 -259 -294 0
-212 -259 -295 0
-212 -259 -296 0
-212 -259 -297 0
-212 -259 -298 0
-212 -259 -299 0
-212 -259 -300 0
-212 -259 -301 0
-212 -259 -302 0
-212 -259 -303 0
-212 -259 -304 0
-212 -259 -305 0
-212 -259 -306 0
-212 -259 -307 0
-212 -259 -308 0
-212 -259 -309 0
-212 -259 -310 0
-212 -259 -311 0
-212 -259 -312 0
-212 -259 -313 0
-212 -259 -314 0
-212 -259 -315 0
-212 -260 -291 0
-212 -260 -292 0
-212 -260 -293 0
-212 -260 -294 0
-212 -260 -295 0
-212 -260 -296 0
-212 -260 -297 0
-212 -260 -298 0
-212 -260 -299 0
-212 -260 -300 0
-212 -260 -301 0
-212 -260 -302 0
-212 -260 -303 0
-212 -260 -304 0
-212 -260 -305 0
-212 -260 -306 0
-212 -260 -307 0
-212 -260 -308 0
-212 -260 -309 0
-212 -260 -310 0
-212 -260 -311 0
-212 -260 -312 0
-212 -260 -313 0
-212 -260 -314 0
-212 -260 -315 0
-212 -261 -291 0
-212 -261 -292 0
-212 -261 -293 0
-212 -261 -294 0
-212 -261 -295 0
-212 -261 -296 0
-212 -261 -297 0
-212 -261 -298 0
-212 -261 -299 0
-212 -261 -300 0
-212 -261 -301 0
-212 -261 -302 0
-212 -261 -303 0
-212 -261 -304 0
-212 -261 -305 0
-212 -261 -306 0
-212 -261 -307 0
-212 -261 -308 0
-212 -261 -309 0
-212 -261 -310 0
-212 -261 -311 0
-212 -261 -312 0
-212 -261 -313 0
-212 -261 -314 0
-212 -261 -315 0
-212 -262 -291 0
-212 -262 -292 0
-212 -262 -293 0
-212 -262 -294 0
-212 -262 -295 0
-212 -262 -296 0
-212 -262 -297 0
-212 -262 -298 0
-212 -262 -299 0
-212 -262 -300 0
-212 -262 -301 0
-212 -262 -302 0
-212 -262 -303 0
-212 -262 -304 0
-212 -262 -305 0
-212 -262 -306 0
-212 -262 -307 0
-212 -262 -308 0
-212 -262 -309 0
-212 -262 -310 0
-212 -262 -311 0
-212 -262 -312 0
-212 -262 -313 0
-212 -262 -314 0
-212 -262 -315 0
-212 -263 -291 0
-212 -263 -292 0
-212 -263 -293 0
-212 -263 -294 0
-212 -263 -295 0
-212 -263 -296 0
-212 -263 -297 0
-212 -263 -298 0
-212 -263 -299 0
-212 -263 -300 0
-212 -263 -301 0
-212 -263 -302 0
-212 -263 -303 0
-212 -263 -304 0
-212 -263 -305 0
-212 -263 -306 0
-212 -263 -307 0
-212 -263 -308 0
-212 -263 -309 0
-212 -263 -310 0
-212 -263 -311 0
-212 -263 -312 0
-212 -263 -313 0
-212 -263 -314 0
-212 -263 -315 0
-212 -264 -291 0
-212 -264 -292 0
-212 -264 -293 0
-212 -264 -294 0
-212 -264 -295 0
-212 -264 -296 0
-212 -264 -297 0
-212 -264 -298 0
-212 -264 -299 0
-212 -264 -300 0
-212 -264 -301 0
-212 -264 -302 0
-212 -264 -303 0
-212 -264 -304 0
-212 -264 -305 0
-212 -264 -306 0
-212 -264 -307 0
-212 -264 -308 0
-212 -264 -309 0
-212 -264 -310 0
-212 -264 -311 0
-212 -264 -312 0
-212 -264 -313 0
-212 -264 -314 0
-212 -264 -315 0
-212 -265 -291 0
-212 -265 -292 0
-212 -265 -293 0
-212 -265 -294 0
-212 -265 -295 0
-212 -265 -296 0
-212 -265 -297 0
-212 -265 -298 0
-212 -265 -299 0
-212 -265 -300 0
-212 -265 -301 0
-212 -265 -302 0
-212 -265 -303 0
-212 -265 -304 0
-212 -265 -305 0
-212 -265 -306 0
-212 -265 -307 0
-212 -265 -308 0
-212 -265 -309 0
-212 -265 -310 0
-212 -265 -311 0
-212 -265 -312 0
-212 -265 -313 0
-212 -265 -314 0
-212 -265 -315 0
-213 -241 -291 0
-213 -241 -292 0
-213 -241 -293 0
-213 -241 -294 0
-213 -241 -295 0
-213 -241 -296 0
-213 -241 -297 0
-213 -241 -298 0
-213 -241 -299 0
-213 -241 -300 0
-213 -241 -301 0
-213 -241 -302 0
-213 -241 -303 0
-213 -241 -304 0
-213 -241 -305 0
-213 -241 -306 0
-213 -241 -307 0
-213 -241 -308 0
-213 -241 -309 0
-213 -241 -310 0
-213 -241 -311 0
-213 -241 -312 0
-213 -241 -313 0
-213 -241 -314 0
-213 -241 -315 0
-213 -242 -291 0
-213 -242 -292 0
-213 -242 -293 0
-213 -242 -294 0
-213 -242 -295 0
-213 -242 -296 0
-213 -242 -297 0
-213 -242 -298 0
-213 -242 -299 0
-213 -242 -300 0
-213 -242 -301 0
-213 -242 -302 0
-213 -242 -303 0
-213 -242 -304 0
-213 -242 -305 0
-213 -242 -306 0
-213 -242 -307 0
-213 -242 -308 0
-213 -242 -309 0
-213 -242 -310 0
-213 -242 -311 0
-213 -242 -312 0
-213 -242 -313 0
-213 -242 -314 0
-213 -242 -315 0
-213 -243 -291 0
-213 -243 -292 0
-213 -243 -293 0
-213 -243 -294 0
-213 -243 -295 0
-213 -243 -296 0
-213 -243 -297 0
-213 -243 -298 0
-213 -243 -299 0
-213 -243 -300 0
-213 -243 -301 0
-213 -243 -302 0
-213 -243 -303 0
-213 -243 -304 0
-213 -243 -305 0
-213 -243 -306 0
-213 -243 -307 0
-213 -243 -308 0
-213 -243 -309 0
-213 -243 -310 0
-213 -243 -311 0
-213 -243 -312 0
-213 -243 -313 0
-213 -243 -314 0
-213 -243 -315 0
-213 -244 -291 0
-213 -244 -292 0
-213 -244 -293 0
-213 -244 -294 0
-213 -244 -295 0
-213 -244 -296 0
-213 -244 -297 0
-213 -244 -298 0
-213 -244 -299 0
-213 -244 -300 0
-213 -244 -301 0
-213 -244 -302 0
-213 -244 -303 0
-213 -244 -304 0
-213 -244 -305 0
-213 -244 -306 0
-213 -244 -307 0
-213 -244 -308 0
-213 -244 -309 0
-213 -244 -310 0
-213 -244 -311 0
-213 -244 -312 0
-213 -244 -313 0
-213 -244 -314 0
-213 -244 -315 0
-213 -245 -291 0
-213 -245 -292 0
-213 -245 -293 0
-213 -245 -294 0
-213 -245 -295 0
-213 -245 -296 0
-213 -245 -297 0
-213 -245 -298 0
-213 -245 -299 0
-213 -245 -300 0
-213 -245 -301 0
-213 -245 -302 0
-213 -245 -303 0
-213 -245 -304 0
-213 -245 -305 0
-213 -245 -306 0
-213 -245 -307 0
-213 -245 -308 0
-213 -245 -309 0
-213 -245 -310 0
-213 -245 -311 0
-213 -245 -312 0
-213 -245 -313 0
-213 -245 -314 0
-213 -245 -315 0
-213 -246 -291 0
-213 -246 -292 0
-213 -246 -293 0
-213 -246 -294 0
-213 -246 -295 0
-213 -246 -296 0
-213 -246 -297 0
-213 -246 -298 0
-213 -246 -299 0
-213 -246 -300 0
-213 -246 -301 0
-213 -246 -302 0
-213 -246 -303 0
-213 -246 -304 0
-213 -246 -305 0
-213 -246 -306 0
-213 -246 -307 0
-213 -246 -308 0
-213 -246 -309 0
-213 -246 -310 0
-213 -246 -311 0
-213 -246 -312 0
-213 -246 -313 0
-213 -246 -314 0
-213 -246 -315 0
-213 -247 -291 0
-213 -247 -292 0
-213 -247 -293 0
-213 -247 -294 0
-213 -247 -295 0
-213 -247 -296 0
-213 -247 -297 0
-213 -247 -298 0
-213 -247 -299 0
-213 -247 -300 0
-213 -247 -301 0
-213 -247 -302 0
-213 -247 -303 0
-213 -247 -304 0
-213 -247 -305 0
-213 -247 -306 0
-213 -247 -307 0
-213 -247 -308 0
-213 -247 -309 0
-213 -247 -310 0
-213 -247 -311 0
-213 -247 -312 0
-213 -247 -313 0
-213 -247 -314 0
-213 -247 -315 0
-213 -248 -291 0
-213 -248 -292 0
-213 -248 -293 0
-213 -248 -294 0
-213 -248 -295 0
-213 -248 -296 0
-213 -248 -297 0
-213 -248 -298 0
-213 -248 -299 0
-213 -248 -300 0
-213 -248 -301 0
-213 -248 -302 0
-213 -248 -303 0
-213 -248 -304 0
-213 -248 -305 0
-213 -248 -306 0
-213 -248 -307 0
-213 -248 -308 0
-213 -248 -309 0
-213 -248 -310 0
-213 -248 -311 0
-213 -248 -312 0
-213 -248 -313 0
-213 -248 -314 0
-213 -248 -315 0
-213 -249 -291 0
-213 -249 -292 0
-213 -249 -293 0
-213 -249 -294 0
-213 -249 -295 0
-213 -249 -296 0
-213 -249 -297 0
-213 -249 -298 0
-213 -249 -299 0
-213 -249 -300 0
-213 -249 -301 0
-213 -249 -302 0
-213 -249 -303 0
-213 -249 -304 0
-213 -249 -305 0
-213 -249 -306 0
-213 -249 -307 0
-213 -249 -308 0
-213 -249 -309 0
-213 -249 -310 0
-213 -249 -311 0
-213 -249 -312 0
-213 -249 -313 0
-213 -249 -314 0
-213 -249 -315 0
-213 -250 -291 0
-213 -250 -292 0
-213 -250 -293 0
-213 -250 -294 0
-213 -250 -295 0
-213 -250 -296 0
-213 -250 -297 0
-213 -250 -298 0
-213 -250 -299 0
-213 -250 -300 0
-213 -250 -301 0
-213 -250 -302 0
-213 -250 -303 0
-213 -250 -304 0
-213 -250 -305 0
-213 -250 -306 0
-213 -250 -307 0
-213 -250 -308 0
-213 -250 -309 0
-213 -250 -310 0
-213 -250 -311 0
-213 -250 -312 0
-213 -250 -313 0
-213 -250 -314 0
-213 -250 -315 0
-213 -251 -291 0
-213 -251 -292 0
-213 -251 -293 0
-213 -251 -294 0
-213 -251 -295 0
-213 -251 -296 0
-213 -251 -297 0
-213 -251 -298 0
-213 -251 -299 0
-213 -251 -300 0
-213 -251 -301 0
-213 -251 -302 0
-213 -251 -303 0
-213 -251 -304 0
-213 -251 -305 0
-213 -251 -306 0
-213 -251 -307 0
-213 -251 -308 0
-213 -251 -309 0
-213 -251 -310 0
-213 -251 -311 0
-213 -251 -312 0
-213 -251 -313 0
-213 -251 -314 0
-213 -251 -315 0
-213 -252 -291 0
-213 -252 -292 0
-213 -252 -293 0
-213 -252 -294 0
-213 -252 -295 0
-213 -252 -296 0
-213 -252 -297 0
-213 -252 -298 0
-213 -252 -299 0
-213 -252 -300 0
-213 -252 -301 0
-213 -252 -302 0
-213 -252 -303 0
-213 -252 -304 0
-213 -252 -305 0
-213 -252 -306 0
-213 -252 -307 0
-213 -252 -308 0
-213 -252 -309 0
-213 -252 -310 0
-213 -252 -311 0
-213 -252 -312 0
-213 -252 -313 0
-213 -252 -314 0
-213 -252 -315 0
-213 -253 -291 0
-213 -253 -292 0
-213 -253 -293 0
-213 -253 -294 0
-213 -253 -295 0
-213 -253 -296 0
-213 -253 -297 0
-213 -253 -298 0
-213 -253 -299 0
-213 -253 -300 0
-213 -253 -301 0
-213 -253 -302 0
-213 -253 -303 0
-213 -253 -304 0
-213 -253 -305 0
-213 -253 -306 0
-213 -253 -307 0
-213 -253 -308 0
-213 -253 -309 0
-213 -253 -310 0
-213 -253 -311 0
-213 -253 -312 0
-213 -253 -313 0
-213 -253 -314 0
-213 -253 -315 0
-213 -254 -291 0
-213 -254 -292 0
-213 -254 -293 0
-213 -254 -294 0
-213 -254 -295 0
-213 -254 -296 0
-213 -254 -297 0
-213 -254 -298 0
-213 -254 -299 0
-213 -254 -300 0
-213 -254 -301 0
-213 -254 -302 0
-213 -254 -303 0
-213 -254 -304 0
-213 -254 -305 0
-213 -254 -306 0
-213 -254 -307 0
-213 -254 -308 0
-213 -254 -309 0
-213 -254 -310 0
-213 -254 -311 0
-213 -254 -312 0
-213 -254 -313 0
-213 -254 -314 0
-213 -254 -315 0
-213 -255 -291 0
-213 -255 -292 0
-213 -255 -293 0
-213 -255 -294 0
-213 -255 -295 0
-213 -255 -296 0
-213 -255 -297 0
-213 -255 -298 0
-213 -255 -299 0
-213 -255 -300 0
-213 -255 -301 0
-213 -255 -302 0
-213 -255 -303 0
-213 -255 -304 0
-213 -255 -305 0
-213 -255 -306 0
-213 -255 -307 0
-213 -255 -308 0
-213 -255 -309 0
-213 -255 -310 0
-213 -255 -311 0
-213 -255 -312 0
-213 -255 -313 0
-213 -255 -314 0
-213 -255 -315 0
-213 -256 -291 0
-213 -256 -292 0
-213 -256 -293 0
-213 -256 -294 0
-213 -256 -295 0
-213 -256 -296 0
-213 -256 -297 0
-213 -256 -298 0
-213 -256 -299 0
-213 -256 -300 0
-213 -256 -301 0
-213 -256 -302 0
-213 -256 -303 0
-213 -256 -304 0
-213 -256 -305 0
-213 -256 -306 0
-213 -256 -307 0
-213 -256 -308 0
-213 -256 -309 0
-213 -256 -310 0
-213 -256 -311 0
-213 -256 -312 0
-213 -256 -313 0
-213 -256 -314 0
-213 -256 -315 0
-213 -257 -291 0
-213 -257 -292 0
-213 -257 -293 0
-213 -257 -294 0
-213 -257 -295 0
-213 -257 -296 0
-213 -257 -297 0
-213 -257 -298 0
-213 -257 -299 0
-213 -257 -300 0
-213 -257 -301 0
-213 -257 -302 0
-213 -257 -303 0
-213 -257 -304 0
-213 -257 -305 0
-213 -257 -306 0
-213 -257 -307 0
-213 -257 -308 0
-213 -257 -309 0
-213 -257 -310 0
-213 -257 -311 0
-213 -257 -312 0
-213 -257 -313 0
-213 -257 -314 0
-213 -257 -315 0
-213 -258 -291 0
-213 -258 -292 0
-213 -258 -293 0
-213 -258 -294 0
-213 -258 -295 0
-213 -258 -296 0
-213 -258 -297 0
-213 -258 -298 0
-213 -258 -299 0
-213 -258 -300 0
-213 -258 -301 0
-213 -258 -302 0
-213 -258 -303 0
-213 -258 -304 0
-213 -258 -305 0
-213 -258 -306 0
-213 -258 -307 0
-213 -258 -308 0
-213 -258 -309 0
-213 -258 -310 0
-213 -258 -311 0
-213 -258 -312 0
-213 -258 -313 0
-213 -258 -314 0
-213 -258 -315 0
-213 -259 -291 0
-213 -259 -292 0
-213 -259 -293 0
-213 -259 -294 0
-213 -259 -295 0
-213 -259 -296 0
-213 -259 -297 0
-213 -259 -298 0
-213 -259 -299 0
-213 -259 -300 0
-213 -259 -301 0
-213 -259 -302 0
-213 -259 -303 0
-213 -259 -304 0
-213 -259 -305 0
-213 -259 -306 0
-213 -259 -307 0
-213 -259 -308 0
-213 -259 -309 0
-213 -259 -310 0
-213 -259 -311 0
-213 -259 -312 0
-213 -259 -313 0
-213 -259 -314 0
-213 -259 -315 0
-213 -260 -291 0
-213 -260 -292 0
-213 -260 -293 0
-213 -260 -294 0
-213 -260 -295 0
-213 -260 -296 0
-213 -260 -297 0
-213 -260 -298 0
-213 -260 -299 0
-213 -260 -300 0
-213 -260 -301 0
-213 -260 -302 0
-213 -260 -303 0
-213 -260 -304 0
-213 -260 -305 0
-213 -260 -306 0
-213 -260 -307 0
-213 -260 -308 0
-213 -260 -309 0
-213 -260 -310 0
-213 -260 -311 0
-213 -260 -312 0
-213 -260 -313 0
-213 -260 -314 0
-213 -260 -315 0
-213 -261 -291 0
-213 -261 -292 0
-213 -261 -293 0
-213 -261 -294 0
-213 -261 -295 0
-213 -261 -296 0
-213 -261 -297 0
-213 -261 -298 0
-213 -261 -299 0
-213 -261 -300 0
-213 -261 -301 0
-213 -261 -302 0
-213 -261 -303 0
-213 -261 -304 0
-213 -261 -305 0
-213 -261 -306 0
-213 -261 -307 0
-213 -261 -308 0
-213 -261 -309 0
-213 -261 -310 0
-213 -261 -311 0
-213 -261 -312 0
-213 -261 -313 0
-213 -261 -314 0
-213 -261 -315 0
-213 -262 -291 0
-213 -262 -292 0
-213 -262 -293 0
-213 -262 -294 0
-213 -262 -295 0
-213 -262 -296 0
-213 -262 -297 0
-213 -262 -298 0
-213 -262 -299 0
-213 -262 -300 0
-213 -262 -301 0
-213 -262 -302 0
-213 -262 -303 0
-213 -262 -304 0
-213 -262 -305 0
-213 -262 -306 0
-213 -262 -307 0
-213 -262 -308 0
-213 -262 -309 0
-213 -262 -310 0
-213 -262 -311 0
-213 -262 -312 0
-213 -262 -313 0
-213 -262 -314 0
-213 -262 -315 0
-213 -263 -291 0
-213 -263 -292 0
-213 -263 -293 0
-213 -263 -294 0
-213 -263 -295 0
-213 -263 -296 0
-213 -263 -297 0
-213 -263 -298 0
-213 -263 -299 0
-213 -263 -300 0
-213 -263 -301 0
-213 -263 -302 0
-213 -263 -303 0
-213 -263 -304 0
-213 -263 -305 0
-213 -263 -306 0
-213 -263 -307 0
-213 -263 -308 0
-213 -263 -309 0
-213 -263 -310 0
-213 -263 -311 0
-213 -263 -312 0
-213 -263 -313 0
-213 -263 -314 0
-213 -263 -315 0
-213 -264 -291 0
-213 -264 -292 0
-213 -264 -293 0
-213 -264 -294 0
-213 -264 -295 0
-213 -264 -296 0
-213 -264 -297 0
-213 -264 -298 0
-213 -264 -299 0
-213 -264 -300 0
-213 -264 -301 0
-213 -264 -302 0
-213 -264 -303 0
-213 -264 -304 0
-213 -264 -305 0
-213 -264 -306 0
-213 -264 -307 0
-213 -264 -308 0
-213 -264 -309 0
-213 -264 -310 0
-213 -264 -311 0
-213 -264 -312 0
-213 -264 -313 0
-213 -264 -314 0
-213 -264 -315 0
-213 -265 -291 0
-213 -265 -292 0
-213 -265 -293 0
-213 -265 -294 0
-213 -265 -295 0
-213 -265 -296 0
-213 -265 -297 0
-213 -265 -298 0
-213 -265 -299 0
-213 -265 -300 0
-213 -265 -301 0
-213 -265 -302 0
-213 -265 -303 0
-213 -265 -304 0
-213 -265 -305 0
-213 -265 -306 0
-213 -265 -307 0
-213 -265 -308 0
-213 -265 -309 0
-213 -265 -310 0
-213 -265 -311 0
-213 -265 -312 0
-213 -265 -313 0
-213 -265 -314 0
-213 -265 -315 0
-214 -241 -291 0
-214 -241 -292 0
-214 -241 -293 0
-214 -241 -294 0
-214 -241 -295 0
-214 -241 -296 0
-214 -241 -297 0
-214 -241 -298 0
-214 -241 -299 0
-214 -241 -300 0
-214 -241 -301 0
-214 -241 -302 0
-214 -241 -303 0
-214 -241 -304 0
-214 -241 -305 0
-214 -241 -306 0
-214 -241 -307 0
-214 -241 -308 0
-214 -241 -309 0
-214 -241 -310 0
-214 -241 -311 0
-214 -241 -312 0
-214 -241 -313 0
-214 -241 -314 0
-214 -241 -315 0
-214 -242 -291 0
-214 -242 -292 0
-214 -242 -293 0
-214 -242 -294 0
-214 -242 -295 0
-214 -242 -296 0
-214 -242 -297 0
-214 -242 -298 0
-214 -242 -299 0
-214 -242 -300 0
-214 -242 -301 0
-214 -242 -302 0
-214 -242 -303 0
-214 -242 -304 0
-214 -242 -305 0
-214 -242 -306 0
-214 -242 -307 0
-214 -242 -308 0
-214 -242 -309 0
-214 -242 -310 0
-214 -242 -311 0
-214 -242 -312 0
-214 -242 -313 0
-214 -242 -314 0
-214 -242 -315 0
-214 -243 -291 0
-214 -243 -292 0
-214 -243 -293 0
-214 -243 -294 0
-214 -243 -295 0
-214 -243 -296 0
-214 -243 -297 0
-214 -243 -298 0
-214 -243 -299 0
-214 -243 -300 0
-214 -243 -301 0
-214 -243 -302 0
-214 -243 -303 0
-214 -243 -304 0
-214 -243 -305 0
-214 -243 -306 0
-214 -243 -307 0
-214 -243 -308 0
-214 -243 -309 0
-214 -243 -310 0
-214 -243 -311 0
-214 -243 -312 0
-214 -243 -313 0
-214 -243 -314 0
-214 -243 -315 0
-214 -244 -291 0
-214 -244 -292 0
-214 -244 -293 0
-214 -244 -294 0
-214 -244 -295 0
-214 -244 -296 0
-214 -244 -297 0
-214 -244 -298 0
-214 -244 -299 0
-214 -244 -300 0
-214 -244 -301 0
-214 -244 -302 0
-214 -244 -303 0
-214 -244 -304 0
-214 -244 -305 0
-214 -244 -306 0
-214 -244 -307 0
-214 -244 -308 0
-214 -244 -309 0
-214 -244 -310 0
-214 -244 -311 0
-214 -244 -312 0
-214 -244 -313 0
-214 -244 -314 0
-214 -244 -315 0
-214 -245 -291 0
-214 -245 -292 0
-214 -245 -293 0
-214 -245 -294 0
-214 -245 -295 0
-214 -245 -296 0
-214 -245 -297 0
-214 -245 -298 0
-214 -245 -299 0
-214 -245 -300 0
-214 -245 -301 0
-214 -245 -302 0
-214 -245 -303 0
-214 -245 -304 0
-214 -245 -305 0
-214 -245 -306 0
-214 -245 -307 0
-214 -245 -308 0
-214 -245 -309 0
-214 -245 -310 0
-214 -245 -311 0
-214 -245 -312 0
-214 -245 -313 0
-214 -245 -314 0
-214 -245 -315 0
-214 -246 -291 0
-214 -246 -292 0
-214 -246 -293 0
-214 -246 -294 0
-214 -246 -295 0
-214 -246 -296 0
-214 -246 -297 0
-214 -246 -298 0
-214 -246 -299 0
-214 -246 -300 0
-214 -246 -301 0
-214 -246 -302 0
-214 -246 -303 0
-214 -246 -304 0
-214 -246 -305 0
-214 -246 -306 0
-214 -246 -307 0
-214 -246 -308 0
-214 -246 -309 0
-214 -246 -310 0
-214 -246 -311 0
-214 -246 -312 0
-214 -246 -313 0
-214 -246 -314 0
-214 -246 -315 0
-214 -247 -291 0
-214 -247 -292 0
-214 -247 -293 0
-214 -247 -294 0
-214 -247 -295 0
-214 -247 -296 0
-214 -247 -297 0
-214 -247 -298 0
-214 -247 -299 0
-214 -247 -300 0
-214 -247 -301 0
-214 -247 -302 0
-214 -247 -303 0
-214 -247 -304 0
-214 -247 -305 0
-214 -247 -306 0
-214 -247 -307 0
-214 -247 -308 0
-214 -247 -309 0
-214 -247 -310 0
-214 -247 -311 0
-214 -247 -312 0
-214 -247 -313 0
-214 -247 -314 0
-214 -247 -315 0
-214 -248 -291 0
-214 -248 -292 0
-214 -248 -293 0
-214 -248 -294 0
-214 -248 -295 0
-214 -248 -296 0
-214 -248 -297 0
-214 -248 -298 0
-214 -248 -299 0
-214 -248 -300 0
-214 -248 -301 0
-214 -248 -302 0
-214 -248 -303 0
-214 -248 -304 0
-214 -248 -305 0
-214 -248 -306 0
-214 -248 -307 0
-214 -248 -308 0
-214 -248 -309 0
-214 -248 -310 0
-214 -248 -311 0
-214 -248 -312 0
-214 -248 -313 0
-214 -248 -314 0
-214 -248 -315 0
-214 -249 -291 0
-214 -249 -292 0
-214 -249 -293 0
-214 -249 -294 0
-214 -249 -295 0
-214 -249 -296 0
-214 -249 -297 0
-214 -249 -298 0
-214 -249 -299 0
-214 -249 -300 0
-214 -249 -301 0
-214 -249 -302 0
-214 -249 -303 0
-214 -249 -304 0
-214 -249 -305 0
-214 -249 -306 0
-214 -249 -307 0
-214 -249 -308 0
-214 -249 -309 0
-214 -249 -310 0
-214 -249 -311 0
-214 -249 -312 0
-214 -249 -313 0
-214 -249 -314 0
-214 -249 -315 0
-214 -250 -291 0
-214 -250 -292 0
-214 -250 -293 0
-214 -250 -294 0
-214 -250 -295 0
-214 -250 -296 0
-214 -250 -297 0
-214 -250 -298 0
-214 -250 -299 0
-214 -250 -300 0
-214 -250 -301 0
-214 -250 -302 0
-214 -250 -303 0
-214 -250 -304 0
-214 -250 -305 0
-214 -250 -306 0
-214 -250 -307 0
-214 -250 -308 0
-214 -250 -309 0
-214 -250 -310 0
-214 -250 -311 0
-214 -250 -312 0
-214 -250 -313 0
-214 -250 -314 0
-214 -250 -315 0
-214 -251 -291 0
-214 -251 -292 0
-214 -251 -293 0
-214 -251 -294 0
-214 -251 -295 0
-214 -251 -296 0
-214 -251 -297 0
-214 -251 -298 0
-214 -251 -299 0
-214 -251 -300 0
-214 -251 -301 0
-214 -251 -302 0
-214 -251 -303 0
-214 -251 -304 0
-214 -251 -305 0
-214 -251 -306 0
-214 -251 -307 0
-214 -251 -308 0
-214 -251 -309 0
-214 -251 -310 0
-214 -251 -311 0
-214 -251 -312 0
-214 -251 -313 0
-214 -251 -314 0
-214 -251 -315 0
-214 -252 -291 0
-214 -252 -292 0
-214 -252 -293 0
-214 -252 -294 0
-214 -252 -295 0
-214 -252 -296 0
-214 -252 -297 0
-214 -252 -298 0
-214 -252 -299 0
-214 -252 -300 0
-214 -252 -301 0
-214 -252 -302 0
-214 -252 -303 0
-214 -252 -304 0
-214 -252 -305 0
-214 -252 -306 0
-214 -252 -307 0
-214 -252 -308 0
-214 -252 -309 0
-214 -252 -310 0
-214 -252 -311 0
-214 -252 -312 0
-214 -252 -313 0
-214 -252 -314 0
-214 -252 -315 0
-214 -253 -291 0
-214 -253 -292 0
-214 -253 -293 0
-214 -253 -294 0
-214 -253 -295 0
-214 -253 -296 0
-214 -253 -297 0
-214 -253 -298 0
-214 -253 -299 0
-214 -253 -300 0
-214 -253 -301 0
-214 -253 -302 0
-214 -253 -303 0
-214 -253 -304 0
-214 -253 -305 0
-214 -253 -306 0
-214 -253 -307 0
-214 -253 -308 0
-214 -253 -309 0
-214 -253 -310 0
-214 -253 -311 0
-214 -253 -312 0
-214 -253 -313 0
-214 -253 -314 0
-214 -253 -315 0
-214 -254 -291 0
-214 -254 -292 0
-214 -254 -293 0
-214 -254 -294 0
-214 -254 -295 0
-214 -254 -296 0
-214 -254 -297 0
-214 -254 -298 0
-214 -254 -299 0
-214 -254 -300 0
-214 -254 -301 0
-214 -254 -302 0
-214 -254 -303 0
-214 -254 -304 0
-214 -254 -305 0
-214 -254 -306 0
-214 -254 -307 0
-214 -254 -308 0
-214 -254 -309 0
-214 -254 -310 0
-214 -254 -311 0
-214 -254 -312 0
-214 -254 -313 0
-214 -254 -314 0
-214 -254 -315 0
-214 -255 -291 0
-214 -255 -292 0
-214 -255 -293 0
-214 -255 -294 0
-214 -255 -295 0
-214 -255 -296 0
-214 -255 -297 0
-214 -255 -298 0
-214 -255 -299 0
-214 -255 -300 0
-214 -255 -301 0
-214 -255 -302 0
-214 -255 -303 0
-214 -255 -304 0
-214 -255 -305 0
-214 -255 -306 0
-214 -255 -307 0
-214 -255 -308 0
-214 -255 -309 0
-214 -255 -310 0
-214 -255 -311 0
-214 -255 -312 0
-214 -255 -313 0
-214 -255 -314 0
-214 -255 -315 0
-214 -256 -291 0
-214 -256 -292 0
-214 -256 -293 0
-214 -256 -294 0
-214 -256 -295 0
-214 -256 -296 0
-214 -256 -297 0
-214 -256 -298 0
-214 -256 -299 0
-214 -256 -300 0
-214 -256 -301 0
-214 -256 -302 0
-214 -256 -303 0
-214 -256 -304 0
-214 -256 -305 0
-214 -256 -306 0
-214 -256 -307 0
-214 -256 -308 0
-214 -256 -309 0
-214 -256 -310 0
-214 -256 -311 0
-214 -256 -312 0
-214 -256 -313 0
-214 -256 -314 0
-214 -256 -315 0
-214 -257 -291 0
-214 -257 -292 0
-214 -257 -293 0
-214 -257 -294 0
-214 -257 -295 0
-214 -257 -296 0
-214 -257 -297 0
-214 -257 -298 0
-214 -257 -299 0
-214 -257 -300 0
-214 -257 -301 0
-214 -257 -302 0
-214 -257 -303 0
-214 -257 -304 0
-214 -257 -305 0
-214 -257 -306 0
-214 -257 -307 0
-214 -257 -308 0
-214 -257 -309 0
-214 -257 -310 0
-214 -257 -311 0
-214 -257 -312 0
-214 -257 -313 0
-214 -257 -314 0
-214 -257 -315 0
-214 -258 -291 0
-214 -258 -292 0
-214 -258 -293 0
-214 -258 -294 0
-214 -258 -295 0
-214 -258 -296 0
-214 -258 -297 0
-214 -258 -298 0
-214 -258 -299 0
-214 -258 -300 0
-214 -258 -301 0
-214 -258 -302 0
-214 -258 -303 0
-214 -258 -304 0
-214 -258 -305 0
-214 -258 -306 0
-214 -258 -307 0
-214 -258 -308 0
-214 -258 -309 0
-214 -258 -310 0
-214 -258 -311 0
-214 -258 -312 0
-214 -258 -313 0
-214 -258 -314 0
-214 -258 -315 0
-214 -259 -291 0
-214 -259 -292 0
-214 -259 -293 0
-214 -259 -294 0
-214 -259 -295 0
-214 -259 -296 0
-214 -259 -297 0
-214 -259 -298 0
-214 -259 -299 0
-214 -259 -300 0
-214 -259 -301 0
-214 -259 -302 0
-214 -259 -303 0
-214 -259 -304 0
-214 -259 -305 0
-214 -259 -306 0
-214 -259 -307 0
-214 -259 -308 0
-214 -259 -309 0
-214 -259 -310 0
-214 -259 -311 0
-214 -259 -312 0
-214 -259 -313 0
-214 -259 -314 0
-214 -259 -315 0
-214 -260 -291 0
-214 -260 -292 0
-214 -260 -293 0
-214 -260 -294 0
-214 -260 -295 0
-214 -260 -296 0
-214 -260 -297 0
-214 -260 -298 0
-214 -260 -299 0
-214 -260 -300 0
-214 -260 -301 0
-214 -260 -302 0
-214 -260 -303 0
-214 -260 -304 0
-214 -260 -305 0
-214 -260 -306 0
-214 -260 -307 0
-214 -260 -308 0
-214 -260 -309 0
-214 -260 -310 0
-214 -260 -311 0
-214 -260 -312 0
-214 -260 -313 0
-214 -260 -314 0
-214 -260 -315 0
-214 -261 -291 0
-214 -261 -292 0
-214 -261 -293 0
-214 -261 -294 0
-214 -261 -295 0
-214 -261 -296 0
-214 -261 -297 0
-214 -261 -298 0
-214 -261 -299 0
-214 -261 -300 0
-214 -261 -301 0
-214 -261 -302 0
-214 -261 -303 0
-214 -261 -304 0
-214 -261 -305 0
-214 -261 -306 0
-214 -261 -307 0
-214 -261 -308 0
-214 -261 -309 0
-214 -261 -310 0
-214 -261 -311 0
-214 -261 -312 0
-214 -261 -313 0
-214 -261 -314 0
-214 -261 -315 0
-214 -262 -291 0
-214 -262 -292 0
-214 -262 -293 0
-214 -262 -294 0
-214 -262 -295 0
-214 -262 -296 0
-214 -262 -297 0
-214 -262 -298 0
-214 -262 -299 0
-214 -262 -300 0
-214 -262 -301 0
-214 -262 -302 0
-214 -262 -303 0
-214 -262 -304 0
-214 -262 -305 0
-214 -262 -306 0
-214 -262 -307 0
-214 -262 -308 0
-214 -262 -309 0
-214 -262 -310 0
-214 -262 -311 0
-214 -262 -312 0
-214 -262 -313 0
-214 -262 -314 0
-214 -262 -315 0
-214 -263 -291 0
-214 -263 -292 0
-214 -263 -293 0
-214 -263 -294 0
-214 -263 -295 0
-214 -263 -296 0
-214 -263 -297 0
-214 -263 -298 0
-214 -263 -299 0
-214 -263 -300 0
-214 -263 -301 0
-214 -263 -302 0
-214 -263 -303 0
-214 -263 -304 0
-214 -263 -305 0
-214 -263 -306 0
-214 -263 -307 0
-214 -263 -308 0
-214 -263 -309 0
-214 -263 -310 0
-214 -263 -311 0
-214 -263 -312 0
-214 -263 -313 0
-214 -263 -314 0
-214 -263 -315 0
-214 -264 -291 0
-214 -264 -292 0
-214 -264 -293 0
-214 -264 -294 0
-214 -264 -295 0
-214 -264 -296 0
-214 -264 -297 0
-214 -264 -298 0
-214 -264 -299 0
-214 -264 -300 0
-214 -264 -301 0
-214 -264 -302 0
-214 -264 -303 0
-214 -264 -304 0
-214 -264 -305 0
-214 -264 -306 0
-214 -264 -307 0
-214 -264 -308 0
-214 -264 -309 0
-214 -264 -310 0
-214 -264 -311 0
-214 -264 -312 0
-214 -264 -313 0
-214 -264 -314 0
-214 -264 -315 0
-214 -265 -291 0
-214 -265 -292 0
-214 -265 -293 0
-214 -265 -294 0
-214 -265 -295 0
-214 -265 -296 0
-214 -265 -297 0
-214 -265 -298 0
-214 -265 -299 0
-214 -265 -300 0
-214 -265 -301 0
-214 -265 -302 0
-214 -265 -303 0
-214 -265 -304 0
-214 -265 -305 0
-214 -265 -306 0
-214 -265 -307 0
-214 -265 -308 0
-214 -265 -309 0
-214 -265 -310 0
-214 -265 -311 0
-214 -265 -312 0
-214 -265 -313 0
-214 -265 -314 0
-214 -265 -315 0
-215 -241 -291 0
-215 -241 -292 0
-215 -241 -293 0
-215 -241 -294 0
-215 -241 -295 0
-215 -241 -296 0
-215 -241 -297 0
-215 -241 -298 0
-215 -241 -299 0
-215 -241 -300 0
-215 -241 -301 0
-215 -241 -302 0
-215 -241 -303 0
-215 -241 -304 0
-215 -241 -305 0
-215 -241 -306 0
-215 -241 -307 0
-215 -241 -308 0
-215 -241 -309 0
-215 -241 -310 0
-215 -241 -311 0
-215 -241 -312 0
-215 -241 -313 0
-215 -241 -314 0
-215 -241 -315 0
-215 -242 -291 0
-215 -242 -292 0
-215 -242 -293 0
-215 -242 -294 0
-215 -242 -295 0
-215 -242 -296 0
-215 -242 -297 0
-215 -242 -298 0
-215 -242 -299 0
-215 -242 -300 0
-215 -242 -301 0
-215 -242 -302 0
-215 -242 -303 0
-215 -242 -304 0
-215 -242 -305 0
-215 -242 -306 0
-215 -242 -307 0
-215 -242 -308 0
-215 -242 -309 0
-215 -242 -310 0
-215 -242 -311 0
-215 -242 -312 0
-215 -242 -313 0
-215 -242 -314 0
-215 -242 -315 0
-215 -243 -291 0
-215 -243 -292 0
-215 -243 -293 0
-215 -243 -294 0
-215 -243 -295 0
-215 -243 -296 0
-215 -243 -297 0
-215 -243 -298 0
-215 -243 -299 0
-215 -243 -300 0
-215 -243 -301 0
-215 -243 -302 0
-215 -243 -303 0
-215 -243 -304 0
-215 -243 -305 0
-215 -243 -306 0
-215 -243 -307 0
-215 -243 -308 0
-215 -243 -309 0
-215 -243 -310 0
-215 -243 -311 0
-215 -243 -312 0
-215 -243 -313 0
-215 -243 -314 0
-215 -243 -315 0
-215 -244 -291 0
-215 -244 -292 0
-215 -244 -293 0
-215 -244 -294 0
-215 -244 -295 0
-215 -244 -296 0
-215 -244 -297 0
-215 -244 -298 0
-215 -244 -299 0
-215 -244 -300 0
-215 -244 -301 0
-215 -244 -302 0
-215 -244 -303 0
-215 -244 -304 0
-215 -244 -305 0
-215 -244 -306 0
-215 -244 -307 0
-215 -244 -308 0
-215 -244 -309 0
-215 -244 -310 0
-215 -244 -311 0
-215 -244 -312 0
-215 -244 -313 0
-215 -244 -314 0
-215 -244 -315 0
-215 -245 -291 0
-215 -245 -292 0
-215 -245 -293 0
-215 -245 -294 0
-215 -245 -295 0
-215 -245 -296 0
-215 -245 -297 0
-215 -245 -298 0
-215 -245 -299 0
-215 -245 -300 0
-215 -245 -301 0
-215 -245 -302 0
-215 -245 -303 0
-215 -245 -304 0
-215 -245 -305 0
-215 -245 -306 0
-215 -245 -307 0
-215 -245 -308 0
-215 -245 -309 0
-215 -245 -310 0
-215 -245 -311 0
-215 -245 -312 0
-215 -245 -313 0
-215 -245 -314 0
-215 -245 -315 0
-215 -246 -291 0
-215 -246 -292 0
-215 -246 -293 0
-215 -246 -294 0
-215 -246 -295 0
-215 -246 -296 0
-215 -246 -297 0
-215 -246 -298 0
-215 -246 -299 0
-215 -246 -300 0
-215 -246 -301 0
-215 -246 -302 0
-215 -246 -303 0
-215 -246 -304 0
-215 -246 -305 0
-215 -246 -306 0
-215 -246 -307 0
-215 -246 -308 0
-215 -246 -309 0
-215 -246 -310 0
-215 -246 -311 0
-215 -246 -312 0
-215 -246 -313 0
-215 -246 -314 0
-215 -246 -315 0
-215 -247 -291 0
-215 -247 -292 0
-215 -247 -293 0
-215 -247 -294 0
-215 -247 -295 0
-215 -247 -296 0
-215 -247 -297 0
-215 -247 -298 0
-215 -247 -299 0
-215 -247 -300 0
-215 -247 -301 0
-215 -247 -302 0
-215 -247 -303 0
-215 -247 -304 0
-215 -247 -305 0
-215 -247 -306 0
-215 -247 -307 0
-215 -247 -308 0
-215 -247 -309 0
-215 -247 -310 0
-215 -247 -311 0
-215 -247 -312 0
-215 -247 -313 0
-215 -247 -314 0
-215 -247 -315 0
-215 -248 -291 0
-215 -248 -292 0
-215 -248 -293 0
-215 -248 -294 0
-215 -248 -295 0
-215 -248 -296 0
-215 -248 -297 0
-215 -248 -298 0
-215 -248 -299 0
-215 -248 -300 0
-215 -248 -301 0
-215 -248 -302 0
-215 -248 -303 0
-215 -248 -304 0
-215 -248 -305 0
-215 -248 -306 0
-215 -248 -307 0
-215 -248 -308 0
-215 -248 -309 0
-215 -248 -310 0
-215 -248 -311 0
-215 -248 -312 0
-215 -248 -313 0
-215 -248 -314 0
-215 -248 -315 0
-215 -249 -291 0
-215 -249 -292 0
-215 -249 -293 0
-215 -249 -294 0
-215 -249 -295 0
-215 -249 -296 0
-215 -249 -297 0
-215 -249 -298 0
-215 -249 -299 0
-215 -249 -300 0
-215 -249 -301 0
-215 -249 -302 0
-215 -249 -303 0
-215 -249 -304 0
-215 -249 -305 0
-215 -249 -306 0
-215 -249 -307 0
-215 -249 -308 0
-215 -249 -309 0
-215 -249 -310 0
-215 -249 -311 0
-215 -249 -312 0
-215 -249 -313 0
-215 -249 -314 0
-215 -249 -315 0
-215 -250 -291 0
-215 -250 -292 0
-215 -250 -293 0
-215 -250 -294 0
-215 -250 -295 0
-215 -250 -296 0
-215 -250 -297 0
-215 -250 -298 0
-215 -250 -299 0
-215 -250 -300 0
-215 -250 -301 0
-215 -250 -302 0
-215 -250 -303 0
-215 -250 -304 0
-215 -250 -305 0
-215 -250 -306 0
-215 -250 -307 0
-215 -250 -308 0
-215 -250 -309 0
-215 -250 -310 0
-215 -250 -311 0
-215 -250 -312 0
-215 -250 -313 0
-215 -250 -314 0
-215 -250 -315 0
-215 -251 -291 0
-215 -251 -292 0
-215 -251 -293 0
-215 -251 -294 0
-215 -251 -295 0
-215 -251 -296 0
-215 -251 -297 0
-215 -251 -298 0
-215 -251 -299 0
-215 -251 -300 0
-215 -251 -301 0
-215 -251 -302 0
-215 -251 -303 0
-215 -251 -304 0
-215 -251 -305 0
-215 -251 -306 0
-215 -251 -307 0
-215 -251 -308 0
-215 -251 -309 0
-215 -251 -310 0
-215 -251 -311 0
-215 -251 -312 0
-215 -251 -313 0
-215 -251 -314 0
-215 -251 -315 0
-215 -252 -291 0
-215 -252 -292 0
-215 -252 -293 0
-215 -252 -294 0
-215 -252 -295 0
-215 -252 -296 0
-215 -252 -297 0
-215 -252 -298 0
-215 -252 -299 0
-215 -252 -300 0
-215 -252 -301 0
-215 -252 -302 0
-215 -252 -303 0
-215 -252 -304 0
-215 -252 -305 0
-215 -252 -306 0
-215 -252 -307 0
-215 -252 -308 0
-215 -252 -309 0
-215 -252 -310 0
-215 -252 -311 0
-215 -252 -312 0
-215 -252 -313 0
-215 -252 -314 0
-215 -252 -315 0
-215 -253 -291 0
-215 -253 -292 0
-215 -253 -293 0
-215 -253 -294 0
-215 -253 -295 0
-215 -253 -296 0
-215 -253 -297 0
-215 -253 -298 0
-215 -253 -299 0
-215 -253 -300 0
-215 -253 -301 0
-215 -253 -302 0
-215 -253 -303 0
-215 -253 -304 0
-215 -253 -305 0
-215 -253 -306 0
-215 -253 -307 0
-215 -253 -308 0
-215 -253 -309 0
-215 -253 -310 0
-215 -253 -311 0
-215 -253 -312 0
-215 -253 -313 0
-215 -253 -314 0
-215 -253 -315 0
-215 -254 -291 0
-215 -254 -292 0
-215 -254 -293 0
-215 -254 -294 0
-215 -254 -295 0
-215 -254 -296 0
-215 -254 -297 0
-215 -254 -298 0
-215 -254 -299 0
-215 -254 -300 0
-215 -254 -301 0
-215 -254 -302 0
-215 -254 -303 0
-215 -254 -304 0
-215 -254 -305 0
-215 -254 -306 0
-215 -254 -307 0
-215 -254 -308 0
-215 -254 -309 0
-215 -254 -310 0
-215 -254 -311 0
-215 -254 -312 0
-215 -254 -313 0
-215 -254 -314 0
-215 -254 -315 0
-215 -255 -291 0
-215 -255 -292 0
-215 -255 -293 0
-215 -255 -294 0
-215 -255 -295 0
-215 -255 -296 0
-215 -255 -297 0
-215 -255 -298 0
-215 -255 -299 0
-215 -255 -300 0
-215 -255 -301 0
-215 -255 -302 0
-215 -255 -303 0
-215 -255 -304 0
-215 -255 -305 0
-215 -255 -306 0
-215 -255 -307 0
-215 -255 -308 0
-215 -255 -309 0
-215 -255 -310 0
-215 -255 -311 0
-215 -255 -312 0
-215 -255 -313 0
-215 -255 -314 0
-215 -255 -315 0
-215 -256 -291 0
-215 -256 -292 0
-215 -256 -293 0
-215 -256 -294 0
-215 -256 -295 0
-215 -256 -296 0
-215 -256 -297 0
-215 -256 -298 0
-215 -256 -299 0
-215 -256 -300 0
-215 -256 -301 0
-215 -256 -302 0
-215 -256 -303 0
-215 -256 -304 0
-215 -256 -305 0
-215 -256 -306 0
-215 -256 -307 0
-215 -256 -308 0
-215 -256 -309 0
-215 -256 -310 0
-215 -256 -311 0
-215 -256 -312 0
-215 -256 -313 0
-215 -256 -314 0
-215 -256 -315 0
-215 -257 -291 0
-215 -257 -292 0
-215 -257 -293 0
-215 -257 -294 0
-215 -257 -295 0
-215 -257 -296 0
-215 -257 -297 0
-215 -257 -298 0
-215 -257 -299 0
-215 -257 -300 0
-215 -257 -301 0
-215 -257 -302 0
-215 -257 -303 0
-215 -257 -304 0
-215 -257 -305 0
-215 -257 -306 0
-215 -257 -307 0
-215 -257 -308 0
-215 -257 -309 0
-215 -257 -310 0
-215 -257 -311 0
-215 -257 -312 0
-215 -257 -313 0
-215 -257 -314 0
-215 -257 -315 0
-215 -258 -291 0
-215 -258 -292 0
-215 -258 -293 0
-215 -258 -294 0
-215 -258 -295 0
-215 -258 -296 0
-215 -258 -297 0
-215 -258 -298 0
-215 -258 -299 0
-215 -258 -300 0
-215 -258 -301 0
-215 -258 -302 0
-215 -258 -303 0
-215 -258 -304 0
-215 -258 -305 0
-215 -258 -306 0
-215 -258 -307 0
-215 -258 -308 0
-215 -258 -309 0
-215 -258 -310 0
-215 -258 -311 0
-215 -258 -312 0
-215 -258 -313 0
-215 -258 -314 0
-215 -258 -315 0
-215 -259 -291 0
-215 -259 -292 0
-215 -259 -293 0
-215 -259 -294 0
-215 -259 -295 0
-215 -259 -296 0
-215 -259 -297 0
-215 -259 -298 0
-215 -259 -299 0
-215 -259 -300 0
-215 -259 -301 0
-215 -259 -302 0
-215 -259 -303 0
-215 -259 -304 0
-215 -259 -305 0
-215 -259 -306 0
-215 -259 -307 0
-215 -259 -308 0
-215 -259 -309 0
-215 -259 -310 0
-215 -259 -311 0
-215 -259 -312 0
-215 -259 -313 0
-215 -259 -314 0
-215 -259 -315 0
-215 -260 -291 0
-215 -260 -292 0
-215 -260 -293 0
-215 -260 -294 0
-215 -260 -295 0
-215 -260 -296 0
-215 -260 -297 0
-215 -260 -298 0
-215 -260 -299 0
-215 -260 -300 0
-215 -260 -301 0
-215 -260 -302 0
-215 -260 -303 0
-215 -260 -304 0
-215 -260 -305 0
-215 -260 -306 0
-215 -260 -307 0
-215 -260 -308 0
-215 -260 -309 0
-215 -260 -310 0
-215 -260 -311 0
-215 -260 -312 0
-215 -260 -313 0
-215 -260 -314 0
-215 -260 -315 0
-215 -261 -291 0
-215 -261 -292 0
-215 -261 -293 0
-215 -261 -294 0
-215 -261 -295 0
-215 -261 -296 0
-215 -261 -297 0
-215 -261 -298 0
-215 -261 -299 0
-215 -261 -300 0
-215 -261 -301 0
-215 -261 -302 0
-215 -261 -303 0
-215 -261 -304 0
-215 -261 -305 0
-215 -261 -306 0
-215 -261 -307 0
-215 -261 -308 0
-215 -261 -309 0
-215 -261 -310 0
-215 -261 -311 0
-215 -261 -312 0
-215 -261 -313 0
-215 -261 -314 0
-215 -261 -315 0
-215 -262 -291 0
-215 -262 -292 0
-215 -262 -293 0
-215 -262 -294 0
-215 -262 -295 0
-215 -262 -296 0
-215 -262 -297 0
-215 -262 -298 0
-215 -262 -299 0
-215 -262 -300 0
-215 -262 -301 0
-215 -262 -302 0
-215 -262 -303 0
-215 -262 -304 0
-215 -262 -305 0
-215 -262 -306 0
-215 -262 -307 0
-215 -262 -308 0
-215 -262 -309 0
-215 -262 -310 0
-215 -262 -311 0
-215 -262 -312 0
-215 -262 -313 0
-215 -262 -314 0
-215 -262 -315 0
-215 -263 -291 0
-215 -263 -292 0
-215 -263 -293 0
-215 -263 -294 0
-215 -263 -295 0
-215 -263 -296 0
-215 -263 -297 0
-215 -263 -298 0
-215 -263 -299 0
-215 -263 -300 0
-215 -263 -301 0
-215 -263 -302 0
-215 -263 -303 0
-215 -263 -304 0
-215 -263 -305 0
-215 -263 -306 0
-215 -263 -307 0
-215 -263 -308 0
-215 -263 -309 0
-215 -263 -310 0
-215 -263 -311 0
-215 -263 -312 0
-215 -263 -313 0
-215 -263 -314 0
-215 -263 -315 0
-215 -264 -291 0
-215 -264 -292 0
-215 -264 -293 0
-215 -264 -294 0
-215 -264 -295 0
-215 -264 -296 0
-215 -264 -297 0
-215 -264 -298 0
-215 -264 -299 0
-215 -264 -300 0
-215 -264 -301 0
-215 -264 -302 0
-215 -264 -303 0
-215 -264 -304 0
-215 -264 -305 0
-215 -264 -306 0
-215 -264 -307 0
-215 -264 -308 0
-215 -264 -309 0
-215 -264 -310 0
-215 -264 -311 0
-215 -264 -312 0
-215 -264 -313 0
-215 -264 -314 0
-215 -264 -315 0
-215 -265 -291 0
-215 -265 -292 0
-215 -265 -293 0
-215 -265 -294 0
-215 -265 -295 0
-215 -265 -296 0
-215 -265 -297 0
-215 -265 -298 0
-215 -265 -299 0
-215 -265 -300 0
-215 -265 -301 0
-215 -265 -302 0
-215 -265 -303 0
-215 -265 -304 0
-215 -265 -305 0
-215 -265 -306 0
-215 -265 -307 0
-215 -265 -308 0
-215 -265 -309 0
-215 -265 -310 0
-215 -265 -311 0
-215 -265 -312 0
-215 -265 -313 0
-215 -265 -314 0
-215 -265 -315 0
-341 0
-342 0
-343 0
-344 0
-345 0
-346 0
-347 0
-348 0
-349 0
-350 0
-241 0
-242 0
-243 0
-244 0
-291 0
-292 0
-293 0
-294 0
-191 0
-192 0
-193 0
-194 0
-342 -391 0
-343 -391 0
-344 -391 0
-345 -391 0
-346 -391 0
-346 -392 0
-347 -391 0
-347 -392 0
-348 -391 0
-348 -392 0
-349 -391 0
-349 -392 0
-350 -391 0
-350 -392 0
-350 -393 0
-351 -391 0
-351 -392 0
-351 -393 0
-352 -391 0
-352 -392 0
-352 -393 0
-353 -391 0
-353 -392 0
-353 -393 0
-354 -391 0
-354 -392 0
-354 -393 0
-354 -394 0
-355 -391 0
-355 -392 0
-355 -393 0
-355 -394 0
-356 -391 0
-356 -392 0
-356 -393 0
-356 -394 0
-357 -391 0
-357 -392 0
-357 -393 0
-357 -394 0
-358 -391 0
-358 -392 0
-358 -393 0
-358 -394 0
-358 -395 0
-359 -391 0
-359 -392 0
-359 -393 0
-359 -394 0
-359 -395 0
-360 -391 0
-360 -392 0
-360 -393 0
-360 -394 0
-360 -395 0
-361 -391 0
-361 -392 0
-361 -393 0
-361 -394 0
-361 -395 0
-362 -391 0
-362 -392 0
-362 -393 0
-362 -394 0
-362 -395 0
-362 -396 0
-363 -391 0
-363 -392 0
-363 -393 0
-363 -394 0
-363 -395 0
-363 -396 0
-364 -391 0
-364 -392 0
-364 -393 0
-364 -394 0
-364 -395 0
-364 -396 0
-365 -391 0
-365 -392 0
-365 -393 0
-365 -394 0
-365 -395 0
-365 -396 0
-392 -341 0
-393 -341 0
-393 -342 0
-394 -341 0
-394 -342 0
-394 -343 0
-395 -341 0
-395 -342 0
-395 -343 0
-395 -344 0
-396 -341 0
-396 -342 0
-396 -343 0
-396 -344 0
-396 -345 0
-397 -341 0
-397 -342 0
-397 -343 0
-397 -344 0
-397 -345 0
-397 -346 0
-398 -341 0
-398 -342 0
-398 -343 0
-398 -344 0
-398 -345 0
-398 -346 0
-398 -347 0
-399 -341 0
-399 -342 0
-399 -343 0
-399 -344 0
-399 -345 0
-399 -346 0
-399 -347 0
-399 -348 0
-400 -341 0
-400 -342 0
-400 -343 0
-400 -344 0
-400 -345 0
-400 -346 0
-400 -347 0
-400 -348 0
-400 -349 0
-401 -341 0
-401 -342 0
-401 -343 0
-401 -344 0
-401 -345 0
-401 -346 0
-401 -347 0
-401 -348 0
-401 -349 0
-401 -350 0
-402 -341 0
-402 -342 0
-402 -343 0
-402 -344 0
-402 -345 0
-402 -346 0
-402 -347 0
-402 -348 0
-402 -349 0
-402 -350 0
-402 -351 0
-403 -341 0
-403 -342 0
-403 -343 0
-403 -344 0
-403 -345 0
-403 -346 0
-403 -347 0
-403 -348 0
-403 -349 0
-403 -350 0
-403 -351 0
-403 -352 0
-404 -341 0
-404 -342 0
-404 -343 0
-404 -344 0
-404 -345 0
-404 -346 0
-404 -347 0
-404 -348 0
-404 -349 0
-404 -350 0
-404 -351 0
-404 -352 0
-404 -353 0
-405 -341 0
-405 -342 0
-405 -343 0
-405 -344 0
-405 -345 0
-405 -346 0
-405 -347 0
-405 -348 0
-405 -349 0
-405 -350 0
-405 -351 0
-405 -352 0
-405 -353 0
-405 -354 0
-406 -341 0
-406 -342 0
-406 -343 0
-406 -344 0
-406 -345 0
-406 -346 0
-406 -347 0
-406 -348 0
-406 -349 0
-406 -350 0
-406 -351 0
-406 -352 0
-406 -353 0
-406 -354 0
-406 -355 0
-407 -341 0
-407 -342 0
-407 -343 0
-407 -344 0
-407 -345 0
-407 -346 0
-407 -347 0
-407 -348 0
-407 -349 0
-407 -350 0
-407 -351 0
-407 -352 0
-407 -353 0
-407 -354 0
-407 -355 0
-407 -356 0
-408 -341 0
-408 -342 0
-408 -343 0
-408 -344 0
-408 -345 0
-408 -346 0
-408 -347 0
-408 -348 0
-408 -349 0
-408 -350 0
-408 -351 0
-408 -352 0
-408 -353 0
-408 -354 0
-408 -355 0
-408 -356 0
-408 -357 0
-409 -341 0
-409 -342 0
-409 -343 0
-409 -344 0
-409 -345 0
-409 -346 0
-409 -347 0
-409 -348 0
-409 -349 0
-409 -350 0
-409 -351 0
-409 -352 0
-409 -353 0
-409 -354 0
-409 -355 0
-409 -356 0
-409 -357 0
-409 -358 0
-410 -341 0
-410 -342 0
-410 -343 0
-410 -344 0
-410 -345 0
-410 -346 0
-410 -347 0
-410 -348 0
-410 -349 0
-410 -350 0
-410 -351 0
-410 -352 0
-410 -353 0
-410 -354 0
-410 -355 0
-410 -356 0
-410 -357 0
-410 -358 0
-410 -359 0
-411 -341 0
-411 -342 0
-411 -343 0
-411 -344 0
-411 -345 0
-411 -346 0
-411 -347 0
-411 -348 0
-411 -349 0
-411 -350 0
-411 -351 0
-411 -352 0
-411 -353 0
-411 -354 0
-411 -355 0
-411 -356 0
-411 -357 0
-411 -358 0
-411 -359 0
-411 -360 0
-412 -341 0
-412 -342 0
-412 -343 0
-412 -344 0
-412 -345 0
-412 -346 0
-412 -347 0
-412 -348 0
-412 -349 0
-412 -350 0
-412 -351 0
-412 -352 0
-412 -353 0
-412 -354 0
-412 -355 0
-412 -356 0
-412 -357 0
-412 -358 0
-412 -359 0
-412 -360 0
-412 -361 0
-413 -341 0
-413 -342 0
-413 -343 0
-413 -344 0
-413 -345 0
-413 -346 0
-413 -347 0
-413 -348 0
-413 -349 0
-413 -350 0
-413 -351 0
-413 -352 0
-413 -353 0
-413 -354 0
-413 -355 0
-413 -356 0
-413 -357 0
-413 -358 0
-413 -359 0
-413 -360 0
-413 -361 0
-413 -362 0
-414 -341 0
-414 -342 0
-414 -343 0
-414 -344 0
-414 -345 0
-414 -346 0
-414 -347 0
-414 -348 0
-414 -349 0
-414 -350 0
-414 -351 0
-414 -352 0
-414 -353 0
-414 -354 0
-414 -355 0
-414 -356 0
-414 -357 0
-414 -358 0
-414 -359 0
-414 -360 0
-414 -361 0
-414 -362 0
-414 -363 0
-415 -341 0
-415 -342 0
-415 -343 0
-415 -344 0
-415 -345 0
-415 -346 0
-415 -347 0
-415 -348 0
-415 -349 0
-415 -350 0
-415 -351 0
-415 -352 0
-415 -353 0
-415 -354 0
-415 -355 0
-415 -356 0
-415 -357 0
-415 -358 0
-415 -359 0
-415 -360 0
-415 -361 0
-415 -362 0
-415 -363 0
-415 -364 0
-165 -391 0
-166 -391 0
-165 -166 -392 0
-541 184 0
-541 185 0
-184 -185 541 0
-541 -491 0
-541 -492 0
-541 -493 0
-541 -494 0
-184 -447 0
-184 -448 0
-184 -449 0
-184 -450 0
-184 -451 0
-184 -452 0
-184 -453 0
-184 -454 0
-184 -455 0
-184 -456 0
-184 -457 0
-184 -458 0
-184 -459 0
-184 -460 0
-184 -461 0
-184 -462 0
-184 -463 0
-184 -464 0
-184 -465 0
-492 -441 0
-493 -441 0
-493 -442 0
-494 -441 0
-494 -442 0
-494 -443 0
-495 -441 0
-495 -442 0
-495 -443 0
-495 -444 0
-496 -441 0
-496 -442 0
-496 -443 0
-496 -444 0
-496 -445 0
-497 -441 0
-497 -442 0
-497 -443 0
-497 -444 0
-497 -445 0
-497 -446 0
-498 -441 0
-498 -442 0
-498 -443 0
-498 -444 0
-498 -445 0
-498 -446 0
-498 -447 0
-499 -441 0
-499 -442 0
-499 -443 0
-499 -444 0
-499 -445 0
-499 -446 0
-499 -447 0
-499 -448 0
-500 -441 0
-500 -442 0
-500 -443 0
-500 -444 0
-500 -445 0
-500 -446 0
-500 -447 0
-500 -448 0
-500 -449 0
-501 -441 0
-501 -442 0
-501 -443 0
-501 -444 0
-501 -445 0
-501 -446 0
-501 -447 0
-501 -448 0
-501 -449 0
-501 -450 0
-502 -441 0
-502 -442 0
-502 -443 0
-502 -444 0
-502 -445 0
-502 -446 0
-502 -447 0
-502 -448 0
-502 -449 0
-502 -450 0
-502 -451 0
-503 -441 0
-503 -442 0
-503 -443 0
-503 -444 0
-503 -445 0
-503 -446 0
-503 -447 0
-503 -448 0
-503 -449 0
-503 -450 0
-503 -451 0
-503 -452 0
-504 -441 0
-504 -442 0
-504 -443 0
-504 -444 0
-504 -445 0
-504 -446 0
-504 -447 0
-504 -448 0
-504 -449 0
-504 -450 0
-504 -451 0
-504 -452 0
-504 -453 0
-505 -441 0
-505 -442 0
-505 -443 0
-505 -444 0
-505 -445 0
-505 -446 0
-505 -447 0
-505 -448 0
-505 -449 0
-505 -450 0
-505 -451 0
-505 -452 0
-505 -453 0
-505 -454 0
-506 -441 0
-506 -442 0
-506 -443 0
-506 -444 0
-506 -445 0
-506 -446 0
-506 -447 0
-506 -448 0
-506 -449 0
-506 -450 0
-506 -451 0
-506 -452 0
-506 -453 0
-506 -454 0
-506 -455 0
-507 -441 0
-507 -442 0
-507 -443 0
-507 -444 0
-507 -445 0
-507 -446 0
-507 -447 0
-507 -448 0
-507 -449 0
-507 -450 0
-507 -451 0
-507 -452 0
-507 -453 0
-507 -454 0
-507 -455 0
-507 -456 0
-508 -441 0
-508 -442 0
-508 -443 0
-508 -444 0
-508 -445 0
-508 -446 0
-508 -447 0
-508 -448 0
-508 -449 0
-508 -450 0
-508 -451 0
-508 -452 0
-508 -453 0
-508 -454 0
-508 -455 0
-508 -456 0
-508 -457 0
-509 -441 0
-509 -442 0
-509 -443 0
-509 -444 0
-509 -445 0
-509 -446 0
-509 -447 0
-509 -448 0
-509 -449 0
-509 -450 0
-509 -451 0
-509 -452 0
-509 -453 0
-509 -454 0
-509 -455 0
-509 -456 0
-509 -457 0
-509 -458 0
-510 -441 0
-510 -442 0
-510 -443 0
-510 -444 0
-510 -445 0
-510 -446 0
-510 -447 0
-510 -448 0
-510 -449 0
-510 -450 0
-510 -451 0
-510 -452 0
-510 -453 0
-510 -454 0
-510 -455 0
-510 -456 0
-510 -457 0
-510 -458 0
-510 -459 0
-511 -441 0
-511 -442 0
-511 -443 0
-511 -444 0
-511 -445 0
-511 -446 0
-511 -447 0
-511 -448 0
-511 -449 0
-511 -450 0
-511 -451 0
-511 -452 0
-511 -453 0
-511 -454 0
-511 -455 0
-511 -456 0
-511 -457 0
-511 -458 0
-511 -459 0
-511 -460 0
-512 -441 0
-512 -442 0
-512 -443 0
-512 -444 0
-512 -445 0
-512 -446 0
-512 -447 0
-512 -448 0
-512 -449 0
-512 -450 0
-512 -451 0
-512 -452 0
-512 -453 0
-512 -454 0
-512 -455 0
-512 -456 0
-512 -457 0
-512 -458 0
-512 -459 0
-512 -460 0
-512 -461 0
-513 -441 0
-513 -442 0
-513 -443 0
-513 -444 0
-513 -445 0
-513 -446 0
-513 -447 0
-513 -448 0
-513 -449 0
-513 -450 0
-513 -451 0
-513 -452 0
-513 -453 0
-513 -454 0
-513 -455 0
-513 -456 0
-513 -457 0
-513 -458 0
-513 -459 0
-513 -460 0
-513 -461 0
-513 -462 0
-514 -441 0
-514 -442 0
-514 -443 0
-514 -444 0
-514 -445 0
-514 -446 0
-514 -447 0
-514 -448 0
-514 -449 0
-514 -450 0
-514 -451 0
-514 -452 0
-514 -453 0
-514 -454 0
-514 -455 0
-514 -456 0
-514 -457 0
-514 -458 0
-514 -459 0
-514 -460 0
-514 -461 0
-514 -462 0
-514 -463 0
-515 -441 0
-515 -442 0
-515 -443 0
-515 -444 0
-515 -445 0
-515 -446 0
-515 -447 0
-515 -448 0
-515 -449 0
-515 -450 0
-515 -451 0
-515 -452 0
-515 -453 0
-515 -454 0
-515 -455 0
-515 -456 0
-515 -457 0
-515 -458 0
-515 -459 0
-515 -460 0
-515 -461 0
-515 -462 0
-515 -463 0
-515 -464 0
-492 -241 0
-493 -241 0
-493 -242 0
-494 -241 0
-494 -242 0
-494 -243 0
-495 -241 0
-495 -242 0
-495 -243 0
-495 -244 0
-496 -241 0
-496 -242 0
-496 -243 0
-496 -244 0
-496 -245 0
-497 -241 0
-497 -242 0
-497 -243 0
-497 -244 0
-497 -245 0
-497 -246 0
-498 -241 0
-498 -242 0
-498 -243 0
-498 -244 0
-498 -245 0
-498 -246 0
-498 -247 0
-499 -241 0
-499 -242 0
-499 -243 0
-499 -244 0
-499 -245 0
-499 -246 0
-499 -247 0
-499 -248 0
-500 -241 0
-500 -242 0
-500 -243 0
-500 -244 0
-500 -245 0
-500 -246 0
-500 -247 0
-500 -248 0
-500 -249 0
-501 -241 0
-501 -242 0
-501 -243 0
-501 -244 0
-501 -245 0
-501 -246 0
-501 -247 0
-501 -248 0
-501 -249 0
-501 -250 0
-502 -241 0
-502 -242 0
-502 -243 0
-502 -244 0
-502 -245 0
-502 -246 0
-502 -247 0
-502 -248 0
-502 -249 0
-502 -250 0
-502 -251 0
-503 -241 0
-503 -242 0
-503 -243 0
-503 -244 0
-503 -245 0
-503 -246 0
-503 -247 0
-503 -248 0
-503 -249 0
-503 -250 0
-503 -251 0
-503 -252 0
-504 -241 0
-504 -242 0
-504 -243 0
-504 -244 0
-504 -245 0
-504 -246 0
-504 -247 0
-504 -248 0
-504 -249 0
-504 -250 0
-504 -251 0
-504 -252 0
-504 -253 0
-505 -241 0
-505 -242 0
-505 -243 0
-505 -244 0
-505 -245 0
-505 -246 0
-505 -247 0
-505 -248 0
-505 -249 0
-505 -250 0
-505 -251 0
-505 -252 0
-505 -253 0
-505 -254 0
-506 -241 0
-506 -242 0
-506 -243 0
-506 -244 0
-506 -245 0
-506 -246 0
-506 -247 0
-506 -248 0
-506 -249 0
-506 -250 0
-506 -251 0
-506 -252 0
-506 -253 0
-506 -254 0
-506 -255 0
-507 -241 0
-507 -242 0
-507 -243 0
-507 -244 0
-507 -245 0
-507 -246 0
-507 -247 0
-507 -248 0
-507 -249 0
-507 -250 0
-507 -251 0
-507 -252 0
-507 -253 0
-507 -254 0
-507 -255 0
-507 -256 0
-508 -241 0
-508 -242 0
-508 -243 0
-508 -244 0
-508 -245 0
-508 -246 0
-508 -247 0
-508 -248 0
-508 -249 0
-508 -250 0
-508 -251 0
-508 -252 0
-508 -253 0
-508 -254 0
-508 -255 0
-508 -256 0
-508 -257 0
-509 -241 0
-509 -242 0
-509 -243 0
-509 -244 0
-509 -245 0
-509 -246 0
-509 -247 0
-509 -248 0
-509 -249 0
-509 -250 0
-509 -251 0
-509 -252 0
-509 -253 0
-509 -254 0
-509 -255 0
-509 -256 0
-509 -257 0
-509 -258 0
-510 -241 0
-510 -242 0
-510 -243 0
-510 -244 0
-510 -245 0
-510 -246 0
-510 -247 0
-510 -248 0
-510 -249 0
-510 -250 0
-510 -251 0
-510 -252 0
-510 -253 0
-510 -254 0
-510 -255 0
-510 -256 0
-510 -257 0
-510 -258 0
-510 -259 0
-511 -241 0
-511 -242 0
-511 -243 0
-511 -244 0
-511 -245 0
-511 -246 0
-511 -247 0
-511 -248 0
-511 -249 0
-511 -250 0
-511 -251 0
-511 -252 0
-511 -253 0
-511 -254 0
-511 -255 0
-511 -256 0
-511 -257 0
-511 -258 0
-511 -259 0
-511 -260 0
-512 -241 0
-512 -242 0
-512 -243 0
-512 -244 0
-512 -245 0
-512 -246 0
-512 -247 0
-512 -248 0
-512 -249 0
-512 -250 0
-512 -251 0
-512 -252 0
-512 -253 0
-512 -254 0
-512 -255 0
-512 -256 0
-512 -257 0
-512 -258 0
-512 -259 0
-512 -260 0
-512 -261 0
-513 -241 0
-513 -242 0
-513 -243 0
-513 -244 0
-513 -245 0
-513 -246 0
-513 -247 0
-513 -248 0
-513 -249 0
-513 -250 0
-513 -251 0
-513 -252 0
-513 -253 0
-513 -254 0
-513 -255 0
-513 -256 0
-513 -257 0
-513 -258 0
-513 -259 0
-513 -260 0
-513 -261 0
-513 -262 0
-514 -241 0
-514 -242 0
-514 -243 0
-514 -244 0
-514 -245 0
-514 -246 0
-514 -247 0
-514 -248 0
-514 -249 0
-514 -250 0
-514 -251 0
-514 -252 0
-514 -253 0
-514 -254 0
-514 -255 0
-514 -256 0
-514 -257 0
-514 -258 0
-514 -259 0
-514 -260 0
-514 -261 0
-514 -262 0
-514 -263 0
-515 -241 0
-515 -242 0
-515 -243 0
-515 -244 0
-515 -245 0
-515 -246 0
-515 -247 0
-515 -248 0
-515 -249 0
-515 -250 0
-515 -251 0
-515 -252 0
-515 -253 0
-515 -254 0
-515 -255 0
-515 -256 0
-515 -257 0
-515 -258 0
-515 -259 0
-515 -260 0
-515 -261 0
-515 -262 0
-515 -263 0
-515 -264 0
-441 0
-442 0
-443 0
-444 0
-441 -341 0
-442 -341 0
-442 -342 0
-443 -341 0
-443 -342 0
-443 -343 0
-444 -341 0
-444 -342 0
-444 -343 0
-444 -344 0
-445 -341 0
-445 -342 0
-445 -343 0
-445 -344 0
-445 -345 0
-446 -341 0
-446 -342 0
-446 -343 0
-446 -344 0
-446 -345 0
-446 -346 0
-447 -341 0
-447 -342 0
-447 -343 0
-447 -344 0
-447 -345 0
-447 -346 0
-447 -347 0
-448 -341 0
-448 -342 0
-448 -343 0
-448 -344 0
-448 -345 0
-448 -346 0
-448 -347 0
-448 -348 0
-449 -341 0
-449 -342 0
-449 -343 0
-449 -344 0
-449 -345 0
-449 -346 0
-449 -347 0
-449 -348 0
-449 -349 0
-450 -341 0
-450 -342 0
-450 -343 0
-450 -344 0
-450 -345 0
-450 -346 0
-450 -347 0
-450 -348 0
-450 -349 0
-450 -350 0
-451 -341 0
-451 -342 0
-451 -343 0
-451 -344 0
-451 -345 0
-451 -346 0
-451 -347 0
-451 -348 0
-451 -349 0
-451 -350 0
-451 -351 0
-452 -341 0
-452 -342 0
-452 -343 0
-452 -344 0
-452 -345 0
-452 -346 0
-452 -347 0
-452 -348 0
-452 -349 0
-452 -350 0
-452 -351 0
-452 -352 0
-453 -341 0
-453 -342 0
-453 -343 0
-453 -344 0
-453 -345 0
-453 -346 0
-453 -347 0
-453 -348 0
-453 -349 0
-453 -350 0
-453 -351 0
-453 -352 0
-453 -353 0
-454 -341 0
-454 -342 0
-454 -343 0
-454 -344 0
-454 -345 0
-454 -346 0
-454 -347 0
-454 -348 0
-454 -349 0
-454 -350 0
-454 -351 0
-454 -352 0
-454 -353 0
-454 -354 0
-455 -341 0
-455 -342 0
-455 -343 0
-455 -344 0
-455 -345 0
-455 -346 0
-455 -347 0
-455 -348 0
-455 -349 0
-455 -350 0
-455 -351 0
-455 -352 0
-455 -353 0
-455 -354 0
-455 -355 0
-456 -341 0
-456 -342 0
-456 -343 0
-456 -344 0
-456 -345 0
-456 -346 0
-456 -347 0
-456 -348 0
-456 -349 0
-456 -350 0
-456 -351 0
-456 -352 0
-456 -353 0
-456 -354 0
-456 -355 0
-456 -356 0
-457 -341 0
-457 -342 0
-457 -343 0
-457 -344 0
-457 -345 0
-457 -346 0
-457 -347 0
-457 -348 0
-457 -349 0
-457 -350 0
-457 -351 0
-457 -352 0
-457 -353 0
-457 -354 0
-457 -355 0
-457 -356 0
-457 -357 0
-458 -341 0
-458 -342 0
-458 -343 0
-458 -344 0
-458 -345 0
-458 -346 0
-458 -347 0
-458 -348 0
-458 -349 0
-458 -350 0
-458 -351 0
-458 -352 0
-458 -353 0
-458 -354 0
-458 -355 0
-458 -356 0
-458 -357 0
-458 -358 0
-459 -341 0
-459 -342 0
-459 -343 0
-459 -344 0
-459 -345 0
-459 -346 0
-459 -347 0
-459 -348 0
-459 -349 0
-459 -350 0
-459 -351 0
-459 -352 0
-459 -353 0
-459 -354 0
-459 -355 0
-459 -356 0
-459 -357 0
-459 -358 0
-459 -359 0
-460 -341 0
-460 -342 0
-460 -343 0
-460 -344 0
-460 -345 0
-460 -346 0
-460 -347 0
-460 -348 0
-460 -349 0
-460 -350 0
-460 -351 0
-460 -352 0
-460 -353 0
-460 -354 0
-460 -355 0
-460 -356 0
-460 -357 0
-460 -358 0
-460 -359 0
-460 -360 0
-461 -341 0
-461 -342 0
-461 -343 0
-461 -344 0
-461 -345 0
-461 -346 0
-461 -347 0
-461 -348 0
-461 -349 0
-461 -350 0
-461 -351 0
-461 -352 0
-461 -353 0
-461 -354 0
-461 -355 0
-461 -356 0
-461 -357 0
-461 -358 0
-461 -359 0
-461 -360 0
-461 -361 0
-462 -341 0
-462 -342 0
-462 -343 0
-462 -344 0
-462 -345 0
-462 -346 0
-462 -347 0
-462 -348 0
-462 -349 0
-462 -350 0
-462 -351 0
-462 -352 0
-462 -353 0
-462 -354 0
-462 -355 0
-462 -356 0
-462 -357 0
-462 -358 0
-462 -359 0
-462 -360 0
-462 -361 0
-462 -362 0
-463 -341 0
-463 -342 0
-463 -343 0
-463 -344 0
-463 -345 0
-463 -346 0
-463 -347 0
-463 -348 0
-463 -349 0
-463 -350 0
-463 -351 0
-463 -352 0
-463 -353 0
-463 -354 0
-463 -355 0
-463 -356 0
-463 -357 0
-463 -358 0
-463 -359 0
-463 -360 0
-463 -361 0
-463 -362 0
-463 -363 0
-464 -341 0
-464 -342 0
-464 -343 0
-464 -344 0
-464 -345 0
-464 -346 0
-464 -347 0
-464 -348 0
-464 -349 0
-464 -350 0
-464 -351 0
-464 -352 0
-464 -353 0
-464 -354 0
-464 -355 0
-464 -356 0
-464 -357 0
-464 -358 0
-464 -359 0
-464 -360 0
-464 -361 0
-464 -362 0
-464 -363 0
-464 -364 0
-465 -341 0
-465 -342 0
-465 -343 0
-465 -344 0
-465 -345 0
-465 -346 0
-465 -347 0
-465 -348 0
-465 -349 0
-465 -350 0
-465 -351 0
-465 -352 0
-465 -353 0
-465 -354 0
-465 -355 0
-465 -356 0
-465 -357 0
-465 -358 0
-465 -359 0
-465 -360 0
-465 -361 0
-465 -362 0
-465 -363 0
-465 -364 0
-465 -365 0
-491 0
-492 0
-1 542 0
-2 543 0
-542 543 0
-2 -542 0
-3 544 0
-5 545 0
-544 545 0
-5 -544 0
-4 546 0
-6 547 0
-546 547 0
-6 -546 0
-3 548 0
-4 549 0
-548 549 0
-4 -548 0
-5 550 0
-6 551 0
-550 551 0
-6 -550 0
-1 -2 0
-3 -5 0
-4 -6 0
-1 -3 0
-1 -4 0
-3 -4 0
-2 -5 0
-2 -6 0
-5 -6 0
-4 -29 26 0
-4 29 -26 0
-4 -30 27 0
-4 30 -27 0
-4 -31 28 0
-4 31 -28 0
-4 -12 11 0
-4 12 -11 0
-4 -40 39 0
-4 40 -39 0
-4 -52 50 0
-4 52 -50 0
-4 -53 51 0
-4 53 -51 0
-4 -167 166 0
-4 167 -166 0
-4 -114 106 0
-4 114 -106 0
-4 -115 107 0
-4 115 -107 0
-4 -116 108 0
-4 116 -108 0
-4 -117 109 0
-4 117 -109 0
-4 -118 110 0
-4 118 -110 0
-4 -119 111 0
-4 119 -111 0
-4 -120 112 0
-4 120 -112 0
-4 -103 102 0
-4 103 -102 0
-4 -111 110 0
-4 111 -110 0
-4 -119 118 0
-4 119 -118 0
-4 -127 126 0
-4 127 -126 0
-6 -32 26 0
-6 32 -26 0
-6 -33 27 0
-6 33 -27 0
-6 -34 28 0
-6 34 -28 0
-6 -13 11 0
-6 13 -11 0
-6 -41 39 0
-6 41 -39 0
-6 -54 50 0
-6 54 -50 0
-6 -55 51 0
-6 55 -51 0
-6 -168 166 0
-6 168 -166 0
-6 -179 177 0
-6 179 -177 0
-6 -180 178 0
-6 180 -178 0
-6 -122 106 0
-6 122 -106 0
-6 -123 107 0
-6 123 -107 0
-6 -124 108 0
-6 124 -108 0
-6 -125 109 0
-6 125 -109 0
-6 -126 110 0
-6 126 -110 0
-6 -127 111 0
-6 127 -111 0
-6 -128 112 0
-6 128 -112 0
-6 -104 102 0
-6 104 -102 0
-6 -112 110 0
-6 112 -110 0
-6 -120 118 0
-6 120 -118 0
-6 -128 126 0
-6 128 -126 0
-1 -29 14 0
-1 29 -14 0
-1 -30 15 0
-1 30 -15 0
-1 -31 16 0
-1 31 -16 0
-1 -12 7 0
-1 12 -7 0
-1 -40 35 0
-1 40 -35 0
-1 -52 42 0
-1 52 -42 0
-1 -53 43 0
-1 53 -43 0
-1 -167 162 0
-1 167 -162 0
-1 -103 98 0
-1 103 -98 0
-1 -111 106 0
-1 111 -106 0
-1 -119 114 0
-1 119 -114 0
-1 -127 122 0
-1 127 -122 0
-3 -29 23 0
-3 29 -23 0
-3 -30 24 0
-3 30 -24 0
-3 -31 25 0
-3 31 -25 0
-3 -12 10 0
-3 12 -10 0
-3 -40 38 0
-3 40 -38 0
-3 -52 48 0
-3 52 -48 0
-3 -53 49 0
-3 53 -49 0
-3 -167 165 0
-3 167 -165 0
-3 -114 98 0
-3 114 -98 0
-3 -115 99 0
-3 115 -99 0
-3 -116 100 0
-3 116 -100 0
-3 -117 101 0
-3 117 -101 0
-3 -118 102 0
-3 118 -102 0
-3 -119 103 0
-3 119 -103 0
-3 -120 104 0
-3 120 -104 0
-3 -103 101 0
-3 103 -101 0
-3 -111 109 0
-3 111 -109 0
-3 -119 117 0
-3 119 -117 0
-3 -127 125 0
-3 127 -125 0
-5 -32 23 0
-5 32 -23 0
-5 -33 24 0
-5 33 -24 0
-5 -34 25 0
-5 34 -25 0
-5 -13 10 0
-5 13 -10 0
-5 -41 38 0
-5 41 -38 0
-5 -54 48 0
-5 54 -48 0
-5 -55 49 0
-5 55 -49 0
-5 -168 165 0
-5 168 -165 0
-5 -179 175 0
-5 179 -175 0
-5 -180 176 0
-5 180 -176 0
-5 -122 98 0
-5 122 -98 0
-5 -123 99 0
-5 123 -99 0
-5 -124 100 0
-5 124 -100 0
-5 -125 101 0
-5 125 -101 0
-5 -126 102 0
-5 126 -102 0
-5 -127 103 0
-5 127 -103 0
-5 -128 104 0
-5 128 -104 0
-5 -104 101 0
-5 104 -101 0
-5 -112 109 0
-5 112 -109 0
-5 -120 117 0
-5 120 -117 0
-5 -128 125 0
-5 128 -125 0
-2 -32 14 0
-2 32 -14 0
-2 -33 15 0
-2 33 -15 0
-2 -34 16 0
-2 34 -16 0
-2 -13 7 0
-2 13 -7 0
-2 -41 35 0
-2 41 -35 0
-2 -54 42 0
-2 54 -42 0
-2 -55 43 0
-2 55 -43 0
-2 -168 162 0
-2 168 -162 0
-2 -179 169 0
-2 179 -169 0
-2 -180 170 0
-2 180 -170 0
-2 -104 98 0
-2 104 -98 0
-2 -112 106 0
-2 112 -106 0
-2 -120 114 0
-2 120 -114 0
-2 -128 122 0
-2 128 -122 0
96 0
