p cnf 478 12929
-1 -30 2 0
-1 -2 30 0
-2 -30 1 0
-1 -31 3 0
-1 -3 31 0
-3 -31 1 0
-1 -32 4 0
-1 -4 32 0
-4 -32 1 0
-1 -33 5 0
-1 -5 33 0
-5 -33 1 0
-1 -34 6 0
-1 -6 34 0
-6 -34 1 0
-1 -35 7 0
-1 -7 35 0
-7 -35 1 0
-1 -36 8 0
-1 -8 36 0
-8 -36 1 0
-1 -37 9 0
-1 -9 37 0
-9 -37 1 0
-1 -38 10 0
-1 -10 38 0
-10 -38 1 0
-1 -39 11 0
-1 -11 39 0
-11 -39 1 0
-1 -40 12 0
-1 -12 40 0
-12 -40 1 0
-1 -41 13 0
-1 -13 41 0
-13 -41 1 0
-1 -42 14 0
-1 -14 42 0
-14 -42 1 0
-1 -43 15 0
-1 -15 43 0
-15 -43 1 0
-1 -44 16 0
-1 -16 44 0
-16 -44 1 0
-1 -45 17 0
-1 -17 45 0
-17 -45 1 0
-1 -46 18 0
-1 -18 46 0
-18 -46 1 0
-1 -47 19 0
-1 -19 47 0
-19 -47 1 0
-1 -48 20 0
-1 -20 48 0
-20 -48 1 0
-1 -49 21 0
-1 -21 49 0
-21 -49 1 0
-1 -50 22 0
-1 -22 50 0
-22 -50 1 0
-1 -51 23 0
-1 -23 51 0
-23 -51 1 0
-1 -52 24 0
-1 -24 52 0
-24 -52 1 0
-1 -53 25 0
-1 -25 53 0
-25 -53 1 0
-1 -54 26 0
-1 -26 54 0
-26 -54 1 0
-1 -55 27 0
-1 -27 55 0
-27 -55 1 0
-1 -56 28 0
-1 -28 56 0
-28 -56 1 0
-1 -57 29 0
-1 -29 57 0
-29 -57 1 0
-2 -58 3 0
-2 -3 58 0
-3 -58 2 0
-2 -59 4 0
-2 -4 59 0
-4 -59 2 0
-2 -60 5 0
-2 -5 60 0
-5 -60 2 0
-2 -61 6 0
-2 -6 61 0
-6 -61 2 0
-2 -62 7 0
-2 -7 62 0
-7 -62 2 0
-2 -63 8 0
-2 -8 63 0
-8 -63 2 0
-2 -64 9 0
-2 -9 64 0
-9 -64 2 0
-2 -65 10 0
-2 -10 65 0
-10 -65 2 0
-2 -66 11 0
-2 -11 66 0
-11 -66 2 0
-2 -67 12 0
-2 -12 67 0
-12 -67 2 0
-2 -68 13 0
-2 -13 68 0
-13 -68 2 0
-2 -69 14 0
-2 -14 69 0
-14 -69 2 0
-2 -70 15 0
-2 -15 70 0
-15 -70 2 0
-2 -71 16 0
-2 -16 71 0
-16 -71 2 0
-2 -72 17 0
-2 -17 72 0
-17 -72 2 0
-2 -73 18 0
-2 -18 73 0
-18 -73 2 0
-2 -74 19 0
-2 -19 74 0
-19 -74 2 0
-2 -75 20 0
-2 -20 75 0
-20 -75 2 0
-2 -76 21 0
-2 -21 76 0
-21 -76 2 0
-2 -77 22 0
-2 -22 77 0
-22 -77 2 0
-2 -78 23 0
-2 -23 78 0
-23 -78 2 0
-2 -79 24 0
-2 -24 79 0
-24 -79 2 0
-2 -80 25 0
-2 -25 80 0
-25 -80 2 0
-2 -81 26 0
-2 -26 81 0
-26 -81 2 0
-2 -82 27 0
-2 -27 82 0
-27 -82 2 0
-2 -83 28 0
-2 -28 83 0
-28 -83 2 0
-2 -84 29 0
-2 -29 84 0
-29 -84 2 0
-3 -85 4 0
-3 -4 85 0
-4 -85 3 0
-3 -86 5 0
-3 -5 86 0
-5 -86 3 0
-3 -87 6 0
-3 -6 87 0
-6 -87 3 0
-3 -88 7 0
-3 -7 88 0
-7 -88 3 0
-3 -89 8 0
-3 -8 89 0
-8 -89 3 0
-3 -90 9 0
-3 -9 90 0
-9 -90 3 0
-3 -91 10 0
-3 -10 91 0
-10 -91 3 0
-3 -92 11 0
-3 -11 92 0
-11 -92 3 0
-3 -93 12 0
-3 -12 93 0
-12 -93 3 0
-3 -94 13 0
-3 -13 94 0
-13 -94 3 0
-3 -95 14 0
-3 -14 95 0
-14 -95 3 0
-3 -96 15 0
-3 -15 96 0
-15 -96 3 0
-3 -97 16 0
-3 -16 97 0
-16 -97 3 0
-3 -98 17 0
-3 -17 98 0
-17 -98 3 0
-3 -99 18 0
-3 -18 99 0
-18 -99 3 0
-3 -100 19 0
-3 -19 100 0
-19 -100 3 0
-3 -101 20 0
-3 -20 101 0
-20 -101 3 0
-3 -102 21 0
-3 -21 102 0
-21 -102 3 0
-3 -103 22 0
-3 -22 103 0
-22 -103 3 0
-3 -104 23 0
-3 -23 104 0
-23 -104 3 0
-3 -105 24 0
-3 -24 105 0
-24 -105 3 0
-3 -106 25 0
-3 -25 106 0
-25 -106 3 0
-3 -107 26 0
-3 -26 107 0
-26 -107 3 0
-3 -108 27 0
-3 -27 108 0
-27 -108 3 0
-3 -109 28 0
-3 -28 109 0
-28 -109 3 0
-3 -110 29 0
-3 -29 110 0
-29 -110 3 0
-4 -111 5 0
-4 -5 111 0
-5 -111 4 0
-4 -112 6 0
-4 -6 112 0
-6 -112 4 0
-4 -113 7 0
-4 -7 113 0
-7 -113 4 0
-4 -114 8 0
-4 -8 114 0
-8 -114 4 0
-4 -115 9 0
-4 -9 115 0
-9 -115 4 0
-4 -116 10 0
-4 -10 116 0
-10 -116 4 0
-4 -117 11 0
-4 -11 117 0
-11 -117 4 0
-4 -118 12 0
-4 -12 118 0
-12 -118 4 0
-4 -119 13 0
-4 -13 119 0
-13 -119 4 0
-4 -120 14 0
-4 -14 120 0
-14 -120 4 0
-4 -121 15 0
-4 -15 121 0
-15 -121 4 0
-4 -122 16 0
-4 -16 122 0
-16 -122 4 0
-4 -123 17 0
-4 -17 123 0
-17 -123 4 0
-4 -124 18 0
-4 -18 124 0
-18 -124 4 0
-4 -125 19 0
-4 -19 125 0
-19 -125 4 0
-4 -126 20 0
-4 -20 126 0
-20 -126 4 0
-4 -127 21 0
-4 -21 127 0
-21 -127 4 0
-4 -128 22 0
-4 -22 128 0
-22 -128 4 0
-4 -129 23 0
-4 -23 129 0
-23 -129 4 0
-4 -130 24 0
-4 -24 130 0
-24 -130 4 0
-4 -131 25 0
-4 -25 131 0
-25 -131 4 0
-4 -132 26 0
-4 -26 132 0
-26 -132 4 0
-4 -133 27 0
-4 -27 133 0
-27 -133 4 0
-4 -134 28 0
-4 -28 134 0
-28 -134 4 0
-4 -135 29 0
-4 -29 135 0
-29 -135 4 0
-5 -136 6 0
-5 -6 136 0
-6 -136 5 0
-5 -137 7 0
-5 -7 137 0
-7 -137 5 0
-5 -138 8 0
-5 -8 138 0
-8 -138 5 0
-5 -139 9 0
-5 -9 139 0
-9 -139 5 0
-5 -140 10 0
-5 -10 140 0
-10 -140 5 0
-5 -141 11 0
-5 -11 141 0
-11 -141 5 0
-5 -142 12 0
-5 -12 142 0
-12 -142 5 0
-5 -143 13 0
-5 -13 143 0
-13 -143 5 0
-5 -144 14 0
-5 -14 144 0
-14 -144 5 0
-5 -145 15 0
-5 -15 145 0
-15 -145 5 0
-5 -146 16 0
-5 -16 146 0
-16 -146 5 0
-5 -147 17 0
-5 -17 147 0
-17 -147 5 0
-5 -148 18 0
-5 -18 148 0
-18 -148 5 0
-5 -149 19 0
-5 -19 149 0
-19 -149 5 0
-5 -150 20 0
-5 -20 150 0
-20 -150 5 0
-5 -151 21 0
-5 -21 151 0
-21 -151 5 0
-5 -152 22 0
-5 -22 152 0
-22 -152 5 0
-5 -153 23 0
-5 -23 153 0
-23 -153 5 0
-5 -154 24 0
-5 -24 154 0
-24 -154 5 0
-5 -155 25 0
-5 -25 155 0
-25 -155 5 0
-5 -156 26 0
-5 -26 156 0
-26 -156 5 0
-5 -157 27 0
-5 -27 157 0
-27 -157 5 0
-5 -158 28 0
-5 -28 158 0
-28 -158 5 0
-5 -159 29 0
-5 -29 159 0
-29 -159 5 0
-6 -160 7 0
-6 -7 160 0
-7 -160 6 0
-6 -161 8 0
-6 -8 161 0
-8 -161 6 0
-6 -162 9 0
-6 -9 162 0
-9 -162 6 0
-6 -163 10 0
-6 -10 163 0
-10 -163 6 0
-6 -164 11 0
-6 -11 164 0
-11 -164 6 0
-6 -165 12 0
-6 -12 165 0
-12 -165 6 0
-6 -166 13 0
-6 -13 166 0
-13 -166 6 0
-6 -167 14 0
-6 -14 167 0
-14 -167 6 0
-6 -168 15 0
-6 -15 168 0
-15 -168 6 0
-6 -169 16 0
-6 -16 169 0
-16 -169 6 0
-6 -170 17 0
-6 -17 170 0
-17 -170 6 0
-6 -171 18 0
-6 -18 171 0
-18 -171 6 0
-6 -172 19 0
-6 -19 172 0
-19 -172 6 0
-6 -173 20 0
-6 -20 173 0
-20 -173 6 0
-6 -174 21 0
-6 -21 174 0
-21 -174 6 0
-6 -175 22 0
-6 -22 175 0
-22 -175 6 0
-6 -176 23 0
-6 -23 176 0
-23 -176 6 0
-6 -177 24 0
-6 -24 177 0
-24 -177 6 0
-6 -178 25 0
-6 -25 178 0
-25 -178 6 0
-6 -179 26 0
-6 -26 179 0
-26 -179 6 0
-6 -180 27 0
-6 -27 180 0
-27 -180 6 0
-6 -181 28 0
-6 -28 181 0
-28 -181 6 0
-6 -182 29 0
-6 -29 182 0
-29 -182 6 0
-7 -183 8 0
-7 -8 183 0
-8 -183 7 0
-7 -184 9 0
-7 -9 184 0
-9 -184 7 0
-7 -185 10 0
-7 -10 185 0
-10 -185 7 0
-7 -186 11 0
-7 -11 186 0
-11 -186 7 0
-7 -187 12 0
-7 -12 187 0
-12 -187 7 0
-7 -188 13 0
-7 -13 188 0
-13 -188 7 0
-7 -189 14 0
-7 -14 189 0
-14 -189 7 0
-7 -190 15 0
-7 -15 190 0
-15 -190 7 0
-7 -191 16 0
-7 -16 191 0
-16 -191 7 0
-7 -192 17 0
-7 -17 192 0
-17 -192 7 0
-7 -193 18 0
-7 -18 193 0
-18 -193 7 0
-7 -194 19 0
-7 -19 194 0
-19 -194 7 0
-7 -195 20 0
-7 -20 195 0
-20 -195 7 0
-7 -196 21 0
-7 -21 196 0
-21 -196 7 0
-7 -197 22 0
-7 -22 197 0
-22 -197 7 0
-7 -198 23 0
-7 -23 198 0
-23 -198 7 0
-7 -199 24 0
-7 -24 199 0
-24 -199 7 0
-7 -200 25 0
-7 -25 200 0
-25 -200 7 0
-7 -201 26 0
-7 -26 201 0
-26 -201 7 0
-7 -202 27 0
-7 -27 202 0
-27 -202 7 0
-7 -203 28 0
-7 -28 203 0
-28 -203 7 0
-7 -204 29 0
-7 -29 204 0
-29 -204 7 0
-8 -205 9 0
-8 -9 205 0
-9 -205 8 0
-8 -206 10 0
-8 -10 206 0
-10 -206 8 0
-8 -207 11 0
-8 -11 207 0
-11 -207 8 0
-8 -208 12 0
-8 -12 208 0
-12 -208 8 0
-8 -209 13 0
-8 -13 209 0
-13 -209 8 0
-8 -210 14 0
-8 -14 210 0
-14 -210 8 0
-8 -211 15 0
-8 -15 211 0
-15 -211 8 0
-8 -212 16 0
-8 -16 212 0
-16 -212 8 0
-8 -213 17 0
-8 -17 213 0
-17 -213 8 0
-8 -214 18 0
-8 -18 214 0
-18 -214 8 0
-8 -215 19 0
-8 -19 215 0
-19 -215 8 0
-8 -216 20 0
-8 -20 216 0
-20 -216 8 0
-8 -217 21 0
-8 -21 217 0
-21 -217 8 0
-8 -218 22 0
-8 -22 218 0
-22 -218 8 0
-8 -219 23 0
-8 -23 219 0
-23 -219 8 0
-8 -220 24 0
-8 -24 220 0
-24 -220 8 0
-8 -221 25 0
-8 -25 221 0
-25 -221 8 0
-8 -222 26 0
-8 -26 222 0
-26 -222 8 0
-8 -223 27 0
-8 -27 223 0
-27 -223 8 0
-8 -224 28 0
-8 -28 224 0
-28 -224 8 0
-8 -225 29 0
-8 -29 225 0
-29 -225 8 0
-9 -226 10 0
-9 -10 226 0
-10 -226 9 0
-9 -227 11 0
-9 -11 227 0
-11 -227 9 0
-9 -228 12 0
-9 -12 228 0
-12 -228 9 0
-9 -229 13 0
-9 -13 229 0
-13 -229 9 0
-9 -230 14 0
-9 -14 230 0
-14 -230 9 0
-9 -231 15 0
-9 -15 231 0
-15 -231 9 0
-9 -232 16 0
-9 -16 232 0
-16 -232 9 0
-9 -233 17 0
-9 -17 233 0
-17 -233 9 0
-9 -234 18 0
-9 -18 234 0
-18 -234 9 0
-9 -235 19 0
-9 -19 235 0
-19 -235 9 0
-9 -236 20 0
-9 -20 236 0
-20 -236 9 0
-9 -237 21 0
-9 -21 237 0
-21 -237 9 0
-9 -238 22 0
-9 -22 238 0
-22 -238 9 0
-9 -239 23 0
-9 -23 239 0
-23 -239 9 0
-9 -240 24 0
-9 -24 240 0
-24 -240 9 0
-9 -241 25 0
-9 -25 241 0
-25 -241 9 0
-9 -242 26 0
-9 -26 242 0
-26 -242 9 0
-9 -243 27 0
-9 -27 243 0
-27 -243 9 0
-9 -244 28 0
-9 -28 244 0
-28 -244 9 0
-9 -245 29 0
-9 -29 245 0
-29 -245 9 0
-10 -246 11 0
-10 -11 246 0
-11 -246 10 0
-10 -247 12 0
-10 -12 247 0
-12 -247 10 0
-10 -248 13 0
-10 -13 248 0
-13 -248 10 0
-10 -249 14 0
-10 -14 249 0
-14 -249 10 0
-10 -250 15 0
-10 -15 250 0
-15 -250 10 0
-10 -251 16 0
-10 -16 251 0
-16 -251 10 0
-10 -252 17 0
-10 -17 252 0
-17 -252 10 0
-10 -253 18 0
-10 -18 253 0
-18 -253 10 0
-10 -254 19 0
-10 -19 254 0
-19 -254 10 0
-10 -255 20 0
-10 -20 255 0
-20 -255 10 0
-10 -256 21 0
-10 -21 256 0
-21 -256 10 0
-10 -257 22 0
-10 -22 257 0
-22 -257 10 0
-10 -258 23 0
-10 -23 258 0
-23 -258 10 0
-10 -259 24 0
-10 -24 259 0
-24 -259 10 0
-10 -260 25 0
-10 -25 260 0
-25 -260 10 0
-10 -261 26 0
-10 -26 261 0
-26 -261 10 0
-10 -262 27 0
-10 -27 262 0
-27 -262 10 0
-10 -263 28 0
-10 -28 263 0
-28 -263 10 0
-10 -264 29 0
-10 -29 264 0
-29 -264 10 0
-11 -265 12 0
-11 -12 265 0
-12 -265 11 0
-11 -266 13 0
-11 -13 266 0
-13 -266 11 0
-11 -267 14 0
-11 -14 267 0
-14 -267 11 0
-11 -268 15 0
-11 -15 268 0
-15 -268 11 0
-11 -269 16 0
-11 -16 269 0
-16 -269 11 0
-11 -270 17 0
-11 -17 270 0
-17 -270 11 0
-11 -271 18 0
-11 -18 271 0
-18 -271 11 0
-11 -272 19 0
-11 -19 272 0
-19 -272 11 0
-11 -273 20 0
-11 -20 273 0
-20 -273 11 0
-11 -274 21 0
-11 -21 274 0
-21 -274 11 0
-11 -275 22 0
-11 -22 275 0
-22 -275 11 0
-11 -276 23 0
-11 -23 276 0
-23 -276 11 0
-11 -277 24 0
-11 -24 277 0
-24 -277 11 0
-11 -278 25 0
-11 -25 278 0
-25 -278 11 0
-11 -279 26 0
-11 -26 279 0
-26 -279 11 0
-11 -280 27 0
-11 -27 280 0
-27 -280 11 0
-11 -281 28 0
-11 -28 281 0
-28 -281 11 0
-11 -282 29 0
-11 -29 282 0
-29 -282 11 0
-12 -283 13 0
-12 -13 283 0
-13 -283 12 0
-12 -284 14 0
-12 -14 284 0
-14 -284 12 0
-12 -285 15 0
-12 -15 285 0
-15 -285 12 0
-12 -286 16 0
-12 -16 286 0
-16 -286 12 0
-12 -287 17 0
-12 -17 287 0
-17 -287 12 0
-12 -288 18 0
-12 -18 288 0
-18 -288 12 0
-12 -289 19 0
-12 -19 289 0
-19 -289 12 0
-12 -290 20 0
-12 -20 290 0
-20 -290 12 0
-12 -291 21 0
-12 -21 291 0
-21 -291 12 0
-12 -292 22 0
-12 -22 292 0
-22 -292 12 0
-12 -293 23 0
-12 -23 293 0
-23 -293 12 0
-12 -294 24 0
-12 -24 294 0
-24 -294 12 0
-12 -295 25 0
-12 -25 295 0
-25 -295 12 0
-12 -296 26 0
-12 -26 296 0
-26 -296 12 0
-12 -297 27 0
-12 -27 297 0
-27 -297 12 0
-12 -298 28 0
-12 -28 298 0
-28 -298 12 0
-12 -299 29 0
-12 -29 299 0
-29 -299 12 0
-13 -300 14 0
-13 -14 300 0
-14 -300 13 0
-13 -301 15 0
-13 -15 301 0
-15 -301 13 0
-13 -302 16 0
-13 -16 302 0
-16 -302 13 0
-13 -303 17 0
-13 -17 303 0
-17 -303 13 0
-13 -304 18 0
-13 -18 304 0
-18 -304 13 0
-13 -305 19 0
-13 -19 305 0
-19 -305 13 0
-13 -306 20 0
-13 -20 306 0
-20 -306 13 0
-13 -307 21 0
-13 -21 307 0
-21 -307 13 0
-13 -308 22 0
-13 -22 308 0
-22 -308 13 0
-13 -309 23 0
-13 -23 309 0
-23 -309 13 0
-13 -310 24 0
-13 -24 310 0
-24 -310 13 0
-13 -311 25 0
-13 -25 311 0
-25 -311 13 0
-13 -312 26 0
-13 -26 312 0
-26 -312 13 0
-13 -313 27 0
-13 -27 313 0
-27 -313 13 0
-13 -314 28 0
-13 -28 314 0
-28 -314 13 0
-13 -315 29 0
-13 -29 315 0
-29 -315 13 0
-14 -316 15 0
-14 -15 316 0
-15 -316 14 0
-14 -317 16 0
-14 -16 317 0
-16 -317 14 0
-14 -318 17 0
-14 -17 318 0
-17 -318 14 0
-14 -319 18 0
-14 -18 319 0
-18 -319 14 0
-14 -320 19 0
-14 -19 320 0
-19 -320 14 0
-14 -321 20 0
-14 -20 321 0
-20 -321 14 0
-14 -322 21 0
-14 -21 322 0
-21 -322 14 0
-14 -323 22 0
-14 -22 323 0
-22 -323 14 0
-14 -324 23 0
-14 -23 324 0
-23 -324 14 0
-14 -325 24 0
-14 -24 325 0
-24 -325 14 0
-14 -326 25 0
-14 -25 326 0
-25 -326 14 0
-14 -327 26 0
-14 -26 327 0
-26 -327 14 0
-14 -328 27 0
-14 -27 328 0
-27 -328 14 0
-14 -329 28 0
-14 -28 329 0
-28 -329 14 0
-14 -330 29 0
-14 -29 330 0
-29 -330 14 0
-15 -331 16 0
-15 -16 331 0
-16 -331 15 0
-15 -332 17 0
-15 -17 332 0
-17 -332 15 0
-15 -333 18 0
-15 -18 333 0
-18 -333 15 0
-15 -334 19 0
-15 -19 334 0
-19 -334 15 0
-15 -335 20 0
-15 -20 335 0
-20 -335 15 0
-15 -336 21 0
-15 -21 336 0
-21 -336 15 0
-15 -337 22 0
-15 -22 337 0
-22 -337 15 0
-15 -338 23 0
-15 -23 338 0
-23 -338 15 0
-15 -339 24 0
-15 -24 339 0
-24 -339 15 0
-15 -340 25 0
-15 -25 340 0
-25 -340 15 0
-15 -341 26 0
-15 -26 341 0
-26 -341 15 0
-15 -342 27 0
-15 -27 342 0
-27 -342 15 0
-15 -343 28 0
-15 -28 343 0
-28 -343 15 0
-15 -344 29 0
-15 -29 344 0
-29 -344 15 0
-16 -345 17 0
-16 -17 345 0
-17 -345 16 0
-16 -346 18 0
-16 -18 346 0
-18 -346 16 0
-16 -347 19 0
-16 -19 347 0
-19 -347 16 0
-16 -348 20 0
-16 -20 348 0
-20 -348 16 0
-16 -349 21 0
-16 -21 349 0
-21 -349 16 0
-16 -350 22 0
-16 -22 350 0
-22 -350 16 0
-16 -351 23 0
-16 -23 351 0
-23 -351 16 0
-16 -352 24 0
-16 -24 352 0
-24 -352 16 0
-16 -353 25 0
-16 -25 353 0
-25 -353 16 0
-16 -354 26 0
-16 -26 354 0
-26 -354 16 0
-16 -355 27 0
-16 -27 355 0
-27 -355 16 0
-16 -356 28 0
-16 -28 356 0
-28 -356 16 0
-16 -357 29 0
-16 -29 357 0
-29 -357 16 0
-17 -358 18 0
-17 -18 358 0
-18 -358 17 0
-17 -359 19 0
-17 -19 359 0
-19 -359 17 0
-17 -360 20 0
-17 -20 360 0
-20 -360 17 0
-17 -361 21 0
-17 -21 361 0
-21 -361 17 0
-17 -362 22 0
-17 -22 362 0
-22 -362 17 0
-17 -363 23 0
-17 -23 363 0
-23 -363 17 0
-17 -364 24 0
-17 -24 364 0
-24 -364 17 0
-17 -365 25 0
-17 -25 365 0
-25 -365 17 0
-17 -366 26 0
-17 -26 366 0
-26 -366 17 0
-17 -367 27 0
-17 -27 367 0
-27 -367 17 0
-17 -368 28 0
-17 -28 368 0
-28 -368 17 0
-17 -369 29 0
-17 -29 369 0
-29 -369 17 0
-18 -370 19 0
-18 -19 370 0
-19 -370 18 0
-18 -371 20 0
-18 -20 371 0
-20 -371 18 0
-18 -372 21 0
-18 -21 372 0
-21 -372 18 0
-18 -373 22 0
-18 -22 373 0
-22 -373 18 0
-18 -374 23 0
-18 -23 374 0
-23 -374 18 0
-18 -375 24 0
-18 -24 375 0
-24 -375 18 0
-18 -376 25 0
-18 -25 376 0
-25 -376 18 0
-18 -377 26 0
-18 -26 377 0
-26 -377 18 0
-18 -378 27 0
-18 -27 378 0
-27 -378 18 0
-18 -379 28 0
-18 -28 379 0
-28 -379 18 0
-18 -380 29 0
-18 -29 380 0
-29 -380 18 0
-19 -381 20 0
-19 -20 381 0
-20 -381 19 0
-19 -382 21 0
-19 -21 382 0
-21 -382 19 0
-19 -383 22 0
-19 -22 383 0
-22 -383 19 0
-19 -384 23 0
-19 -23 384 0
-23 -384 19 0
-19 -385 24 0
-19 -24 385 0
-24 -385 19 0
-19 -386 25 0
-19 -25 386 0
-25 -386 19 0
-19 -387 26 0
-19 -26 387 0
-26 -387 19 0
-19 -388 27 0
-19 -27 388 0
-27 -388 19 0
-19 -389 28 0
-19 -28 389 0
-28 -389 19 0
-19 -390 29 0
-19 -29 390 0
-29 -390 19 0
-20 -391 21 0
-20 -21 391 0
-21 -391 20 0
-20 -392 22 0
-20 -22 392 0
-22 -392 20 0
-20 -393 23 0
-20 -23 393 0
-23 -393 20 0
-20 -394 24 0
-20 -24 394 0
-24 -394 20 0
-20 -395 25 0
-20 -25 395 0
-25 -395 20 0
-20 -396 26 0
-20 -26 396 0
-26 -396 20 0
-20 -397 27 0
-20 -27 397 0
-27 -397 20 0
-20 -398 28 0
-20 -28 398 0
-28 -398 20 0
-20 -399 29 0
-20 -29 399 0
-29 -399 20 0
-21 -400 22 0
-21 -22 400 0
-22 -400 21 0
-21 -401 23 0
-21 -23 401 0
-23 -401 21 0
-21 -402 24 0
-21 -24 402 0
-24 -402 21 0
-21 -403 25 0
-21 -25 403 0
-25 -403 21 0
-21 -404 26 0
-21 -26 404 0
-26 -404 21 0
-21 -405 27 0
-21 -27 405 0
-27 -405 21 0
-21 -406 28 0
-21 -28 406 0
-28 -406 21 0
-21 -407 29 0
-21 -29 407 0
-29 -407 21 0
-22 -408 23 0
-22 -23 408 0
-23 -408 22 0
-22 -409 24 0
-22 -24 409 0
-24 -409 22 0
-22 -410 25 0
-22 -25 410 0
-25 -410 22 0
-22 -411 26 0
-22 -26 411 0
-26 -411 22 0
-22 -412 27 0
-22 -27 412 0
-27 -412 22 0
-22 -413 28 0
-22 -28 413 0
-28 -413 22 0
-22 -414 29 0
-22 -29 414 0
-29 -414 22 0
-23 -415 24 0
-23 -24 415 0
-24 -415 23 0
-23 -416 25 0
-23 -25 416 0
-25 -416 23 0
-23 -417 26 0
-23 -26 417 0
-26 -417 23 0
-23 -418 27 0
-23 -27 418 0
-27 -418 23 0
-23 -419 28 0
-23 -28 419 0
-28 -419 23 0
-23 -420 29 0
-23 -29 420 0
-29 -420 23 0
-24 -421 25 0
-24 -25 421 0
-25 -421 24 0
-24 -422 26 0
-24 -26 422 0
-26 -422 24 0
-24 -423 27 0
-24 -27 423 0
-27 -423 24 0
-24 -424 28 0
-24 -28 424 0
-28 -424 24 0
-24 -425 29 0
-24 -29 425 0
-29 -425 24 0
-25 -426 26 0
-25 -26 426 0
-26 -426 25 0
-25 -427 27 0
-25 -27 427 0
-27 -427 25 0
-25 -428 28 0
-25 -28 428 0
-28 -428 25 0
-25 -429 29 0
-25 -29 429 0
-29 -429 25 0
-26 -430 27 0
-26 -27 430 0
-27 -430 26 0
-26 -431 28 0
-26 -28 431 0
-28 -431 26 0
-26 -432 29 0
-26 -29 432 0
-29 -432 26 0
-27 -433 28 0
-27 -28 433 0
-28 -433 27 0
-27 -434 29 0
-27 -29 434 0
-29 -434 27 0
-28 -435 29 0
-28 -29 435 0
-29 -435 28 0
-30 -58 31 0
-30 -31 58 0
-31 -58 30 0
-30 -59 32 0
-30 -32 59 0
-32 -59 30 0
-30 -60 33 0
-30 -33 60 0
-33 -60 30 0
-30 -61 34 0
-30 -34 61 0
-34 -61 30 0
-30 -62 35 0
-30 -35 62 0
-35 -62 30 0
-30 -63 36 0
-30 -36 63 0
-36 -63 30 0
-30 -64 37 0
-30 -37 64 0
-37 -64 30 0
-30 -65 38 0
-30 -38 65 0
-38 -65 30 0
-30 -66 39 0
-30 -39 66 0
-39 -66 30 0
-30 -67 40 0
-30 -40 67 0
-40 -67 30 0
-30 -68 41 0
-30 -41 68 0
-41 -68 30 0
-30 -69 42 0
-30 -42 69 0
-42 -69 30 0
-30 -70 43 0
-30 -43 70 0
-43 -70 30 0
-30 -71 44 0
-30 -44 71 0
-44 -71 30 0
-30 -72 45 0
-30 -45 72 0
-45 -72 30 0
-30 -73 46 0
-30 -46 73 0
-46 -73 30 0
-30 -74 47 0
-30 -47 74 0
-47 -74 30 0
-30 -75 48 0
-30 -48 75 0
-48 -75 30 0
-30 -76 49 0
-30 -49 76 0
-49 -76 30 0
-30 -77 50 0
-30 -50 77 0
-50 -77 30 0
-30 -78 51 0
-30 -51 78 0
-51 -78 30 0
-30 -79 52 0
-30 -52 79 0
-52 -79 30 0
-30 -80 53 0
-30 -53 80 0
-53 -80 30 0
-30 -81 54 0
-30 -54 81 0
-54 -81 30 0
-30 -82 55 0
-30 -55 82 0
-55 -82 30 0
-30 -83 56 0
-30 -56 83 0
-56 -83 30 0
-30 -84 57 0
-30 -57 84 0
-57 -84 30 0
-31 -85 32 0
-31 -32 85 0
-32 -85 31 0
-31 -86 33 0
-31 -33 86 0
-33 -86 31 0
-31 -87 34 0
-31 -34 87 0
-34 -87 31 0
-31 -88 35 0
-31 -35 88 0
-35 -88 31 0
-31 -89 36 0
-31 -36 89 0
-36 -89 31 0
-31 -90 37 0
-31 -37 90 0
-37 -90 31 0
-31 -91 38 0
-31 -38 91 0
-38 -91 31 0
-31 -92 39 0
-31 -39 92 0
-39 -92 31 0
-31 -93 40 0
-31 -40 93 0
-40 -93 31 0
-31 -94 41 0
-31 -41 94 0
-41 -94 31 0
-31 -95 42 0
-31 -42 95 0
-42 -95 31 0
-31 -96 43 0
-31 -43 96 0
-43 -96 31 0
-31 -97 44 0
-31 -44 97 0
-44 -97 31 0
-31 -98 45 0
-31 -45 98 0
-45 -98 31 0
-31 -99 46 0
-31 -46 99 0
-46 -99 31 0
-31 -100 47 0
-31 -47 100 0
-47 -100 31 0
-31 -101 48 0
-31 -48 101 0
-48 -101 31 0
-31 -102 49 0
-31 -49 102 0
-49 -102 31 0
-31 -103 50 0
-31 -50 103 0
-50 -103 31 0
-31 -104 51 0
-31 -51 104 0
-51 -104 31 0
-31 -105 52 0
-31 -52 105 0
-52 -105 31 0
-31 -106 53 0
-31 -53 106 0
-53 -106 31 0
-31 -107 54 0
-31 -54 107 0
-54 -107 31 0
-31 -108 55 0
-31 -55 108 0
-55 -108 31 0
-31 -109 56 0
-31 -56 109 0
-56 -109 31 0
-31 -110 57 0
-31 -57 110 0
-57 -110 31 0
-32 -111 33 0
-32 -33 111 0
-33 -111 32 0
-32 -112 34 0
-32 -34 112 0
-34 -112 32 0
-32 -113 35 0
-32 -35 113 0
-35 -113 32 0
-32 -114 36 0
-32 -36 114 0
-36 -114 32 0
-32 -115 37 0
-32 -37 115 0
-37 -115 32 0
-32 -116 38 0
-32 -38 116 0
-38 -116 32 0
-32 -117 39 0
-32 -39 117 0
-39 -117 32 0
-32 -118 40 0
-32 -40 118 0
-40 -118 32 0
-32 -119 41 0
-32 -41 119 0
-41 -119 32 0
-32 -120 42 0
-32 -42 120 0
-42 -120 32 0
-32 -121 43 0
-32 -43 121 0
-43 -121 32 0
-32 -122 44 0
-32 -44 122 0
-44 -122 32 0
-32 -123 45 0
-32 -45 123 0
-45 -123 32 0
-32 -124 46 0
-32 -46 124 0
-46 -124 32 0
-32 -125 47 0
-32 -47 125 0
-47 -125 32 0
-32 -126 48 0
-32 -48 126 0
-48 -126 32 0
-32 -127 49 0
-32 -49 127 0
-49 -127 32 0
-32 -128 50 0
-32 -50 128 0
-50 -128 32 0
-32 -129 51 0
-32 -51 129 0
-51 -129 32 0
-32 -130 52 0
-32 -52 130 0
-52 -130 32 0
-32 -131 53 0
-32 -53 131 0
-53 -131 32 0
-32 -132 54 0
-32 -54 132 0
-54 -132 32 0
-32 -133 55 0
-32 -55 133 0
-55 -133 32 0
-32 -134 56 0
-32 -56 134 0
-56 -134 32 0
-32 -135 57 0
-32 -57 135 0
-57 -135 32 0
-33 -136 34 0
-33 -34 136 0
-34 -136 33 0
-33 -137 35 0
-33 -35 137 0
-35 -137 33 0
-33 -138 36 0
-33 -36 138 0
-36 -138 33 0
-33 -139 37 0
-33 -37 139 0
-37 -139 33 0
-33 -140 38 0
-33 -38 140 0
-38 -140 33 0
-33 -141 39 0
-33 -39 141 0
-39 -141 33 0
-33 -142 40 0
-33 -40 142 0
-40 -142 33 0
-33 -143 41 0
-33 -41 143 0
-41 -143 33 0
-33 -144 42 0
-33 -42 144 0
-42 -144 33 0
-33 -145 43 0
-33 -43 145 0
-43 -145 33 0
-33 -146 44 0
-33 -44 146 0
-44 -146 33 0
-33 -147 45 0
-33 -45 147 0
-45 -147 33 0
-33 -148 46 0
-33 -46 148 0
-46 -148 33 0
-33 -149 47 0
-33 -47 149 0
-47 -149 33 0
-33 -150 48 0
-33 -48 150 0
-48 -150 33 0
-33 -151 49 0
-33 -49 151 0
-49 -151 33 0
-33 -152 50 0
-33 -50 152 0
-50 -152 33 0
-33 -153 51 0
-33 -51 153 0
-51 -153 33 0
-33 -154 52 0
-33 -52 154 0
-52 -154 33 0
-33 -155 53 0
-33 -53 155 0
-53 -155 33 0
-33 -156 54 0
-33 -54 156 0
-54 -156 33 0
-33 -157 55 0
-33 -55 157 0
-55 -157 33 0
-33 -158 56 0
-33 -56 158 0
-56 -158 33 0
-33 -159 57 0
-33 -57 159 0
-57 -159 33 0
-34 -160 35 0
-34 -35 160 0
-35 -160 34 0
-34 -161 36 0
-34 -36 161 0
-36 -161 34 0
-34 -162 37 0
-34 -37 162 0
-37 -162 34 0
-34 -163 38 0
-34 -38 163 0
-38 -163 34 0
-34 -164 39 0
-34 -39 164 0
-39 -164 34 0
-34 -165 40 0
-34 -40 165 0
-40 -165 34 0
-34 -166 41 0
-34 -41 166 0
-41 -166 34 0
-34 -167 42 0
-34 -42 167 0
-42 -167 34 0
-34 -168 43 0
-34 -43 168 0
-43 -168 34 0
-34 -169 44 0
-34 -44 169 0
-44 -169 34 0
-34 -170 45 0
-34 -45 170 0
-45 -170 34 0
-34 -171 46 0
-34 -46 171 0
-46 -171 34 0
-34 -172 47 0
-34 -47 172 0
-47 -172 34 0
-34 -173 48 0
-34 -48 173 0
-48 -173 34 0
-34 -174 49 0
-34 -49 174 0
-49 -174 34 0
-34 -175 50 0
-34 -50 175 0
-50 -175 34 0
-34 -176 51 0
-34 -51 176 0
-51 -176 34 0
-34 -177 52 0
-34 -52 177 0
-52 -177 34 0
-34 -178 53 0
-34 -53 178 0
-53 -178 34 0
-34 -179 54 0
-34 -54 179 0
-54 -179 34 0
-34 -180 55 0
-34 -55 180 0
-55 -180 34 0
-34 -181 56 0
-34 -56 181 0
-56 -181 34 0
-34 -182 57 0
-34 -57 182 0
-57 -182 34 0
-35 -183 36 0
-35 -36 183 0
-36 -183 35 0
-35 -184 37 0
-35 -37 184 0
-37 -184 35 0
-35 -185 38 0
-35 -38 185 0
-38 -185 35 0
-35 -186 39 0
-35 -39 186 0
-39 -186 35 0
-35 -187 40 0
-35 -40 187 0
-40 -187 35 0
-35 -188 41 0
-35 -41 188 0
-41 -188 35 0
-35 -189 42 0
-35 -42 189 0
-42 -189 35 0
-35 -190 43 0
-35 -43 190 0
-43 -190 35 0
-35 -191 44 0
-35 -44 191 0
-44 -191 35 0
-35 -192 45 0
-35 -45 192 0
-45 -192 35 0
-35 -193 46 0
-35 -46 193 0
-46 -193 35 0
-35 -194 47 0
-35 -47 194 0
-47 -194 35 0
-35 -195 48 0
-35 -48 195 0
-48 -195 35 0
-35 -196 49 0
-35 -49 196 0
-49 -196 35 0
-35 -197 50 0
-35 -50 197 0
-50 -197 35 0
-35 -198 51 0
-35 -51 198 0
-51 -198 35 0
-35 -199 52 0
-35 -52 199 0
-52 -199 35 0
-35 -200 53 0
-35 -53 200 0
-53 -200 35 0
-35 -201 54 0
-35 -54 201 0
-54 -201 35 0
-35 -202 55 0
-35 -55 202 0
-55 -202 35 0
-35 -203 56 0
-35 -56 203 0
-56 -203 35 0
-35 -204 57 0
-35 -57 204 0
-57 -204 35 0
-36 -205 37 0
-36 -37 205 0
-37 -205 36 0
-36 -206 38 0
-36 -38 206 0
-38 -206 36 0
-36 -207 39 0
-36 -39 207 0
-39 -207 36 0
-36 -208 40 0
-36 -40 208 0
-40 -208 36 0
-36 -209 41 0
-36 -41 209 0
-41 -209 36 0
-36 -210 42 0
-36 -42 210 0
-42 -210 36 0
-36 -211 43 0
-36 -43 211 0
-43 -211 36 0
-36 -212 44 0
-36 -44 212 0
-44 -212 36 0
-36 -213 45 0
-36 -45 213 0
-45 -213 36 0
-36 -214 46 0
-36 -46 214 0
-46 -214 36 0
-36 -215 47 0
-36 -47 215 0
-47 -215 36 0
-36 -216 48 0
-36 -48 216 0
-48 -216 36 0
-36 -217 49 0
-36 -49 217 0
-49 -217 36 0
-36 -218 50 0
-36 -50 218 0
-50 -218 36 0
-36 -219 51 0
-36 -51 219 0
-51 -219 36 0
-36 -220 52 0
-36 -52 220 0
-52 -220 36 0
-36 -221 53 0
-36 -53 221 0
-53 -221 36 0
-36 -222 54 0
-36 -54 222 0
-54 -222 36 0
-36 -223 55 0
-36 -55 223 0
-55 -223 36 0
-36 -224 56 0
-36 -56 224 0
-56 -224 36 0
-36 -225 57 0
-36 -57 225 0
-57 -225 36 0
-37 -226 38 0
-37 -38 226 0
-38 -226 37 0
-37 -227 39 0
-37 -39 227 0
-39 -227 37 0
-37 -228 40 0
-37 -40 228 0
-40 -228 37 0
-37 -229 41 0
-37 -41 229 0
-41 -229 37 0
-37 -230 42 0
-37 -42 230 0
-42 -230 37 0
-37 -231 43 0
-37 -43 231 0
-43 -231 37 0
-37 -232 44 0
-37 -44 232 0
-44 -232 37 0
-37 -233 45 0
-37 -45 233 0
-45 -233 37 0
-37 -234 46 0
-37 -46 234 0
-46 -234 37 0
-37 -235 47 0
-37 -47 235 0
-47 -235 37 0
-37 -236 48 0
-37 -48 236 0
-48 -236 37 0
-37 -237 49 0
-37 -49 237 0
-49 -237 37 0
-37 -238 50 0
-37 -50 238 0
-50 -238 37 0
-37 -239 51 0
-37 -51 239 0
-51 -239 37 0
-37 -240 52 0
-37 -52 240 0
-52 -240 37 0
-37 -241 53 0
-37 -53 241 0
-53 -241 37 0
-37 -242 54 0
-37 -54 242 0
-54 -242 37 0
-37 -243 55 0
-37 -55 243 0
-55 -243 37 0
-37 -244 56 0
-37 -56 244 0
-56 -244 37 0
-37 -245 57 0
-37 -57 245 0
-57 -245 37 0
-38 -246 39 0
-38 -39 246 0
-39 -246 38 0
-38 -247 40 0
-38 -40 247 0
-40 -247 38 0
-38 -248 41 0
-38 -41 248 0
-41 -248 38 0
-38 -249 42 0
-38 -42 249 0
-42 -249 38 0
-38 -250 43 0
-38 -43 250 0
-43 -250 38 0
-38 -251 44 0
-38 -44 251 0
-44 -251 38 0
-38 -252 45 0
-38 -45 252 0
-45 -252 38 0
-38 -253 46 0
-38 -46 253 0
-46 -253 38 0
-38 -254 47 0
-38 -47 254 0
-47 -254 38 0
-38 -255 48 0
-38 -48 255 0
-48 -255 38 0
-38 -256 49 0
-38 -49 256 0
-49 -256 38 0
-38 -257 50 0
-38 -50 257 0
-50 -257 38 0
-38 -258 51 0
-38 -51 258 0
-51 -258 38 0
-38 -259 52 0
-38 -52 259 0
-52 -259 38 0
-38 -260 53 0
-38 -53 260 0
-53 -260 38 0
-38 -261 54 0
-38 -54 261 0
-54 -261 38 0
-38 -262 55 0
-38 -55 262 0
-55 -262 38 0
-38 -263 56 0
-38 -56 263 0
-56 -263 38 0
-38 -264 57 0
-38 -57 264 0
-57 -264 38 0
-39 -265 40 0
-39 -40 265 0
-40 -265 39 0
-39 -266 41 0
-39 -41 266 0
-41 -266 39 0
-39 -267 42 0
-39 -42 267 0
-42 -267 39 0
-39 -268 43 0
-39 -43 268 0
-43 -268 39 0
-39 -269 44 0
-39 -44 269 0
-44 -269 39 0
-39 -270 45 0
-39 -45 270 0
-45 -270 39 0
-39 -271 46 0
-39 -46 271 0
-46 -271 39 0
-39 -272 47 0
-39 -47 272 0
-47 -272 39 0
-39 -273 48 0
-39 -48 273 0
-48 -273 39 0
-39 -274 49 0
-39 -49 274 0
-49 -274 39 0
-39 -275 50 0
-39 -50 275 0
-50 -275 39 0
-39 -276 51 0
-39 -51 276 0
-51 -276 39 0
-39 -277 52 0
-39 -52 277 0
-52 -277 39 0
-39 -278 53 0
-39 -53 278 0
-53 -278 39 0
-39 -279 54 0
-39 -54 279 0
-54 -279 39 0
-39 -280 55 0
-39 -55 280 0
-55 -280 39 0
-39 -281 56 0
-39 -56 281 0
-56 -281 39 0
-39 -282 57 0
-39 -57 282 0
-57 -282 39 0
-40 -283 41 0
-40 -41 283 0
-41 -283 40 0
-40 -284 42 0
-40 -42 284 0
-42 -284 40 0
-40 -285 43 0
-40 -43 285 0
-43 -285 40 0
-40 -286 44 0
-40 -44 286 0
-44 -286 40 0
-40 -287 45 0
-40 -45 287 0
-45 -287 40 0
-40 -288 46 0
-40 -46 288 0
-46 -288 40 0
-40 -289 47 0
-40 -47 289 0
-47 -289 40 0
-40 -290 48 0
-40 -48 290 0
-48 -290 40 0
-40 -291 49 0
-40 -49 291 0
-49 -291 40 0
-40 -292 50 0
-40 -50 292 0
-50 -292 40 0
-40 -293 51 0
-40 -51 293 0
-51 -293 40 0
-40 -294 52 0
-40 -52 294 0
-52 -294 40 0
-40 -295 53 0
-40 -53 295 0
-53 -295 40 0
-40 -296 54 0
-40 -54 296 0
-54 -296 40 0
-40 -297 55 0
-40 -55 297 0
-55 -297 40 0
-40 -298 56 0
-40 -56 298 0
-56 -298 40 0
-40 -299 57 0
-40 -57 299 0
-57 -299 40 0
-41 -300 42 0
-41 -42 300 0
-42 -300 41 0
-41 -301 43 0
-41 -43 301 0
-43 -301 41 0
-41 -302 44 0
-41 -44 302 0
-44 -302 41 0
-41 -303 45 0
-41 -45 303 0
-45 -303 41 0
-41 -304 46 0
-41 -46 304 0
-46 -304 41 0
-41 -305 47 0
-41 -47 305 0
-47 -305 41 0
-41 -306 48 0
-41 -48 306 0
-48 -306 41 0
-41 -307 49 0
-41 -49 307 0
-49 -307 41 0
-41 -308 50 0
-41 -50 308 0
-50 -308 41 0
-41 -309 51 0
-41 -51 309 0
-51 -309 41 0
-41 -310 52 0
-41 -52 310 0
-52 -310 41 0
-41 -311 53 0
-41 -53 311 0
-53 -311 41 0
-41 -312 54 0
-41 -54 312 0
-54 -312 41 0
-41 -313 55 0
-41 -55 313 0
-55 -313 41 0
-41 -314 56 0
-41 -56 314 0
-56 -314 41 0
-41 -315 57 0
-41 -57 315 0
-57 -315 41 0
-42 -316 43 0
-42 -43 316 0
-43 -316 42 0
-42 -317 44 0
-42 -44 317 0
-44 -317 42 0
-42 -318 45 0
-42 -45 318 0
-45 -318 42 0
-42 -319 46 0
-42 -46 319 0
-46 -319 42 0
-42 -320 47 0
-42 -47 320 0
-47 -320 42 0
-42 -321 48 0
-42 -48 321 0
-48 -321 42 0
-42 -322 49 0
-42 -49 322 0
-49 -322 42 0
-42 -323 50 0
-42 -50 323 0
-50 -323 42 0
-42 -324 51 0
-42 -51 324 0
-51 -324 42 0
-42 -325 52 0
-42 -52 325 0
-52 -325 42 0
-42 -326 53 0
-42 -53 326 0
-53 -326 42 0
-42 -327 54 0
-42 -54 327 0
-54 -327 42 0
-42 -328 55 0
-42 -55 328 0
-55 -328 42 0
-42 -329 56 0
-42 -56 329 0
-56 -329 42 0
-42 -330 57 0
-42 -57 330 0
-57 -330 42 0
-43 -331 44 0
-43 -44 331 0
-44 -331 43 0
-43 -332 45 0
-43 -45 332 0
-45 -332 43 0
-43 -333 46 0
-43 -46 333 0
-46 -333 43 0
-43 -334 47 0
-43 -47 334 0
-47 -334 43 0
-43 -335 48 0
-43 -48 335 0
-48 -335 43 0
-43 -336 49 0
-43 -49 336 0
-49 -336 43 0
-43 -337 50 0
-43 -50 337 0
-50 -337 43 0
-43 -338 51 0
-43 -51 338 0
-51 -338 43 0
-43 -339 52 0
-43 -52 339 0
-52 -339 43 0
-43 -340 53 0
-43 -53 340 0
-53 -340 43 0
-43 -341 54 0
-43 -54 341 0
-54 -341 43 0
-43 -342 55 0
-43 -55 342 0
-55 -342 43 0
-43 -343 56 0
-43 -56 343 0
-56 -343 43 0
-43 -344 57 0
-43 -57 344 0
-57 -344 43 0
-44 -345 45 0
-44 -45 345 0
-45 -345 44 0
-44 -346 46 0
-44 -46 346 0
-46 -346 44 0
-44 -347 47 0
-44 -47 347 0
-47 -347 44 0
-44 -348 48 0
-44 -48 348 0
-48 -348 44 0
-44 -349 49 0
-44 -49 349 0
-49 -349 44 0
-44 -350 50 0
-44 -50 350 0
-50 -350 44 0
-44 -351 51 0
-44 -51 351 0
-51 -351 44 0
-44 -352 52 0
-44 -52 352 0
-52 -352 44 0
-44 -353 53 0
-44 -53 353 0
-53 -353 44 0
-44 -354 54 0
-44 -54 354 0
-54 -354 44 0
-44 -355 55 0
-44 -55 355 0
-55 -355 44 0
-44 -356 56 0
-44 -56 356 0
-56 -356 44 0
-44 -357 57 0
-44 -57 357 0
-57 -357 44 0
-45 -358 46 0
-45 -46 358 0
-46 -358 45 0
-45 -359 47 0
-45 -47 359 0
-47 -359 45 0
-45 -360 48 0
-45 -48 360 0
-48 -360 45 0
-45 -361 49 0
-45 -49 361 0
-49 -361 45 0
-45 -362 50 0
-45 -50 362 0
-50 -362 45 0
-45 -363 51 0
-45 -51 363 0
-51 -363 45 0
-45 -364 52 0
-45 -52 364 0
-52 -364 45 0
-45 -365 53 0
-45 -53 365 0
-53 -365 45 0
-45 -366 54 0
-45 -54 366 0
-54 -366 45 0
-45 -367 55 0
-45 -55 367 0
-55 -367 45 0
-45 -368 56 0
-45 -56 368 0
-56 -368 45 0
-45 -369 57 0
-45 -57 369 0
-57 -369 45 0
-46 -370 47 0
-46 -47 370 0
-47 -370 46 0
-46 -371 48 0
-46 -48 371 0
-48 -371 46 0
-46 -372 49 0
-46 -49 372 0
-49 -372 46 0
-46 -373 50 0
-46 -50 373 0
-50 -373 46 0
-46 -374 51 0
-46 -51 374 0
-51 -374 46 0
-46 -375 52 0
-46 -52 375 0
-52 -375 46 0
-46 -376 53 0
-46 -53 376 0
-53 -376 46 0
-46 -377 54 0
-46 -54 377 0
-54 -377 46 0
-46 -378 55 0
-46 -55 378 0
-55 -378 46 0
-46 -379 56 0
-46 -56 379 0
-56 -379 46 0
-46 -380 57 0
-46 -57 380 0
-57 -380 46 0
-47 -381 48 0
-47 -48 381 0
-48 -381 47 0
-47 -382 49 0
-47 -49 382 0
-49 -382 47 0
-47 -383 50 0
-47 -50 383 0
-50 -383 47 0
-47 -384 51 0
-47 -51 384 0
-51 -384 47 0
-47 -385 52 0
-47 -52 385 0
-52 -385 47 0
-47 -386 53 0
-47 -53 386 0
-53 -386 47 0
-47 -387 54 0
-47 -54 387 0
-54 -387 47 0
-47 -388 55 0
-47 -55 388 0
-55 -388 47 0
-47 -389 56 0
-47 -56 389 0
-56 -389 47 0
-47 -390 57 0
-47 -57 390 0
-57 -390 47 0
-48 -391 49 0
-48 -49 391 0
-49 -391 48 0
-48 -392 50 0
-48 -50 392 0
-50 -392 48 0
-48 -393 51 0
-48 -51 393 0
-51 -393 48 0
-48 -394 52 0
-48 -52 394 0
-52 -394 48 0
-48 -395 53 0
-48 -53 395 0
-53 -395 48 0
-48 -396 54 0
-48 -54 396 0
-54 -396 48 0
-48 -397 55 0
-48 -55 397 0
-55 -397 48 0
-48 -398 56 0
-48 -56 398 0
-56 -398 48 0
-48 -399 57 0
-48 -57 399 0
-57 -399 48 0
-49 -400 50 0
-49 -50 400 0
-50 -400 49 0
-49 -401 51 0
-49 -51 401 0
-51 -401 49 0
-49 -402 52 0
-49 -52 402 0
-52 -402 49 0
-49 -403 53 0
-49 -53 403 0
-53 -403 49 0
-49 -404 54 0
-49 -54 404 0
-54 -404 49 0
-49 -405 55 0
-49 -55 405 0
-55 -405 49 0
-49 -406 56 0
-49 -56 406 0
-56 -406 49 0
-49 -407 57 0
-49 -57 407 0
-57 -407 49 0
-50 -408 51 0
-50 -51 408 0
-51 -408 50 0
-50 -409 52 0
-50 -52 409 0
-52 -409 50 0
-50 -410 53 0
-50 -53 410 0
-53 -410 50 0
-50 -411 54 0
-50 -54 411 0
-54 -411 50 0
-50 -412 55 0
-50 -55 412 0
-55 -412 50 0
-50 -413 56 0
-50 -56 413 0
-56 -413 50 0
-50 -414 57 0
-50 -57 414 0
-57 -414 50 0
-51 -415 52 0
-51 -52 415 0
-52 -415 51 0
-51 -416 53 0
-51 -53 416 0
-53 -416 51 0
-51 -417 54 0
-51 -54 417 0
-54 -417 51 0
-51 -418 55 0
-51 -55 418 0
-55 -418 51 0
-51 -419 56 0
-51 -56 419 0
-56 -419 51 0
-51 -420 57 0
-51 -57 420 0
-57 -420 51 0
-52 -421 53 0
-52 -53 421 0
-53 -421 52 0
-52 -422 54 0
-52 -54 422 0
-54 -422 52 0
-52 -423 55 0
-52 -55 423 0
-55 -423 52 0
-52 -424 56 0
-52 -56 424 0
-56 -424 52 0
-52 -425 57 0
-52 -57 425 0
-57 -425 52 0
-53 -426 54 0
-53 -54 426 0
-54 -426 53 0
-53 -427 55 0
-53 -55 427 0
-55 -427 53 0
-53 -428 56 0
-53 -56 428 0
-56 -428 53 0
-53 -429 57 0
-53 -57 429 0
-57 -429 53 0
-54 -430 55 0
-54 -55 430 0
-55 -430 54 0
-54 -431 56 0
-54 -56 431 0
-56 -431 54 0
-54 -432 57 0
-54 -57 432 0
-57 -432 54 0
-55 -433 56 0
-55 -56 433 0
-56 -433 55 0
-55 -434 57 0
-55 -57 434 0
-57 -434 55 0
-56 -435 57 0
-56 -57 435 0
-57 -435 56 0
-58 -85 59 0
-58 -59 85 0
-59 -85 58 0
-58 -86 60 0
-58 -60 86 0
-60 -86 58 0
-58 -87 61 0
-58 -61 87 0
-61 -87 58 0
-58 -88 62 0
-58 -62 88 0
-62 -88 58 0
-58 -89 63 0
-58 -63 89 0
-63 -89 58 0
-58 -90 64 0
-58 -64 90 0
-64 -90 58 0
-58 -91 65 0
-58 -65 91 0
-65 -91 58 0
-58 -92 66 0
-58 -66 92 0
-66 -92 58 0
-58 -93 67 0
-58 -67 93 0
-67 -93 58 0
-58 -94 68 0
-58 -68 94 0
-68 -94 58 0
-58 -95 69 0
-58 -69 95 0
-69 -95 58 0
-58 -96 70 0
-58 -70 96 0
-70 -96 58 0
-58 -97 71 0
-58 -71 97 0
-71 -97 58 0
-58 -98 72 0
-58 -72 98 0
-72 -98 58 0
-58 -99 73 0
-58 -73 99 0
-73 -99 58 0
-58 -100 74 0
-58 -74 100 0
-74 -100 58 0
-58 -101 75 0
-58 -75 101 0
-75 -101 58 0
-58 -102 76 0
-58 -76 102 0
-76 -102 58 0
-58 -103 77 0
-58 -77 103 0
-77 -103 58 0
-58 -104 78 0
-58 -78 104 0
-78 -104 58 0
-58 -105 79 0
-58 -79 105 0
-79 -105 58 0
-58 -106 80 0
-58 -80 106 0
-80 -106 58 0
-58 -107 81 0
-58 -81 107 0
-81 -107 58 0
-58 -108 82 0
-58 -82 108 0
-82 -108 58 0
-58 -109 83 0
-58 -83 109 0
-83 -109 58 0
-58 -110 84 0
-58 -84 110 0
-84 -110 58 0
-59 -111 60 0
-59 -60 111 0
-60 -111 59 0
-59 -112 61 0
-59 -61 112 0
-61 -112 59 0
-59 -113 62 0
-59 -62 113 0
-62 -113 59 0
-59 -114 63 0
-59 -63 114 0
-63 -114 59 0
-59 -115 64 0
-59 -64 115 0
-64 -115 59 0
-59 -116 65 0
-59 -65 116 0
-65 -116 59 0
-59 -117 66 0
-59 -66 117 0
-66 -117 59 0
-59 -118 67 0
-59 -67 118 0
-67 -118 59 0
-59 -119 68 0
-59 -68 119 0
-68 -119 59 0
-59 -120 69 0
-59 -69 120 0
-69 -120 59 0
-59 -121 70 0
-59 -70 121 0
-70 -121 59 0
-59 -122 71 0
-59 -71 122 0
-71 -122 59 0
-59 -123 72 0
-59 -72 123 0
-72 -123 59 0
-59 -124 73 0
-59 -73 124 0
-73 -124 59 0
-59 -125 74 0
-59 -74 125 0
-74 -125 59 0
-59 -126 75 0
-59 -75 126 0
-75 -126 59 0
-59 -127 76 0
-59 -76 127 0
-76 -127 59 0
-59 -128 77 0
-59 -77 128 0
-77 -128 59 0
-59 -129 78 0
-59 -78 129 0
-78 -129 59 0
-59 -130 79 0
-59 -79 130 0
-79 -130 59 0
-59 -131 80 0
-59 -80 131 0
-80 -131 59 0
-59 -132 81 0
-59 -81 132 0
-81 -132 59 0
-59 -133 82 0
-59 -82 133 0
-82 -133 59 0
-59 -134 83 0
-59 -83 134 0
-83 -134 59 0
-59 -135 84 0
-59 -84 135 0
-84 -135 59 0
-60 -136 61 0
-60 -61 136 0
-61 -136 60 0
-60 -137 62 0
-60 -62 137 0
-62 -137 60 0
-60 -138 63 0
-60 -63 138 0
-63 -138 60 0
-60 -139 64 0
-60 -64 139 0
-64 -139 60 0
-60 -140 65 0
-60 -65 140 0
-65 -140 60 0
-60 -141 66 0
-60 -66 141 0
-66 -141 60 0
-60 -142 67 0
-60 -67 142 0
-67 -142 60 0
-60 -143 68 0
-60 -68 143 0
-68 -143 60 0
-60 -144 69 0
-60 -69 144 0
-69 -144 60 0
-60 -145 70 0
-60 -70 145 0
-70 -145 60 0
-60 -146 71 0
-60 -71 146 0
-71 -146 60 0
-60 -147 72 0
-60 -72 147 0
-72 -147 60 0
-60 -148 73 0
-60 -73 148 0
-73 -148 60 0
-60 -149 74 0
-60 -74 149 0
-74 -149 60 0
-60 -150 75 0
-60 -75 150 0
-75 -150 60 0
-60 -151 76 0
-60 -76 151 0
-76 -151 60 0
-60 -152 77 0
-60 -77 152 0
-77 -152 60 0
-60 -153 78 0
-60 -78 153 0
-78 -153 60 0
-60 -154 79 0
-60 -79 154 0
-79 -154 60 0
-60 -155 80 0
-60 -80 155 0
-80 -155 60 0
-60 -156 81 0
-60 -81 156 0
-81 -156 60 0
-60 -157 82 0
-60 -82 157 0
-82 -157 60 0
-60 -158 83 0
-60 -83 158 0
-83 -158 60 0
-60 -159 84 0
-60 -84 159 0
-84 -159 60 0
-61 -160 62 0
-61 -62 160 0
-62 -160 61 0
-61 -161 63 0
-61 -63 161 0
-63 -161 61 0
-61 -162 64 0
-61 -64 162 0
-64 -162 61 0
-61 -163 65 0
-61 -65 163 0
-65 -163 61 0
-61 -164 66 0
-61 -66 164 0
-66 -164 61 0
-61 -165 67 0
-61 -67 165 0
-67 -165 61 0
-61 -166 68 0
-61 -68 166 0
-68 -166 61 0
-61 -167 69 0
-61 -69 167 0
-69 -167 61 0
-61 -168 70 0
-61 -70 168 0
-70 -168 61 0
-61 -169 71 0
-61 -71 169 0
-71 -169 61 0
-61 -170 72 0
-61 -72 170 0
-72 -170 61 0
-61 -171 73 0
-61 -73 171 0
-73 -171 61 0
-61 -172 74 0
-61 -74 172 0
-74 -172 61 0
-61 -173 75 0
-61 -75 173 0
-75 -173 61 0
-61 -174 76 0
-61 -76 174 0
-76 -174 61 0
-61 -175 77 0
-61 -77 175 0
-77 -175 61 0
-61 -176 78 0
-61 -78 176 0
-78 -176 61 0
-61 -177 79 0
-61 -79 177 0
-79 -177 61 0
-61 -178 80 0
-61 -80 178 0
-80 -178 61 0
-61 -179 81 0
-61 -81 179 0
-81 -179 61 0
-61 -180 82 0
-61 -82 180 0
-82 -180 61 0
-61 -181 83 0
-61 -83 181 0
-83 -181 61 0
-61 -182 84 0
-61 -84 182 0
-84 -182 61 0
-62 -183 63 0
-62 -63 183 0
-63 -183 62 0
-62 -184 64 0
-62 -64 184 0
-64 -184 62 0
-62 -185 65 0
-62 -65 185 0
-65 -185 62 0
-62 -186 66 0
-62 -66 186 0
-66 -186 62 0
-62 -187 67 0
-62 -67 187 0
-67 -187 62 0
-62 -188 68 0
-62 -68 188 0
-68 -188 62 0
-62 -189 69 0
-62 -69 189 0
-69 -189 62 0
-62 -190 70 0
-62 -70 190 0
-70 -190 62 0
-62 -191 71 0
-62 -71 191 0
-71 -191 62 0
-62 -192 72 0
-62 -72 192 0
-72 -192 62 0
-62 -193 73 0
-62 -73 193 0
-73 -193 62 0
-62 -194 74 0
-62 -74 194 0
-74 -194 62 0
-62 -195 75 0
-62 -75 195 0
-75 -195 62 0
-62 -196 76 0
-62 -76 196 0
-76 -196 62 0
-62 -197 77 0
-62 -77 197 0
-77 -197 62 0
-62 -198 78 0
-62 -78 198 0
-78 -198 62 0
-62 -199 79 0
-62 -79 199 0
-79 -199 62 0
-62 -200 80 0
-62 -80 200 0
-80 -200 62 0
-62 -201 81 0
-62 -81 201 0
-81 -201 62 0
-62 -202 82 0
-62 -82 202 0
-82 -202 62 0
-62 -203 83 0
-62 -83 203 0
-83 -203 62 0
-62 -204 84 0
-62 -84 204 0
-84 -204 62 0
-63 -205 64 0
-63 -64 205 0
-64 -205 63 0
-63 -206 65 0
-63 -65 206 0
-65 -206 63 0
-63 -207 66 0
-63 -66 207 0
-66 -207 63 0
-63 -208 67 0
-63 -67 208 0
-67 -208 63 0
-63 -209 68 0
-63 -68 209 0
-68 -209 63 0
-63 -210 69 0
-63 -69 210 0
-69 -210 63 0
-63 -211 70 0
-63 -70 211 0
-70 -211 63 0
-63 -212 71 0
-63 -71 212 0
-71 -212 63 0
-63 -213 72 0
-63 -72 213 0
-72 -213 63 0
-63 -214 73 0
-63 -73 214 0
-73 -214 63 0
-63 -215 74 0
-63 -74 215 0
-74 -215 63 0
-63 -216 75 0
-63 -75 216 0
-75 -216 63 0
-63 -217 76 0
-63 -76 217 0
-76 -217 63 0
-63 -218 77 0
-63 -77 218 0
-77 -218 63 0
-63 -219 78 0
-63 -78 219 0
-78 -219 63 0
-63 -220 79 0
-63 -79 220 0
-79 -220 63 0
-63 -221 80 0
-63 -80 221 0
-80 -221 63 0
-63 -222 81 0
-63 -81 222 0
-81 -222 63 0
-63 -223 82 0
-63 -82 223 0
-82 -223 63 0
-63 -224 83 0
-63 -83 224 0
-83 -224 63 0
-63 -225 84 0
-63 -84 225 0
-84 -225 63 0
-64 -226 65 0
-64 -65 226 0
-65 -226 64 0
-64 -227 66 0
-64 -66 227 0
-66 -227 64 0
-64 -228 67 0
-64 -67 228 0
-67 -228 64 0
-64 -229 68 0
-64 -68 229 0
-68 -229 64 0
-64 -230 69 0
-64 -69 230 0
-69 -230 64 0
-64 -231 70 0
-64 -70 231 0
-70 -231 64 0
-64 -232 71 0
-64 -71 232 0
-71 -232 64 0
-64 -233 72 0
-64 -72 233 0
-72 -233 64 0
-64 -234 73 0
-64 -73 234 0
-73 -234 64 0
-64 -235 74 0
-64 -74 235 0
-74 -235 64 0
-64 -236 75 0
-64 -75 236 0
-75 -236 64 0
-64 -237 76 0
-64 -76 237 0
-76 -237 64 0
-64 -238 77 0
-64 -77 238 0
-77 -238 64 0
-64 -239 78 0
-64 -78 239 0
-78 -239 64 0
-64 -240 79 0
-64 -79 240 0
-79 -240 64 0
-64 -241 80 0
-64 -80 241 0
-80 -241 64 0
-64 -242 81 0
-64 -81 242 0
-81 -242 64 0
-64 -243 82 0
-64 -82 243 0
-82 -243 64 0
-64 -244 83 0
-64 -83 244 0
-83 -244 64 0
-64 -245 84 0
-64 -84 245 0
-84 -245 64 0
-65 -246 66 0
-65 -66 246 0
-66 -246 65 0
-65 -247 67 0
-65 -67 247 0
-67 -247 65 0
-65 -248 68 0
-65 -68 248 0
-68 -248 65 0
-65 -249 69 0
-65 -69 249 0
-69 -249 65 0
-65 -250 70 0
-65 -70 250 0
-70 -250 65 0
-65 -251 71 0
-65 -71 251 0
-71 -251 65 0
-65 -252 72 0
-65 -72 252 0
-72 -252 65 0
-65 -253 73 0
-65 -73 253 0
-73 -253 65 0
-65 -254 74 0
-65 -74 254 0
-74 -254 65 0
-65 -255 75 0
-65 -75 255 0
-75 -255 65 0
-65 -256 76 0
-65 -76 256 0
-76 -256 65 0
-65 -257 77 0
-65 -77 257 0
-77 -257 65 0
-65 -258 78 0
-65 -78 258 0
-78 -258 65 0
-65 -259 79 0
-65 -79 259 0
-79 -259 65 0
-65 -260 80 0
-65 -80 260 0
-80 -260 65 0
-65 -261 81 0
-65 -81 261 0
-81 -261 65 0
-65 -262 82 0
-65 -82 262 0
-82 -262 65 0
-65 -263 83 0
-65 -83 263 0
-83 -263 65 0
-65 -264 84 0
-65 -84 264 0
-84 -264 65 0
-66 -265 67 0
-66 -67 265 0
-67 -265 66 0
-66 -266 68 0
-66 -68 266 0
-68 -266 66 0
-66 -267 69 0
-66 -69 267 0
-69 -267 66 0
-66 -268 70 0
-66 -70 268 0
-70 -268 66 0
-66 -269 71 0
-66 -71 269 0
-71 -269 66 0
-66 -270 72 0
-66 -72 270 0
-72 -270 66 0
-66 -271 73 0
-66 -73 271 0
-73 -271 66 0
-66 -272 74 0
-66 -74 272 0
-74 -272 66 0
-66 -273 75 0
-66 -75 273 0
-75 -273 66 0
-66 -274 76 0
-66 -76 274 0
-76 -274 66 0
-66 -275 77 0
-66 -77 275 0
-77 -275 66 0
-66 -276 78 0
-66 -78 276 0
-78 -276 66 0
-66 -277 79 0
-66 -79 277 0
-79 -277 66 0
-66 -278 80 0
-66 -80 278 0
-80 -278 66 0
-66 -279 81 0
-66 -81 279 0
-81 -279 66 0
-66 -280 82 0
-66 -82 280 0
-82 -280 66 0
-66 -281 83 0
-66 -83 281 0
-83 -281 66 0
-66 -282 84 0
-66 -84 282 0
-84 -282 66 0
-67 -283 68 0
-67 -68 283 0
-68 -283 67 0
-67 -284 69 0
-67 -69 284 0
-69 -284 67 0
-67 -285 70 0
-67 -70 285 0
-70 -285 67 0
-67 -286 71 0
-67 -71 286 0
-71 -286 67 0
-67 -287 72 0
-67 -72 287 0
-72 -287 67 0
-67 -288 73 0
-67 -73 288 0
-73 -288 67 0
-67 -289 74 0
-67 -74 289 0
-74 -289 67 0
-67 -290 75 0
-67 -75 290 0
-75 -290 67 0
-67 -291 76 0
-67 -76 291 0
-76 -291 67 0
-67 -292 77 0
-67 -77 292 0
-77 -292 67 0
-67 -293 78 0
-67 -78 293 0
-78 -293 67 0
-67 -294 79 0
-67 -79 294 0
-79 -294 67 0
-67 -295 80 0
-67 -80 295 0
-80 -295 67 0
-67 -296 81 0
-67 -81 296 0
-81 -296 67 0
-67 -297 82 0
-67 -82 297 0
-82 -297 67 0
-67 -298 83 0
-67 -83 298 0
-83 -298 67 0
-67 -299 84 0
-67 -84 299 0
-84 -299 67 0
-68 -300 69 0
-68 -69 300 0
-69 -300 68 0
-68 -301 70 0
-68 -70 301 0
-70 -301 68 0
-68 -302 71 0
-68 -71 302 0
-71 -302 68 0
-68 -303 72 0
-68 -72 303 0
-72 -303 68 0
-68 -304 73 0
-68 -73 304 0
-73 -304 68 0
-68 -305 74 0
-68 -74 305 0
-74 -305 68 0
-68 -306 75 0
-68 -75 306 0
-75 -306 68 0
-68 -307 76 0
-68 -76 307 0
-76 -307 68 0
-68 -308 77 0
-68 -77 308 0
-77 -308 68 0
-68 -309 78 0
-68 -78 309 0
-78 -309 68 0
-68 -310 79 0
-68 -79 310 0
-79 -310 68 0
-68 -311 80 0
-68 -80 311 0
-80 -311 68 0
-68 -312 81 0
-68 -81 312 0
-81 -312 68 0
-68 -313 82 0
-68 -82 313 0
-82 -313 68 0
-68 -314 83 0
-68 -83 314 0
-83 -314 68 0
-68 -315 84 0
-68 -84 315 0
-84 -315 68 0
-69 -316 70 0
-69 -70 316 0
-70 -316 69 0
-69 -317 71 0
-69 -71 317 0
-71 -317 69 0
-69 -318 72 0
-69 -72 318 0
-72 -318 69 0
-69 -319 73 0
-69 -73 319 0
-73 -319 69 0
-69 -320 74 0
-69 -74 320 0
-74 -320 69 0
-69 -321 75 0
-69 -75 321 0
-75 -321 69 0
-69 -322 76 0
-69 -76 322 0
-76 -322 69 0
-69 -323 77 0
-69 -77 323 0
-77 -323 69 0
-69 -324 78 0
-69 -78 324 0
-78 -324 69 0
-69 -325 79 0
-69 -79 325 0
-79 -325 69 0
-69 -326 80 0
-69 -80 326 0
-80 -326 69 0
-69 -327 81 0
-69 -81 327 0
-81 -327 69 0
-69 -328 82 0
-69 -82 328 0
-82 -328 69 0
-69 -329 83 0
-69 -83 329 0
-83 -329 69 0
-69 -330 84 0
-69 -84 330 0
-84 -330 69 0
-70 -331 71 0
-70 -71 331 0
-71 -331 70 0
-70 -332 72 0
-70 -72 332 0
-72 -332 70 0
-70 -333 73 0
-70 -73 333 0
-73 -333 70 0
-70 -334 74 0
-70 -74 334 0
-74 -334 70 0
-70 -335 75 0
-70 -75 335 0
-75 -335 70 0
-70 -336 76 0
-70 -76 336 0
-76 -336 70 0
-70 -337 77 0
-70 -77 337 0
-77 -337 70 0
-70 -338 78 0
-70 -78 338 0
-78 -338 70 0
-70 -339 79 0
-70 -79 339 0
-79 -339 70 0
-70 -340 80 0
-70 -80 340 0
-80 -340 70 0
-70 -341 81 0
-70 -81 341 0
-81 -341 70 0
-70 -342 82 0
-70 -82 342 0
-82 -342 70 0
-70 -343 83 0
-70 -83 343 0
-83 -343 70 0
-70 -344 84 0
-70 -84 344 0
-84 -344 70 0
-71 -345 72 0
-71 -72 345 0
-72 -345 71 0
-71 -346 73 0
-71 -73 346 0
-73 -346 71 0
-71 -347 74 0
-71 -74 347 0
-74 -347 71 0
-71 -348 75 0
-71 -75 348 0
-75 -348 71 0
-71 -349 76 0
-71 -76 349 0
-76 -349 71 0
-71 -350 77 0
-71 -77 350 0
-77 -350 71 0
-71 -351 78 0
-71 -78 351 0
-78 -351 71 0
-71 -352 79 0
-71 -79 352 0
-79 -352 71 0
-71 -353 80 0
-71 -80 353 0
-80 -353 71 0
-71 -354 81 0
-71 -81 354 0
-81 -354 71 0
-71 -355 82 0
-71 -82 355 0
-82 -355 71 0
-71 -356 83 0
-71 -83 356 0
-83 -356 71 0
-71 -357 84 0
-71 -84 357 0
-84 -357 71 0
-72 -358 73 0
-72 -73 358 0
-73 -358 72 0
-72 -359 74 0
-72 -74 359 0
-74 -359 72 0
-72 -360 75 0
-72 -75 360 0
-75 -360 72 0
-72 -361 76 0
-72 -76 361 0
-76 -361 72 0
-72 -362 77 0
-72 -77 362 0
-77 -362 72 0
-72 -363 78 0
-72 -78 363 0
-78 -363 72 0
-72 -364 79 0
-72 -79 364 0
-79 -364 72 0
-72 -365 80 0
-72 -80 365 0
-80 -365 72 0
-72 -366 81 0
-72 -81 366 0
-81 -366 72 0
-72 -367 82 0
-72 -82 367 0
-82 -367 72 0
-72 -368 83 0
-72 -83 368 0
-83 -368 72 0
-72 -369 84 0
-72 -84 369 0
-84 -369 72 0
-73 -370 74 0
-73 -74 370 0
-74 -370 73 0
-73 -371 75 0
-73 -75 371 0
-75 -371 73 0
-73 -372 76 0
-73 -76 372 0
-76 -372 73 0
-73 -373 77 0
-73 -77 373 0
-77 -373 73 0
-73 -374 78 0
-73 -78 374 0
-78 -374 73 0
-73 -375 79 0
-73 -79 375 0
-79 -375 73 0
-73 -376 80 0
-73 -80 376 0
-80 -376 73 0
-73 -377 81 0
-73 -81 377 0
-81 -377 73 0
-73 -378 82 0
-73 -82 378 0
-82 -378 73 0
-73 -379 83 0
-73 -83 379 0
-83 -379 73 0
-73 -380 84 0
-73 -84 380 0
-84 -380 73 0
-74 -381 75 0
-74 -75 381 0
-75 -381 74 0
-74 -382 76 0
-74 -76 382 0
-76 -382 74 0
-74 -383 77 0
-74 -77 383 0
-77 -383 74 0
-74 -384 78 0
-74 -78 384 0
-78 -384 74 0
-74 -385 79 0
-74 -79 385 0
-79 -385 74 0
-74 -386 80 0
-74 -80 386 0
-80 -386 74 0
-74 -387 81 0
-74 -81 387 0
-81 -387 74 0
-74 -388 82 0
-74 -82 388 0
-82 -388 74 0
-74 -389 83 0
-74 -83 389 0
-83 -389 74 0
-74 -390 84 0
-74 -84 390 0
-84 -390 74 0
-75 -391 76 0
-75 -76 391 0
-76 -391 75 0
-75 -392 77 0
-75 -77 392 0
-77 -392 75 0
-75 -393 78 0
-75 -78 393 0
-78 -393 75 0
-75 -394 79 0
-75 -79 394 0
-79 -394 75 0
-75 -395 80 0
-75 -80 395 0
-80 -395 75 0
-75 -396 81 0
-75 -81 396 0
-81 -396 75 0
-75 -397 82 0
-75 -82 397 0
-82 -397 75 0
-75 -398 83 0
-75 -83 398 0
-83 -398 75 0
-75 -399 84 0
-75 -84 399 0
-84 -399 75 0
-76 -400 77 0
-76 -77 400 0
-77 -400 76 0
-76 -401 78 0
-76 -78 401 0
-78 -401 76 0
-76 -402 79 0
-76 -79 402 0
-79 -402 76 0
-76 -403 80 0
-76 -80 403 0
-80 -403 76 0
-76 -404 81 0
-76 -81 404 0
-81 -404 76 0
-76 -405 82 0
-76 -82 405 0
-82 -405 76 0
-76 -406 83 0
-76 -83 406 0
-83 -406 76 0
-76 -407 84 0
-76 -84 407 0
-84 -407 76 0
-77 -408 78 0
-77 -78 408 0
-78 -408 77 0
-77 -409 79 0
-77 -79 409 0
-79 -409 77 0
-77 -410 80 0
-77 -80 410 0
-80 -410 77 0
-77 -411 81 0
-77 -81 411 0
-81 -411 77 0
-77 -412 82 0
-77 -82 412 0
-82 -412 77 0
-77 -413 83 0
-77 -83 413 0
-83 -413 77 0
-77 -414 84 0
-77 -84 414 0
-84 -414 77 0
-78 -415 79 0
-78 -79 415 0
-79 -415 78 0
-78 -416 80 0
-78 -80 416 0
-80 -416 78 0
-78 -417 81 0
-78 -81 417 0
-81 -417 78 0
-78 -418 82 0
-78 -82 418 0
-82 -418 78 0
-78 -419 83 0
-78 -83 419 0
-83 -419 78 0
-78 -420 84 0
-78 -84 420 0
-84 -420 78 0
-79 -421 80 0
-79 -80 421 0
-80 -421 79 0
-79 -422 81 0
-79 -81 422 0
-81 -422 79 0
-79 -423 82 0
-79 -82 423 0
-82 -423 79 0
-79 -424 83 0
-79 -83 424 0
-83 -424 79 0
-79 -425 84 0
-79 -84 425 0
-84 -425 79 0
-80 -426 81 0
-80 -81 426 0
-81 -426 80 0
-80 -427 82 0
-80 -82 427 0
-82 -427 80 0
-80 -428 83 0
-80 -83 428 0
-83 -428 80 0
-80 -429 84 0
-80 -84 429 0
-84 -429 80 0
-81 -430 82 0
-81 -82 430 0
-82 -430 81 0
-81 -431 83 0
-81 -83 431 0
-83 -431 81 0
-81 -432 84 0
-81 -84 432 0
-84 -432 81 0
-82 -433 83 0
-82 -83 433 0
-83 -433 82 0
-82 -434 84 0
-82 -84 434 0
-84 -434 82 0
-83 -435 84 0
-83 -84 435 0
-84 -435 83 0
-85 -111 86 0
-85 -86 111 0
-86 -111 85 0
-85 -112 87 0
-85 -87 112 0
-87 -112 85 0
-85 -113 88 0
-85 -88 113 0
-88 -113 85 0
-85 -114 89 0
-85 -89 114 0
-89 -114 85 0
-85 -115 90 0
-85 -90 115 0
-90 -115 85 0
-85 -116 91 0
-85 -91 116 0
-91 -116 85 0
-85 -117 92 0
-85 -92 117 0
-92 -117 85 0
-85 -118 93 0
-85 -93 118 0
-93 -118 85 0
-85 -119 94 0
-85 -94 119 0
-94 -119 85 0
-85 -120 95 0
-85 -95 120 0
-95 -120 85 0
-85 -121 96 0
-85 -96 121 0
-96 -121 85 0
-85 -122 97 0
-85 -97 122 0
-97 -122 85 0
-85 -123 98 0
-85 -98 123 0
-98 -123 85 0
-85 -124 99 0
-85 -99 124 0
-99 -124 85 0
-85 -125 100 0
-85 -100 125 0
-100 -125 85 0
-85 -126 101 0
-85 -101 126 0
-101 -126 85 0
-85 -127 102 0
-85 -102 127 0
-102 -127 85 0
-85 -128 103 0
-85 -103 128 0
-103 -128 85 0
-85 -129 104 0
-85 -104 129 0
-104 -129 85 0
-85 -130 105 0
-85 -105 130 0
-105 -130 85 0
-85 -131 106 0
-85 -106 131 0
-106 -131 85 0
-85 -132 107 0
-85 -107 132 0
-107 -132 85 0
-85 -133 108 0
-85 -108 133 0
-108 -133 85 0
-85 -134 109 0
-85 -109 134 0
-109 -134 85 0
-85 -135 110 0
-85 -110 135 0
-110 -135 85 0
-86 -136 87 0
-86 -87 136 0
-87 -136 86 0
-86 -137 88 0
-86 -88 137 0
-88 -137 86 0
-86 -138 89 0
-86 -89 138 0
-89 -138 86 0
-86 -139 90 0
-86 -90 139 0
-90 -139 86 0
-86 -140 91 0
-86 -91 140 0
-91 -140 86 0
-86 -141 92 0
-86 -92 141 0
-92 -141 86 0
-86 -142 93 0
-86 -93 142 0
-93 -142 86 0
-86 -143 94 0
-86 -94 143 0
-94 -143 86 0
-86 -144 95 0
-86 -95 144 0
-95 -144 86 0
-86 -145 96 0
-86 -96 145 0
-96 -145 86 0
-86 -146 97 0
-86 -97 146 0
-97 -146 86 0
-86 -147 98 0
-86 -98 147 0
-98 -147 86 0
-86 -148 99 0
-86 -99 148 0
-99 -148 86 0
-86 -149 100 0
-86 -100 149 0
-100 -149 86 0
-86 -150 101 0
-86 -101 150 0
-101 -150 86 0
-86 -151 102 0
-86 -102 151 0
-102 -151 86 0
-86 -152 103 0
-86 -103 152 0
-103 -152 86 0
-86 -153 104 0
-86 -104 153 0
-104 -153 86 0
-86 -154 105 0
-86 -105 154 0
-105 -154 86 0
-86 -155 106 0
-86 -106 155 0
-106 -155 86 0
-86 -156 107 0
-86 -107 156 0
-107 -156 86 0
-86 -157 108 0
-86 -108 157 0
-108 -157 86 0
-86 -158 109 0
-86 -109 158 0
-109 -158 86 0
-86 -159 110 0
-86 -110 159 0
-110 -159 86 0
-87 -160 88 0
-87 -88 160 0
-88 -160 87 0
-87 -161 89 0
-87 -89 161 0
-89 -161 87 0
-87 -162 90 0
-87 -90 162 0
-90 -162 87 0
-87 -163 91 0
-87 -91 163 0
-91 -163 87 0
-87 -164 92 0
-87 -92 164 0
-92 -164 87 0
-87 -165 93 0
-87 -93 165 0
-93 -165 87 0
-87 -166 94 0
-87 -94 166 0
-94 -166 87 0
-87 -167 95 0
-87 -95 167 0
-95 -167 87 0
-87 -168 96 0
-87 -96 168 0
-96 -168 87 0
-87 -169 97 0
-87 -97 169 0
-97 -169 87 0
-87 -170 98 0
-87 -98 170 0
-98 -170 87 0
-87 -171 99 0
-87 -99 171 0
-99 -171 87 0
-87 -172 100 0
-87 -100 172 0
-100 -172 87 0
-87 -173 101 0
-87 -101 173 0
-101 -173 87 0
-87 -174 102 0
-87 -102 174 0
-102 -174 87 0
-87 -175 103 0
-87 -103 175 0
-103 -175 87 0
-87 -176 104 0
-87 -104 176 0
-104 -176 87 0
-87 -177 105 0
-87 -105 177 0
-105 -177 87 0
-87 -178 106 0
-87 -106 178 0
-106 -178 87 0
-87 -179 107 0
-87 -107 179 0
-107 -179 87 0
-87 -180 108 0
-87 -108 180 0
-108 -180 87 0
-87 -181 109 0
-87 -109 181 0
-109 -181 87 0
-87 -182 110 0
-87 -110 182 0
-110 -182 87 0
-88 -183 89 0
-88 -89 183 0
-89 -183 88 0
-88 -184 90 0
-88 -90 184 0
-90 -184 88 0
-88 -185 91 0
-88 -91 185 0
-91 -185 88 0
-88 -186 92 0
-88 -92 186 0
-92 -186 88 0
-88 -187 93 0
-88 -93 187 0
-93 -187 88 0
-88 -188 94 0
-88 -94 188 0
-94 -188 88 0
-88 -189 95 0
-88 -95 189 0
-95 -189 88 0
-88 -190 96 0
-88 -96 190 0
-96 -190 88 0
-88 -191 97 0
-88 -97 191 0
-97 -191 88 0
-88 -192 98 0
-88 -98 192 0
-98 -192 88 0
-88 -193 99 0
-88 -99 193 0
-99 -193 88 0
-88 -194 100 0
-88 -100 194 0
-100 -194 88 0
-88 -195 101 0
-88 -101 195 0
-101 -195 88 0
-88 -196 102 0
-88 -102 196 0
-102 -196 88 0
-88 -197 103 0
-88 -103 197 0
-103 -197 88 0
-88 -198 104 0
-88 -104 198 0
-104 -198 88 0
-88 -199 105 0
-88 -105 199 0
-105 -199 88 0
-88 -200 106 0
-88 -106 200 0
-106 -200 88 0
-88 -201 107 0
-88 -107 201 0
-107 -201 88 0
-88 -202 108 0
-88 -108 202 0
-108 -202 88 0
-88 -203 109 0
-88 -109 203 0
-109 -203 88 0
-88 -204 110 0
-88 -110 204 0
-110 -204 88 0
-89 -205 90 0
-89 -90 205 0
-90 -205 89 0
-89 -206 91 0
-89 -91 206 0
-91 -206 89 0
-89 -207 92 0
-89 -92 207 0
-92 -207 89 0
-89 -208 93 0
-89 -93 208 0
-93 -208 89 0
-89 -209 94 0
-89 -94 209 0
-94 -209 89 0
-89 -210 95 0
-89 -95 210 0
-95 -210 89 0
-89 -211 96 0
-89 -96 211 0
-96 -211 89 0
-89 -212 97 0
-89 -97 212 0
-97 -212 89 0
-89 -213 98 0
-89 -98 213 0
-98 -213 89 0
-89 -214 99 0
-89 -99 214 0
-99 -214 89 0
-89 -215 100 0
-89 -100 215 0
-100 -215 89 0
-89 -216 101 0
-89 -101 216 0
-101 -216 89 0
-89 -217 102 0
-89 -102 217 0
-102 -217 89 0
-89 -218 103 0
-89 -103 218 0
-103 -218 89 0
-89 -219 104 0
-89 -104 219 0
-104 -219 89 0
-89 -220 105 0
-89 -105 220 0
-105 -220 89 0
-89 -221 106 0
-89 -106 221 0
-106 -221 89 0
-89 -222 107 0
-89 -107 222 0
-107 -222 89 0
-89 -223 108 0
-89 -108 223 0
-108 -223 89 0
-89 -224 109 0
-89 -109 224 0
-109 -224 89 0
-89 -225 110 0
-89 -110 225 0
-110 -225 89 0
-90 -226 91 0
-90 -91 226 0
-91 -226 90 0
-90 -227 92 0
-90 -92 227 0
-92 -227 90 0
-90 -228 93 0
-90 -93 228 0
-93 -228 90 0
-90 -229 94 0
-90 -94 229 0
-94 -229 90 0
-90 -230 95 0
-90 -95 230 0
-95 -230 90 0
-90 -231 96 0
-90 -96 231 0
-96 -231 90 0
-90 -232 97 0
-90 -97 232 0
-97 -232 90 0
-90 -233 98 0
-90 -98 233 0
-98 -233 90 0
-90 -234 99 0
-90 -99 234 0
-99 -234 90 0
-90 -235 100 0
-90 -100 235 0
-100 -235 90 0
-90 -236 101 0
-90 -101 236 0
-101 -236 90 0
-90 -237 102 0
-90 -102 237 0
-102 -237 90 0
-90 -238 103 0
-90 -103 238 0
-103 -238 90 0
-90 -239 104 0
-90 -104 239 0
-104 -239 90 0
-90 -240 105 0
-90 -105 240 0
-105 -240 90 0
-90 -241 106 0
-90 -106 241 0
-106 -241 90 0
-90 -242 107 0
-90 -107 242 0
-107 -242 90 0
-90 -243 108 0
-90 -108 243 0
-108 -243 90 0
-90 -244 109 0
-90 -109 244 0
-109 -244 90 0
-90 -245 110 0
-90 -110 245 0
-110 -245 90 0
-91 -246 92 0
-91 -92 246 0
-92 -246 91 0
-91 -247 93 0
-91 -93 247 0
-93 -247 91 0
-91 -248 94 0
-91 -94 248 0
-94 -248 91 0
-91 -249 95 0
-91 -95 249 0
-95 -249 91 0
-91 -250 96 0
-91 -96 250 0
-96 -250 91 0
-91 -251 97 0
-91 -97 251 0
-97 -251 91 0
-91 -252 98 0
-91 -98 252 0
-98 -252 91 0
-91 -253 99 0
-91 -99 253 0
-99 -253 91 0
-91 -254 100 0
-91 -100 254 0
-100 -254 91 0
-91 -255 101 0
-91 -101 255 0
-101 -255 91 0
-91 -256 102 0
-91 -102 256 0
-102 -256 91 0
-91 -257 103 0
-91 -103 257 0
-103 -257 91 0
-91 -258 104 0
-91 -104 258 0
-104 -258 91 0
-91 -259 105 0
-91 -105 259 0
-105 -259 91 0
-91 -260 106 0
-91 -106 260 0
-106 -260 91 0
-91 -261 107 0
-91 -107 261 0
-107 -261 91 0
-91 -262 108 0
-91 -108 262 0
-108 -262 91 0
-91 -263 109 0
-91 -109 263 0
-109 -263 91 0
-91 -264 110 0
-91 -110 264 0
-110 -264 91 0
-92 -265 93 0
-92 -93 265 0
-93 -265 92 0
-92 -266 94 0
-92 -94 266 0
-94 -266 92 0
-92 -267 95 0
-92 -95 267 0
-95 -267 92 0
-92 -268 96 0
-92 -96 268 0
-96 -268 92 0
-92 -269 97 0
-92 -97 269 0
-97 -269 92 0
-92 -270 98 0
-92 -98 270 0
-98 -270 92 0
-92 -271 99 0
-92 -99 271 0
-99 -271 92 0
-92 -272 100 0
-92 -100 272 0
-100 -272 92 0
-92 -273 101 0
-92 -101 273 0
-101 -273 92 0
-92 -274 102 0
-92 -102 274 0
-102 -274 92 0
-92 -275 103 0
-92 -103 275 0
-103 -275 92 0
-92 -276 104 0
-92 -104 276 0
-104 -276 92 0
-92 -277 105 0
-92 -105 277 0
-105 -277 92 0
-92 -278 106 0
-92 -106 278 0
-106 -278 92 0
-92 -279 107 0
-92 -107 279 0
-107 -279 92 0
-92 -280 108 0
-92 -108 280 0
-108 -280 92 0
-92 -281 109 0
-92 -109 281 0
-109 -281 92 0
-92 -282 110 0
-92 -110 282 0
-110 -282 92 0
-93 -283 94 0
-93 -94 283 0
-94 -283 93 0
-93 -284 95 0
-93 -95 284 0
-95 -284 93 0
-93 -285 96 0
-93 -96 285 0
-96 -285 93 0
-93 -286 97 0
-93 -97 286 0
-97 -286 93 0
-93 -287 98 0
-93 -98 287 0
-98 -287 93 0
-93 -288 99 0
-93 -99 288 0
-99 -288 93 0
-93 -289 100 0
-93 -100 289 0
-100 -289 93 0
-93 -290 101 0
-93 -101 290 0
-101 -290 93 0
-93 -291 102 0
-93 -102 291 0
-102 -291 93 0
-93 -292 103 0
-93 -103 292 0
-103 -292 93 0
-93 -293 104 0
-93 -104 293 0
-104 -293 93 0
-93 -294 105 0
-93 -105 294 0
-105 -294 93 0
-93 -295 106 0
-93 -106 295 0
-106 -295 93 0
-93 -296 107 0
-93 -107 296 0
-107 -296 93 0
-93 -297 108 0
-93 -108 297 0
-108 -297 93 0
-93 -298 109 0
-93 -109 298 0
-109 -298 93 0
-93 -299 110 0
-93 -110 299 0
-110 -299 93 0
-94 -300 95 0
-94 -95 300 0
-95 -300 94 0
-94 -301 96 0
-94 -96 301 0
-96 -301 94 0
-94 -302 97 0
-94 -97 302 0
-97 -302 94 0
-94 -303 98 0
-94 -98 303 0
-98 -303 94 0
-94 -304 99 0
-94 -99 304 0
-99 -304 94 0
-94 -305 100 0
-94 -100 305 0
-100 -305 94 0
-94 -306 101 0
-94 -101 306 0
-101 -306 94 0
-94 -307 102 0
-94 -102 307 0
-102 -307 94 0
-94 -308 103 0
-94 -103 308 0
-103 -308 94 0
-94 -309 104 0
-94 -104 309 0
-104 -309 94 0
-94 -310 105 0
-94 -105 310 0
-105 -310 94 0
-94 -311 106 0
-94 -106 311 0
-106 -311 94 0
-94 -312 107 0
-94 -107 312 0
-107 -312 94 0
-94 -313 108 0
-94 -108 313 0
-108 -313 94 0
-94 -314 109 0
-94 -109 314 0
-109 -314 94 0
-94 -315 110 0
-94 -110 315 0
-110 -315 94 0
-95 -316 96 0
-95 -96 316 0
-96 -316 95 0
-95 -317 97 0
-95 -97 317 0
-97 -317 95 0
-95 -318 98 0
-95 -98 318 0
-98 -318 95 0
-95 -319 99 0
-95 -99 319 0
-99 -319 95 0
-95 -320 100 0
-95 -100 320 0
-100 -320 95 0
-95 -321 101 0
-95 -101 321 0
-101 -321 95 0
-95 -322 102 0
-95 -102 322 0
-102 -322 95 0
-95 -323 103 0
-95 -103 323 0
-103 -323 95 0
-95 -324 104 0
-95 -104 324 0
-104 -324 95 0
-95 -325 105 0
-95 -105 325 0
-105 -325 95 0
-95 -326 106 0
-95 -106 326 0
-106 -326 95 0
-95 -327 107 0
-95 -107 327 0
-107 -327 95 0
-95 -328 108 0
-95 -108 328 0
-108 -328 95 0
-95 -329 109 0
-95 -109 329 0
-109 -329 95 0
-95 -330 110 0
-95 -110 330 0
-110 -330 95 0
-96 -331 97 0
-96 -97 331 0
-97 -331 96 0
-96 -332 98 0
-96 -98 332 0
-98 -332 96 0
-96 -333 99 0
-96 -99 333 0
-99 -333 96 0
-96 -334 100 0
-96 -100 334 0
-100 -334 96 0
-96 -335 101 0
-96 -101 335 0
-101 -335 96 0
-96 -336 102 0
-96 -102 336 0
-102 -336 96 0
-96 -337 103 0
-96 -103 337 0
-103 -337 96 0
-96 -338 104 0
-96 -104 338 0
-104 -338 96 0
-96 -339 105 0
-96 -105 339 0
-105 -339 96 0
-96 -340 106 0
-96 -106 340 0
-106 -340 96 0
-96 -341 107 0
-96 -107 341 0
-107 -341 96 0
-96 -342 108 0
-96 -108 342 0
-108 -342 96 0
-96 -343 109 0
-96 -109 343 0
-109 -343 96 0
-96 -344 110 0
-96 -110 344 0
-110 -344 96 0
-97 -345 98 0
-97 -98 345 0
-98 -345 97 0
-97 -346 99 0
-97 -99 346 0
-99 -346 97 0
-97 -347 100 0
-97 -100 347 0
-100 -347 97 0
-97 -348 101 0
-97 -101 348 0
-101 -348 97 0
-97 -349 102 0
-97 -102 349 0
-102 -349 97 0
-97 -350 103 0
-97 -103 350 0
-103 -350 97 0
-97 -351 104 0
-97 -104 351 0
-104 -351 97 0
-97 -352 105 0
-97 -105 352 0
-105 -352 97 0
-97 -353 106 0
-97 -106 353 0
-106 -353 97 0
-97 -354 107 0
-97 -107 354 0
-107 -354 97 0
-97 -355 108 0
-97 -108 355 0
-108 -355 97 0
-97 -356 109 0
-97 -109 356 0
-109 -356 97 0
-97 -357 110 0
-97 -110 357 0
-110 -357 97 0
-98 -358 99 0
-98 -99 358 0
-99 -358 98 0
-98 -359 100 0
-98 -100 359 0
-100 -359 98 0
-98 -360 101 0
-98 -101 360 0
-101 -360 98 0
-98 -361 102 0
-98 -102 361 0
-102 -361 98 0
-98 -362 103 0
-98 -103 362 0
-103 -362 98 0
-98 -363 104 0
-98 -104 363 0
-104 -363 98 0
-98 -364 105 0
-98 -105 364 0
-105 -364 98 0
-98 -365 106 0
-98 -106 365 0
-106 -365 98 0
-98 -366 107 0
-98 -107 366 0
-107 -366 98 0
-98 -367 108 0
-98 -108 367 0
-108 -367 98 0
-98 -368 109 0
-98 -109 368 0
-109 -368 98 0
-98 -369 110 0
-98 -110 369 0
-110 -369 98 0
-99 -370 100 0
-99 -100 370 0
-100 -370 99 0
-99 -371 101 0
-99 -101 371 0
-101 -371 99 0
-99 -372 102 0
-99 -102 372 0
-102 -372 99 0
-99 -373 103 0
-99 -103 373 0
-103 -373 99 0
-99 -374 104 0
-99 -104 374 0
-104 -374 99 0
-99 -375 105 0
-99 -105 375 0
-105 -375 99 0
-99 -376 106 0
-99 -106 376 0
-106 -376 99 0
-99 -377 107 0
-99 -107 377 0
-107 -377 99 0
-99 -378 108 0
-99 -108 378 0
-108 -378 99 0
-99 -379 109 0
-99 -109 379 0
-109 -379 99 0
-99 -380 110 0
-99 -110 380 0
-110 -380 99 0
-100 -381 101 0
-100 -101 381 0
-101 -381 100 0
-100 -382 102 0
-100 -102 382 0
-102 -382 100 0
-100 -383 103 0
-100 -103 383 0
-103 -383 100 0
-100 -384 104 0
-100 -104 384 0
-104 -384 100 0
-100 -385 105 0
-100 -105 385 0
-105 -385 100 0
-100 -386 106 0
-100 -106 386 0
-106 -386 100 0
-100 -387 107 0
-100 -107 387 0
-107 -387 100 0
-100 -388 108 0
-100 -108 388 0
-108 -388 100 0
-100 -389 109 0
-100 -109 389 0
-109 -389 100 0
-100 -390 110 0
-100 -110 390 0
-110 -390 100 0
-101 -391 102 0
-101 -102 391 0
-102 -391 101 0
-101 -392 103 0
-101 -103 392 0
-103 -392 101 0
-101 -393 104 0
-101 -104 393 0
-104 -393 101 0
-101 -394 105 0
-101 -105 394 0
-105 -394 101 0
-101 -395 106 0
-101 -106 395 0
-106 -395 101 0
-101 -396 107 0
-101 -107 396 0
-107 -396 101 0
-101 -397 108 0
-101 -108 397 0
-108 -397 101 0
-101 -398 109 0
-101 -109 398 0
-109 -398 101 0
-101 -399 110 0
-101 -110 399 0
-110 -399 101 0
-102 -400 103 0
-102 -103 400 0
-103 -400 102 0
-102 -401 104 0
-102 -104 401 0
-104 -401 102 0
-102 -402 105 0
-102 -105 402 0
-105 -402 102 0
-102 -403 106 0
-102 -106 403 0
-106 -403 102 0
-102 -404 107 0
-102 -107 404 0
-107 -404 102 0
-102 -405 108 0
-102 -108 405 0
-108 -405 102 0
-102 -406 109 0
-102 -109 406 0
-109 -406 102 0
-102 -407 110 0
-102 -110 407 0
-110 -407 102 0
-103 -408 104 0
-103 -104 408 0
-104 -408 103 0
-103 -409 105 0
-103 -105 409 0
-105 -409 103 0
-103 -410 106 0
-103 -106 410 0
-106 -410 103 0
-103 -411 107 0
-103 -107 411 0
-107 -411 103 0
-103 -412 108 0
-103 -108 412 0
-108 -412 103 0
-103 -413 109 0
-103 -109 413 0
-109 -413 103 0
-103 -414 110 0
-103 -110 414 0
-110 -414 103 0
-104 -415 105 0
-104 -105 415 0
-105 -415 104 0
-104 -416 106 0
-104 -106 416 0
-106 -416 104 0
-104 -417 107 0
-104 -107 417 0
-107 -417 104 0
-104 -418 108 0
-104 -108 418 0
-108 -418 104 0
-104 -419 109 0
-104 -109 419 0
-109 -419 104 0
-104 -420 110 0
-104 -110 420 0
-110 -420 104 0
-105 -421 106 0
-105 -106 421 0
-106 -421 105 0
-105 -422 107 0
-105 -107 422 0
-107 -422 105 0
-105 -423 108 0
-105 -108 423 0
-108 -423 105 0
-105 -424 109 0
-105 -109 424 0
-109 -424 105 0
-105 -425 110 0
-105 -110 425 0
-110 -425 105 0
-106 -426 107 0
-106 -107 426 0
-107 -426 106 0
-106 -427 108 0
-106 -108 427 0
-108 -427 106 0
-106 -428 109 0
-106 -109 428 0
-109 -428 106 0
-106 -429 110 0
-106 -110 429 0
-110 -429 106 0
-107 -430 108 0
-107 -108 430 0
-108 -430 107 0
-107 -431 109 0
-107 -109 431 0
-109 -431 107 0
-107 -432 110 0
-107 -110 432 0
-110 -432 107 0
-108 -433 109 0
-108 -109 433 0
-109 -433 108 0
-108 -434 110 0
-108 -110 434 0
-110 -434 108 0
-109 -435 110 0
-109 -110 435 0
-110 -435 109 0
-111 -136 112 0
-111 -112 136 0
-112 -136 111 0
-111 -137 113 0
-111 -113 137 0
-113 -137 111 0
-111 -138 114 0
-111 -114 138 0
-114 -138 111 0
-111 -139 115 0
-111 -115 139 0
-115 -139 111 0
-111 -140 116 0
-111 -116 140 0
-116 -140 111 0
-111 -141 117 0
-111 -117 141 0
-117 -141 111 0
-111 -142 118 0
-111 -118 142 0
-118 -142 111 0
-111 -143 119 0
-111 -119 143 0
-119 -143 111 0
-111 -144 120 0
-111 -120 144 0
-120 -144 111 0
-111 -145 121 0
-111 -121 145 0
-121 -145 111 0
-111 -146 122 0
-111 -122 146 0
-122 -146 111 0
-111 -147 123 0
-111 -123 147 0
-123 -147 111 0
-111 -148 124 0
-111 -124 148 0
-124 -148 111 0
-111 -149 125 0
-111 -125 149 0
-125 -149 111 0
-111 -150 126 0
-111 -126 150 0
-126 -150 111 0
-111 -151 127 0
-111 -127 151 0
-127 -151 111 0
-111 -152 128 0
-111 -128 152 0
-128 -152 111 0
-111 -153 129 0
-111 -129 153 0
-129 -153 111 0
-111 -154 130 0
-111 -130 154 0
-130 -154 111 0
-111 -155 131 0
-111 -131 155 0
-131 -155 111 0
-111 -156 132 0
-111 -132 156 0
-132 -156 111 0
-111 -157 133 0
-111 -133 157 0
-133 -157 111 0
-111 -158 134 0
-111 -134 158 0
-134 -158 111 0
-111 -159 135 0
-111 -135 159 0
-135 -159 111 0
-112 -160 113 0
-112 -113 160 0
-113 -160 112 0
-112 -161 114 0
-112 -114 161 0
-114 -161 112 0
-112 -162 115 0
-112 -115 162 0
-115 -162 112 0
-112 -163 116 0
-112 -116 163 0
-116 -163 112 0
-112 -164 117 0
-112 -117 164 0
-117 -164 112 0
-112 -165 118 0
-112 -118 165 0
-118 -165 112 0
-112 -166 119 0
-112 -119 166 0
-119 -166 112 0
-112 -167 120 0
-112 -120 167 0
-120 -167 112 0
-112 -168 121 0
-112 -121 168 0
-121 -168 112 0
-112 -169 122 0
-112 -122 169 0
-122 -169 112 0
-112 -170 123 0
-112 -123 170 0
-123 -170 112 0
-112 -171 124 0
-112 -124 171 0
-124 -171 112 0
-112 -172 125 0
-112 -125 172 0
-125 -172 112 0
-112 -173 126 0
-112 -126 173 0
-126 -173 112 0
-112 -174 127 0
-112 -127 174 0
-127 -174 112 0
-112 -175 128 0
-112 -128 175 0
-128 -175 112 0
-112 -176 129 0
-112 -129 176 0
-129 -176 112 0
-112 -177 130 0
-112 -130 177 0
-130 -177 112 0
-112 -178 131 0
-112 -131 178 0
-131 -178 112 0
-112 -179 132 0
-112 -132 179 0
-132 -179 112 0
-112 -180 133 0
-112 -133 180 0
-133 -180 112 0
-112 -181 134 0
-112 -134 181 0
-134 -181 112 0
-112 -182 135 0
-112 -135 182 0
-135 -182 112 0
-113 -183 114 0
-113 -114 183 0
-114 -183 113 0
-113 -184 115 0
-113 -115 184 0
-115 -184 113 0
-113 -185 116 0
-113 -116 185 0
-116 -185 113 0
-113 -186 117 0
-113 -117 186 0
-117 -186 113 0
-113 -187 118 0
-113 -118 187 0
-118 -187 113 0
-113 -188 119 0
-113 -119 188 0
-119 -188 113 0
-113 -189 120 0
-113 -120 189 0
-120 -189 113 0
-113 -190 121 0
-113 -121 190 0
-121 -190 113 0
-113 -191 122 0
-113 -122 191 0
-122 -191 113 0
-113 -192 123 0
-113 -123 192 0
-123 -192 113 0
-113 -193 124 0
-113 -124 193 0
-124 -193 113 0
-113 -194 125 0
-113 -125 194 0
-125 -194 113 0
-113 -195 126 0
-113 -126 195 0
-126 -195 113 0
-113 -196 127 0
-113 -127 196 0
-127 -196 113 0
-113 -197 128 0
-113 -128 197 0
-128 -197 113 0
-113 -198 129 0
-113 -129 198 0
-129 -198 113 0
-113 -199 130 0
-113 -130 199 0
-130 -199 113 0
-113 -200 131 0
-113 -131 200 0
-131 -200 113 0
-113 -201 132 0
-113 -132 201 0
-132 -201 113 0
-113 -202 133 0
-113 -133 202 0
-133 -202 113 0
-113 -203 134 0
-113 -134 203 0
-134 -203 113 0
-113 -204 135 0
-113 -135 204 0
-135 -204 113 0
-114 -205 115 0
-114 -115 205 0
-115 -205 114 0
-114 -206 116 0
-114 -116 206 0
-116 -206 114 0
-114 -207 117 0
-114 -117 207 0
-117 -207 114 0
-114 -208 118 0
-114 -118 208 0
-118 -208 114 0
-114 -209 119 0
-114 -119 209 0
-119 -209 114 0
-114 -210 120 0
-114 -120 210 0
-120 -210 114 0
-114 -211 121 0
-114 -121 211 0
-121 -211 114 0
-114 -212 122 0
-114 -122 212 0
-122 -212 114 0
-114 -213 123 0
-114 -123 213 0
-123 -213 114 0
-114 -214 124 0
-114 -124 214 0
-124 -214 114 0
-114 -215 125 0
-114 -125 215 0
-125 -215 114 0
-114 -216 126 0
-114 -126 216 0
-126 -216 114 0
-114 -217 127 0
-114 -127 217 0
-127 -217 114 0
-114 -218 128 0
-114 -128 218 0
-128 -218 114 0
-114 -219 129 0
-114 -129 219 0
-129 -219 114 0
-114 -220 130 0
-114 -130 220 0
-130 -220 114 0
-114 -221 131 0
-114 -131 221 0
-131 -221 114 0
-114 -222 132 0
-114 -132 222 0
-132 -222 114 0
-114 -223 133 0
-114 -133 223 0
-133 -223 114 0
-114 -224 134 0
-114 -134 224 0
-134 -224 114 0
-114 -225 135 0
-114 -135 225 0
-135 -225 114 0
-115 -226 116 0
-115 -116 226 0
-116 -226 115 0
-115 -227 117 0
-115 -117 227 0
-117 -227 115 0
-115 -228 118 0
-115 -118 228 0
-118 -228 115 0
-115 -229 119 0
-115 -119 229 0
-119 -229 115 0
-115 -230 120 0
-115 -120 230 0
-120 -230 115 0
-115 -231 121 0
-115 -121 231 0
-121 -231 115 0
-115 -232 122 0
-115 -122 232 0
-122 -232 115 0
-115 -233 123 0
-115 -123 233 0
-123 -233 115 0
-115 -234 124 0
-115 -124 234 0
-124 -234 115 0
-115 -235 125 0
-115 -125 235 0
-125 -235 115 0
-115 -236 126 0
-115 -126 236 0
-126 -236 115 0
-115 -237 127 0
-115 -127 237 0
-127 -237 115 0
-115 -238 128 0
-115 -128 238 0
-128 -238 115 0
-115 -239 129 0
-115 -129 239 0
-129 -239 115 0
-115 -240 130 0
-115 -130 240 0
-130 -240 115 0
-115 -241 131 0
-115 -131 241 0
-131 -241 115 0
-115 -242 132 0
-115 -132 242 0
-132 -242 115 0
-115 -243 133 0
-115 -133 243 0
-133 -243 115 0
-115 -244 134 0
-115 -134 244 0
-134 -244 115 0
-115 -245 135 0
-115 -135 245 0
-135 -245 115 0
-116 -246 117 0
-116 -117 246 0
-117 -246 116 0
-116 -247 118 0
-116 -118 247 0
-118 -247 116 0
-116 -248 119 0
-116 -119 248 0
-119 -248 116 0
-116 -249 120 0
-116 -120 249 0
-120 -249 116 0
-116 -250 121 0
-116 -121 250 0
-121 -250 116 0
-116 -251 122 0
-116 -122 251 0
-122 -251 116 0
-116 -252 123 0
-116 -123 252 0
-123 -252 116 0
-116 -253 124 0
-116 -124 253 0
-124 -253 116 0
-116 -254 125 0
-116 -125 254 0
-125 -254 116 0
-116 -255 126 0
-116 -126 255 0
-126 -255 116 0
-116 -256 127 0
-116 -127 256 0
-127 -256 116 0
-116 -257 128 0
-116 -128 257 0
-128 -257 116 0
-116 -258 129 0
-116 -129 258 0
-129 -258 116 0
-116 -259 130 0
-116 -130 259 0
-130 -259 116 0
-116 -260 131 0
-116 -131 260 0
-131 -260 116 0
-116 -261 132 0
-116 -132 261 0
-132 -261 116 0
-116 -262 133 0
-116 -133 262 0
-133 -262 116 0
-116 -263 134 0
-116 -134 263 0
-134 -263 116 0
-116 -264 135 0
-116 -135 264 0
-135 -264 116 0
-117 -265 118 0
-117 -118 265 0
-118 -265 117 0
-117 -266 119 0
-117 -119 266 0
-119 -266 117 0
-117 -267 120 0
-117 -120 267 0
-120 -267 117 0
-117 -268 121 0
-117 -121 268 0
-121 -268 117 0
-117 -269 122 0
-117 -122 269 0
-122 -269 117 0
-117 -270 123 0
-117 -123 270 0
-123 -270 117 0
-117 -271 124 0
-117 -124 271 0
-124 -271 117 0
-117 -272 125 0
-117 -125 272 0
-125 -272 117 0
-117 -273 126 0
-117 -126 273 0
-126 -273 117 0
-117 -274 127 0
-117 -127 274 0
-127 -274 117 0
-117 -275 128 0
-117 -128 275 0
-128 -275 117 0
-117 -276 129 0
-117 -129 276 0
-129 -276 117 0
-117 -277 130 0
-117 -130 277 0
-130 -277 117 0
-117 -278 131 0
-117 -131 278 0
-131 -278 117 0
-117 -279 132 0
-117 -132 279 0
-132 -279 117 0
-117 -280 133 0
-117 -133 280 0
-133 -280 117 0
-117 -281 134 0
-117 -134 281 0
-134 -281 117 0
-117 -282 135 0
-117 -135 282 0
-135 -282 117 0
-118 -283 119 0
-118 -119 283 0
-119 -283 118 0
-118 -284 120 0
-118 -120 284 0
-120 -284 118 0
-118 -285 121 0
-118 -121 285 0
-121 -285 118 0
-118 -286 122 0
-118 -122 286 0
-122 -286 118 0
-118 -287 123 0
-118 -123 287 0
-123 -287 118 0
-118 -288 124 0
-118 -124 288 0
-124 -288 118 0
-118 -289 125 0
-118 -125 289 0
-125 -289 118 0
-118 -290 126 0
-118 -126 290 0
-126 -290 118 0
-118 -291 127 0
-118 -127 291 0
-127 -291 118 0
-118 -292 128 0
-118 -128 292 0
-128 -292 118 0
-118 -293 129 0
-118 -129 293 0
-129 -293 118 0
-118 -294 130 0
-118 -130 294 0
-130 -294 118 0
-118 -295 131 0
-118 -131 295 0
-131 -295 118 0
-118 -296 132 0
-118 -132 296 0
-132 -296 118 0
-118 -297 133 0
-118 -133 297 0
-133 -297 118 0
-118 -298 134 0
-118 -134 298 0
-134 -298 118 0
-118 -299 135 0
-118 -135 299 0
-135 -299 118 0
-119 -300 120 0
-119 -120 300 0
-120 -300 119 0
-119 -301 121 0
-119 -121 301 0
-121 -301 119 0
-119 -302 122 0
-119 -122 302 0
-122 -302 119 0
-119 -303 123 0
-119 -123 303 0
-123 -303 119 0
-119 -304 124 0
-119 -124 304 0
-124 -304 119 0
-119 -305 125 0
-119 -125 305 0
-125 -305 119 0
-119 -306 126 0
-119 -126 306 0
-126 -306 119 0
-119 -307 127 0
-119 -127 307 0
-127 -307 119 0
-119 -308 128 0
-119 -128 308 0
-128 -308 119 0
-119 -309 129 0
-119 -129 309 0
-129 -309 119 0
-119 -310 130 0
-119 -130 310 0
-130 -310 119 0
-119 -311 131 0
-119 -131 311 0
-131 -311 119 0
-119 -312 132 0
-119 -132 312 0
-132 -312 119 0
-119 -313 133 0
-119 -133 313 0
-133 -313 119 0
-119 -314 134 0
-119 -134 314 0
-134 -314 119 0
-119 -315 135 0
-119 -135 315 0
-135 -315 119 0
-120 -316 121 0
-120 -121 316 0
-121 -316 120 0
-120 -317 122 0
-120 -122 317 0
-122 -317 120 0
-120 -318 123 0
-120 -123 318 0
-123 -318 120 0
-120 -319 124 0
-120 -124 319 0
-124 -319 120 0
-120 -320 125 0
-120 -125 320 0
-125 -320 120 0
-120 -321 126 0
-120 -126 321 0
-126 -321 120 0
-120 -322 127 0
-120 -127 322 0
-127 -322 120 0
-120 -323 128 0
-120 -128 323 0
-128 -323 120 0
-120 -324 129 0
-120 -129 324 0
-129 -324 120 0
-120 -325 130 0
-120 -130 325 0
-130 -325 120 0
-120 -326 131 0
-120 -131 326 0
-131 -326 120 0
-120 -327 132 0
-120 -132 327 0
-132 -327 120 0
-120 -328 133 0
-120 -133 328 0
-133 -328 120 0
-120 -329 134 0
-120 -134 329 0
-134 -329 120 0
-120 -330 135 0
-120 -135 330 0
-135 -330 120 0
-121 -331 122 0
-121 -122 331 0
-122 -331 121 0
-121 -332 123 0
-121 -123 332 0
-123 -332 121 0
-121 -333 124 0
-121 -124 333 0
-124 -333 121 0
-121 -334 125 0
-121 -125 334 0
-125 -334 121 0
-121 -335 126 0
-121 -126 335 0
-126 -335 121 0
-121 -336 127 0
-121 -127 336 0
-127 -336 121 0
-121 -337 128 0
-121 -128 337 0
-128 -337 121 0
-121 -338 129 0
-121 -129 338 0
-129 -338 121 0
-121 -339 130 0
-121 -130 339 0
-130 -339 121 0
-121 -340 131 0
-121 -131 340 0
-131 -340 121 0
-121 -341 132 0
-121 -132 341 0
-132 -341 121 0
-121 -342 133 0
-121 -133 342 0
-133 -342 121 0
-121 -343 134 0
-121 -134 343 0
-134 -343 121 0
-121 -344 135 0
-121 -135 344 0
-135 -344 121 0
-122 -345 123 0
-122 -123 345 0
-123 -345 122 0
-122 -346 124 0
-122 -124 346 0
-124 -346 122 0
-122 -347 125 0
-122 -125 347 0
-125 -347 122 0
-122 -348 126 0
-122 -126 348 0
-126 -348 122 0
-122 -349 127 0
-122 -127 349 0
-127 -349 122 0
-122 -350 128 0
-122 -128 350 0
-128 -350 122 0
-122 -351 129 0
-122 -129 351 0
-129 -351 122 0
-122 -352 130 0
-122 -130 352 0
-130 -352 122 0
-122 -353 131 0
-122 -131 353 0
-131 -353 122 0
-122 -354 132 0
-122 -132 354 0
-132 -354 122 0
-122 -355 133 0
-122 -133 355 0
-133 -355 122 0
-122 -356 134 0
-122 -134 356 0
-134 -356 122 0
-122 -357 135 0
-122 -135 357 0
-135 -357 122 0
-123 -358 124 0
-123 -124 358 0
-124 -358 123 0
-123 -359 125 0
-123 -125 359 0
-125 -359 123 0
-123 -360 126 0
-123 -126 360 0
-126 -360 123 0
-123 -361 127 0
-123 -127 361 0
-127 -361 123 0
-123 -362 128 0
-123 -128 362 0
-128 -362 123 0
-123 -363 129 0
-123 -129 363 0
-129 -363 123 0
-123 -364 130 0
-123 -130 364 0
-130 -364 123 0
-123 -365 131 0
-123 -131 365 0
-131 -365 123 0
-123 -366 132 0
-123 -132 366 0
-132 -366 123 0
-123 -367 133 0
-123 -133 367 0
-133 -367 123 0
-123 -368 134 0
-123 -134 368 0
-134 -368 123 0
-123 -369 135 0
-123 -135 369 0
-135 -369 123 0
-124 -370 125 0
-124 -125 370 0
-125 -370 124 0
-124 -371 126 0
-124 -126 371 0
-126 -371 124 0
-124 -372 127 0
-124 -127 372 0
-127 -372 124 0
-124 -373 128 0
-124 -128 373 0
-128 -373 124 0
-124 -374 129 0
-124 -129 374 0
-129 -374 124 0
-124 -375 130 0
-124 -130 375 0
-130 -375 124 0
-124 -376 131 0
-124 -131 376 0
-131 -376 124 0
-124 -377 132 0
-124 -132 377 0
-132 -377 124 0
-124 -378 133 0
-124 -133 378 0
-133 -378 124 0
-124 -379 134 0
-124 -134 379 0
-134 -379 124 0
-124 -380 135 0
-124 -135 380 0
-135 -380 124 0
-125 -381 126 0
-125 -126 381 0
-126 -381 125 0
-125 -382 127 0
-125 -127 382 0
-127 -382 125 0
-125 -383 128 0
-125 -128 383 0
-128 -383 125 0
-125 -384 129 0
-125 -129 384 0
-129 -384 125 0
-125 -385 130 0
-125 -130 385 0
-130 -385 125 0
-125 -386 131 0
-125 -131 386 0
-131 -386 125 0
-125 -387 132 0
-125 -132 387 0
-132 -387 125 0
-125 -388 133 0
-125 -133 388 0
-133 -388 125 0
-125 -389 134 0
-125 -134 389 0
-134 -389 125 0
-125 -390 135 0
-125 -135 390 0
-135 -390 125 0
-126 -391 127 0
-126 -127 391 0
-127 -391 126 0
-126 -392 128 0
-126 -128 392 0
-128 -392 126 0
-126 -393 129 0
-126 -129 393 0
-129 -393 126 0
-126 -394 130 0
-126 -130 394 0
-130 -394 126 0
-126 -395 131 0
-126 -131 395 0
-131 -395 126 0
-126 -396 132 0
-126 -132 396 0
-132 -396 126 0
-126 -397 133 0
-126 -133 397 0
-133 -397 126 0
-126 -398 134 0
-126 -134 398 0
-134 -398 126 0
-126 -399 135 0
-126 -135 399 0
-135 -399 126 0
-127 -400 128 0
-127 -128 400 0
-128 -400 127 0
-127 -401 129 0
-127 -129 401 0
-129 -401 127 0
-127 -402 130 0
-127 -130 402 0
-130 -402 127 0
-127 -403 131 0
-127 -131 403 0
-131 -403 127 0
-127 -404 132 0
-127 -132 404 0
-132 -404 127 0
-127 -405 133 0
-127 -133 405 0
-133 -405 127 0
-127 -406 134 0
-127 -134 406 0
-134 -406 127 0
-127 -407 135 0
-127 -135 407 0
-135 -407 127 0
-128 -408 129 0
-128 -129 408 0
-129 -408 128 0
-128 -409 130 0
-128 -130 409 0
-130 -409 128 0
-128 -410 131 0
-128 -131 410 0
-131 -410 128 0
-128 -411 132 0
-128 -132 411 0
-132 -411 128 0
-128 -412 133 0
-128 -133 412 0
-133 -412 128 0
-128 -413 134 0
-128 -134 413 0
-134 -413 128 0
-128 -414 135 0
-128 -135 414 0
-135 -414 128 0
-129 -415 130 0
-129 -130 415 0
-130 -415 129 0
-129 -416 131 0
-129 -131 416 0
-131 -416 129 0
-129 -417 132 0
-129 -132 417 0
-132 -417 129 0
-129 -418 133 0
-129 -133 418 0
-133 -418 129 0
-129 -419 134 0
-129 -134 419 0
-134 -419 129 0
-129 -420 135 0
-129 -135 420 0
-135 -420 129 0
-130 -421 131 0
-130 -131 421 0
-131 -421 130 0
-130 -422 132 0
-130 -132 422 0
-132 -422 130 0
-130 -423 133 0
-130 -133 423 0
-133 -423 130 0
-130 -424 134 0
-130 -134 424 0
-134 -424 130 0
-130 -425 135 0
-130 -135 425 0
-135 -425 130 0
-131 -426 132 0
-131 -132 426 0
-132 -426 131 0
-131 -427 133 0
-131 -133 427 0
-133 -427 131 0
-131 -428 134 0
-131 -134 428 0
-134 -428 131 0
-131 -429 135 0
-131 -135 429 0
-135 -429 131 0
-132 -430 133 0
-132 -133 430 0
-133 -430 132 0
-132 -431 134 0
-132 -134 431 0
-134 -431 132 0
-132 -432 135 0
-132 -135 432 0
-135 -432 132 0
-133 -433 134 0
-133 -134 433 0
-134 -433 133 0
-133 -434 135 0
-133 -135 434 0
-135 -434 133 0
-134 -435 135 0
-134 -135 435 0
-135 -435 134 0
-136 -160 137 0
-136 -137 160 0
-137 -160 136 0
-136 -161 138 0
-136 -138 161 0
-138 -161 136 0
-136 -162 139 0
-136 -139 162 0
-139 -162 136 0
-136 -163 140 0
-136 -140 163 0
-140 -163 136 0
-136 -164 141 0
-136 -141 164 0
-141 -164 136 0
-136 -165 142 0
-136 -142 165 0
-142 -165 136 0
-136 -166 143 0
-136 -143 166 0
-143 -166 136 0
-136 -167 144 0
-136 -144 167 0
-144 -167 136 0
-136 -168 145 0
-136 -145 168 0
-145 -168 136 0
-136 -169 146 0
-136 -146 169 0
-146 -169 136 0
-136 -170 147 0
-136 -147 170 0
-147 -170 136 0
-136 -171 148 0
-136 -148 171 0
-148 -171 136 0
-136 -172 149 0
-136 -149 172 0
-149 -172 136 0
-136 -173 150 0
-136 -150 173 0
-150 -173 136 0
-136 -174 151 0
-136 -151 174 0
-151 -174 136 0
-136 -175 152 0
-136 -152 175 0
-152 -175 136 0
-136 -176 153 0
-136 -153 176 0
-153 -176 136 0
-136 -177 154 0
-136 -154 177 0
-154 -177 136 0
-136 -178 155 0
-136 -155 178 0
-155 -178 136 0
-136 -179 156 0
-136 -156 179 0
-156 -179 136 0
-136 -180 157 0
-136 -157 180 0
-157 -180 136 0
-136 -181 158 0
-136 -158 181 0
-158 -181 136 0
-136 -182 159 0
-136 -159 182 0
-159 -182 136 0
-137 -183 138 0
-137 -138 183 0
-138 -183 137 0
-137 -184 139 0
-137 -139 184 0
-139 -184 137 0
-137 -185 140 0
-137 -140 185 0
-140 -185 137 0
-137 -186 141 0
-137 -141 186 0
-141 -186 137 0
-137 -187 142 0
-137 -142 187 0
-142 -187 137 0
-137 -188 143 0
-137 -143 188 0
-143 -188 137 0
-137 -189 144 0
-137 -144 189 0
-144 -189 137 0
-137 -190 145 0
-137 -145 190 0
-145 -190 137 0
-137 -191 146 0
-137 -146 191 0
-146 -191 137 0
-137 -192 147 0
-137 -147 192 0
-147 -192 137 0
-137 -193 148 0
-137 -148 193 0
-148 -193 137 0
-137 -194 149 0
-137 -149 194 0
-149 -194 137 0
-137 -195 150 0
-137 -150 195 0
-150 -195 137 0
-137 -196 151 0
-137 -151 196 0
-151 -196 137 0
-137 -197 152 0
-137 -152 197 0
-152 -197 137 0
-137 -198 153 0
-137 -153 198 0
-153 -198 137 0
-137 -199 154 0
-137 -154 199 0
-154 -199 137 0
-137 -200 155 0
-137 -155 200 0
-155 -200 137 0
-137 -201 156 0
-137 -156 201 0
-156 -201 137 0
-137 -202 157 0
-137 -157 202 0
-157 -202 137 0
-137 -203 158 0
-137 -158 203 0
-158 -203 137 0
-137 -204 159 0
-137 -159 204 0
-159 -204 137 0
-138 -205 139 0
-138 -139 205 0
-139 -205 138 0
-138 -206 140 0
-138 -140 206 0
-140 -206 138 0
-138 -207 141 0
-138 -141 207 0
-141 -207 138 0
-138 -208 142 0
-138 -142 208 0
-142 -208 138 0
-138 -209 143 0
-138 -143 209 0
-143 -209 138 0
-138 -210 144 0
-138 -144 210 0
-144 -210 138 0
-138 -211 145 0
-138 -145 211 0
-145 -211 138 0
-138 -212 146 0
-138 -146 212 0
-146 -212 138 0
-138 -213 147 0
-138 -147 213 0
-147 -213 138 0
-138 -214 148 0
-138 -148 214 0
-148 -214 138 0
-138 -215 149 0
-138 -149 215 0
-149 -215 138 0
-138 -216 150 0
-138 -150 216 0
-150 -216 138 0
-138 -217 151 0
-138 -151 217 0
-151 -217 138 0
-138 -218 152 0
-138 -152 218 0
-152 -218 138 0
-138 -219 153 0
-138 -153 219 0
-153 -219 138 0
-138 -220 154 0
-138 -154 220 0
-154 -220 138 0
-138 -221 155 0
-138 -155 221 0
-155 -221 138 0
-138 -222 156 0
-138 -156 222 0
-156 -222 138 0
-138 -223 157 0
-138 -157 223 0
-157 -223 138 0
-138 -224 158 0
-138 -158 224 0
-158 -224 138 0
-138 -225 159 0
-138 -159 225 0
-159 -225 138 0
-139 -226 140 0
-139 -140 226 0
-140 -226 139 0
-139 -227 141 0
-139 -141 227 0
-141 -227 139 0
-139 -228 142 0
-139 -142 228 0
-142 -228 139 0
-139 -229 143 0
-139 -143 229 0
-143 -229 139 0
-139 -230 144 0
-139 -144 230 0
-144 -230 139 0
-139 -231 145 0
-139 -145 231 0
-145 -231 139 0
-139 -232 146 0
-139 -146 232 0
-146 -232 139 0
-139 -233 147 0
-139 -147 233 0
-147 -233 139 0
-139 -234 148 0
-139 -148 234 0
-148 -234 139 0
-139 -235 149 0
-139 -149 235 0
-149 -235 139 0
-139 -236 150 0
-139 -150 236 0
-150 -236 139 0
-139 -237 151 0
-139 -151 237 0
-151 -237 139 0
-139 -238 152 0
-139 -152 238 0
-152 -238 139 0
-139 -239 153 0
-139 -153 239 0
-153 -239 139 0
-139 -240 154 0
-139 -154 240 0
-154 -240 139 0
-139 -241 155 0
-139 -155 241 0
-155 -241 139 0
-139 -242 156 0
-139 -156 242 0
-156 -242 139 0
-139 -243 157 0
-139 -157 243 0
-157 -243 139 0
-139 -244 158 0
-139 -158 244 0
-158 -244 139 0
-139 -245 159 0
-139 -159 245 0
-159 -245 139 0
-140 -246 141 0
-140 -141 246 0
-141 -246 140 0
-140 -247 142 0
-140 -142 247 0
-142 -247 140 0
-140 -248 143 0
-140 -143 248 0
-143 -248 140 0
-140 -249 144 0
-140 -144 249 0
-144 -249 140 0
-140 -250 145 0
-140 -145 250 0
-145 -250 140 0
-140 -251 146 0
-140 -146 251 0
-146 -251 140 0
-140 -252 147 0
-140 -147 252 0
-147 -252 140 0
-140 -253 148 0
-140 -148 253 0
-148 -253 140 0
-140 -254 149 0
-140 -149 254 0
-149 -254 140 0
-140 -255 150 0
-140 -150 255 0
-150 -255 140 0
-140 -256 151 0
-140 -151 256 0
-151 -256 140 0
-140 -257 152 0
-140 -152 257 0
-152 -257 140 0
-140 -258 153 0
-140 -153 258 0
-153 -258 140 0
-140 -259 154 0
-140 -154 259 0
-154 -259 140 0
-140 -260 155 0
-140 -155 260 0
-155 -260 140 0
-140 -261 156 0
-140 -156 261 0
-156 -261 140 0
-140 -262 157 0
-140 -157 262 0
-157 -262 140 0
-140 -263 158 0
-140 -158 263 0
-158 -263 140 0
-140 -264 159 0
-140 -159 264 0
-159 -264 140 0
-141 -265 142 0
-141 -142 265 0
-142 -265 141 0
-141 -266 143 0
-141 -143 266 0
-143 -266 141 0
-141 -267 144 0
-141 -144 267 0
-144 -267 141 0
-141 -268 145 0
-141 -145 268 0
-145 -268 141 0
-141 -269 146 0
-141 -146 269 0
-146 -269 141 0
-141 -270 147 0
-141 -147 270 0
-147 -270 141 0
-141 -271 148 0
-141 -148 271 0
-148 -271 141 0
-141 -272 149 0
-141 -149 272 0
-149 -272 141 0
-141 -273 150 0
-141 -150 273 0
-150 -273 141 0
-141 -274 151 0
-141 -151 274 0
-151 -274 141 0
-141 -275 152 0
-141 -152 275 0
-152 -275 141 0
-141 -276 153 0
-141 -153 276 0
-153 -276 141 0
-141 -277 154 0
-141 -154 277 0
-154 -277 141 0
-141 -278 155 0
-141 -155 278 0
-155 -278 141 0
-141 -279 156 0
-141 -156 279 0
-156 -279 141 0
-141 -280 157 0
-141 -157 280 0
-157 -280 141 0
-141 -281 158 0
-141 -158 281 0
-158 -281 141 0
-141 -282 159 0
-141 -159 282 0
-159 -282 141 0
-142 -283 143 0
-142 -143 283 0
-143 -283 142 0
-142 -284 144 0
-142 -144 284 0
-144 -284 142 0
-142 -285 145 0
-142 -145 285 0
-145 -285 142 0
-142 -286 146 0
-142 -146 286 0
-146 -286 142 0
-142 -287 147 0
-142 -147 287 0
-147 -287 142 0
-142 -288 148 0
-142 -148 288 0
-148 -288 142 0
-142 -289 149 0
-142 -149 289 0
-149 -289 142 0
-142 -290 150 0
-142 -150 290 0
-150 -290 142 0
-142 -291 151 0
-142 -151 291 0
-151 -291 142 0
-142 -292 152 0
-142 -152 292 0
-152 -292 142 0
-142 -293 153 0
-142 -153 293 0
-153 -293 142 0
-142 -294 154 0
-142 -154 294 0
-154 -294 142 0
-142 -295 155 0
-142 -155 295 0
-155 -295 142 0
-142 -296 156 0
-142 -156 296 0
-156 -296 142 0
-142 -297 157 0
-142 -157 297 0
-157 -297 142 0
-142 -298 158 0
-142 -158 298 0
-158 -298 142 0
-142 -299 159 0
-142 -159 299 0
-159 -299 142 0
-143 -300 144 0
-143 -144 300 0
-144 -300 143 0
-143 -301 145 0
-143 -145 301 0
-145 -301 143 0
-143 -302 146 0
-143 -146 302 0
-146 -302 143 0
-143 -303 147 0
-143 -147 303 0
-147 -303 143 0
-143 -304 148 0
-143 -148 304 0
-148 -304 143 0
-143 -305 149 0
-143 -149 305 0
-149 -305 143 0
-143 -306 150 0
-143 -150 306 0
-150 -306 143 0
-143 -307 151 0
-143 -151 307 0
-151 -307 143 0
-143 -308 152 0
-143 -152 308 0
-152 -308 143 0
-143 -309 153 0
-143 -153 309 0
-153 -309 143 0
-143 -310 154 0
-143 -154 310 0
-154 -310 143 0
-143 -311 155 0
-143 -155 311 0
-155 -311 143 0
-143 -312 156 0
-143 -156 312 0
-156 -312 143 0
-143 -313 157 0
-143 -157 313 0
-157 -313 143 0
-143 -314 158 0
-143 -158 314 0
-158 -314 143 0
-143 -315 159 0
-143 -159 315 0
-159 -315 143 0
-144 -316 145 0
-144 -145 316 0
-145 -316 144 0
-144 -317 146 0
-144 -146 317 0
-146 -317 144 0
-144 -318 147 0
-144 -147 318 0
-147 -318 144 0
-144 -319 148 0
-144 -148 319 0
-148 -319 144 0
-144 -320 149 0
-144 -149 320 0
-149 -320 144 0
-144 -321 150 0
-144 -150 321 0
-150 -321 144 0
-144 -322 151 0
-144 -151 322 0
-151 -322 144 0
-144 -323 152 0
-144 -152 323 0
-152 -323 144 0
-144 -324 153 0
-144 -153 324 0
-153 -324 144 0
-144 -325 154 0
-144 -154 325 0
-154 -325 144 0
-144 -326 155 0
-144 -155 326 0
-155 -326 144 0
-144 -327 156 0
-144 -156 327 0
-156 -327 144 0
-144 -328 157 0
-144 -157 328 0
-157 -328 144 0
-144 -329 158 0
-144 -158 329 0
-158 -329 144 0
-144 -330 159 0
-144 -159 330 0
-159 -330 144 0
-145 -331 146 0
-145 -146 331 0
-146 -331 145 0
-145 -332 147 0
-145 -147 332 0
-147 -332 145 0
-145 -333 148 0
-145 -148 333 0
-148 -333 145 0
-145 -334 149 0
-145 -149 334 0
-149 -334 145 0
-145 -335 150 0
-145 -150 335 0
-150 -335 145 0
-145 -336 151 0
-145 -151 336 0
-151 -336 145 0
-145 -337 152 0
-145 -152 337 0
-152 -337 145 0
-145 -338 153 0
-145 -153 338 0
-153 -338 145 0
-145 -339 154 0
-145 -154 339 0
-154 -339 145 0
-145 -340 155 0
-145 -155 340 0
-155 -340 145 0
-145 -341 156 0
-145 -156 341 0
-156 -341 145 0
-145 -342 157 0
-145 -157 342 0
-157 -342 145 0
-145 -343 158 0
-145 -158 343 0
-158 -343 145 0
-145 -344 159 0
-145 -159 344 0
-159 -344 145 0
-146 -345 147 0
-146 -147 345 0
-147 -345 146 0
-146 -346 148 0
-146 -148 346 0
-148 -346 146 0
-146 -347 149 0
-146 -149 347 0
-149 -347 146 0
-146 -348 150 0
-146 -150 348 0
-150 -348 146 0
-146 -349 151 0
-146 -151 349 0
-151 -349 146 0
-146 -350 152 0
-146 -152 350 0
-152 -350 146 0
-146 -351 153 0
-146 -153 351 0
-153 -351 146 0
-146 -352 154 0
-146 -154 352 0
-154 -352 146 0
-146 -353 155 0
-146 -155 353 0
-155 -353 146 0
-146 -354 156 0
-146 -156 354 0
-156 -354 146 0
-146 -355 157 0
-146 -157 355 0
-157 -355 146 0
-146 -356 158 0
-146 -158 356 0
-158 -356 146 0
-146 -357 159 0
-146 -159 357 0
-159 -357 146 0
-147 -358 148 0
-147 -148 358 0
-148 -358 147 0
-147 -359 149 0
-147 -149 359 0
-149 -359 147 0
-147 -360 150 0
-147 -150 360 0
-150 -360 147 0
-147 -361 151 0
-147 -151 361 0
-151 -361 147 0
-147 -362 152 0
-147 -152 362 0
-152 -362 147 0
-147 -363 153 0
-147 -153 363 0
-153 -363 147 0
-147 -364 154 0
-147 -154 364 0
-154 -364 147 0
-147 -365 155 0
-147 -155 365 0
-155 -365 147 0
-147 -366 156 0
-147 -156 366 0
-156 -366 147 0
-147 -367 157 0
-147 -157 367 0
-157 -367 147 0
-147 -368 158 0
-147 -158 368 0
-158 -368 147 0
-147 -369 159 0
-147 -159 369 0
-159 -369 147 0
-148 -370 149 0
-148 -149 370 0
-149 -370 148 0
-148 -371 150 0
-148 -150 371 0
-150 -371 148 0
-148 -372 151 0
-148 -151 372 0
-151 -372 148 0
-148 -373 152 0
-148 -152 373 0
-152 -373 148 0
-148 -374 153 0
-148 -153 374 0
-153 -374 148 0
-148 -375 154 0
-148 -154 375 0
-154 -375 148 0
-148 -376 155 0
-148 -155 376 0
-155 -376 148 0
-148 -377 156 0
-148 -156 377 0
-156 -377 148 0
-148 -378 157 0
-148 -157 378 0
-157 -378 148 0
-148 -379 158 0
-148 -158 379 0
-158 -379 148 0
-148 -380 159 0
-148 -159 380 0
-159 -380 148 0
-149 -381 150 0
-149 -150 381 0
-150 -381 149 0
-149 -382 151 0
-149 -151 382 0
-151 -382 149 0
-149 -383 152 0
-149 -152 383 0
-152 -383 149 0
-149 -384 153 0
-149 -153 384 0
-153 -384 149 0
-149 -385 154 0
-149 -154 385 0
-154 -385 149 0
-149 -386 155 0
-149 -155 386 0
-155 -386 149 0
-149 -387 156 0
-149 -156 387 0
-156 -387 149 0
-149 -388 157 0
-149 -157 388 0
-157 -388 149 0
-149 -389 158 0
-149 -158 389 0
-158 -389 149 0
-149 -390 159 0
-149 -159 390 0
-159 -390 149 0
-150 -391 151 0
-150 -151 391 0
-151 -391 150 0
-150 -392 152 0
-150 -152 392 0
-152 -392 150 0
-150 -393 153 0
-150 -153 393 0
-153 -393 150 0
-150 -394 154 0
-150 -154 394 0
-154 -394 150 0
-150 -395 155 0
-150 -155 395 0
-155 -395 150 0
-150 -396 156 0
-150 -156 396 0
-156 -396 150 0
-150 -397 157 0
-150 -157 397 0
-157 -397 150 0
-150 -398 158 0
-150 -158 398 0
-158 -398 150 0
-150 -399 159 0
-150 -159 399 0
-159 -399 150 0
-151 -400 152 0
-151 -152 400 0
-152 -400 151 0
-151 -401 153 0
-151 -153 401 0
-153 -401 151 0
-151 -402 154 0
-151 -154 402 0
-154 -402 151 0
-151 -403 155 0
-151 -155 403 0
-155 -403 151 0
-151 -404 156 0
-151 -156 404 0
-156 -404 151 0
-151 -405 157 0
-151 -157 405 0
-157 -405 151 0
-151 -406 158 0
-151 -158 406 0
-158 -406 151 0
-151 -407 159 0
-151 -159 407 0
-159 -407 151 0
-152 -408 153 0
-152 -153 408 0
-153 -408 152 0
-152 -409 154 0
-152 -154 409 0
-154 -409 152 0
-152 -410 155 0
-152 -155 410 0
-155 -410 152 0
-152 -411 156 0
-152 -156 411 0
-156 -411 152 0
-152 -412 157 0
-152 -157 412 0
-157 -412 152 0
-152 -413 158 0
-152 -158 413 0
-158 -413 152 0
-152 -414 159 0
-152 -159 414 0
-159 -414 152 0
-153 -415 154 0
-153 -154 415 0
-154 -415 153 0
-153 -416 155 0
-153 -155 416 0
-155 -416 153 0
-153 -417 156 0
-153 -156 417 0
-156 -417 153 0
-153 -418 157 0
-153 -157 418 0
-157 -418 153 0
-153 -419 158 0
-153 -158 419 0
-158 -419 153 0
-153 -420 159 0
-153 -159 420 0
-159 -420 153 0
-154 -421 155 0
-154 -155 421 0
-155 -421 154 0
-154 -422 156 0
-154 -156 422 0
-156 -422 154 0
-154 -423 157 0
-154 -157 423 0
-157 -423 154 0
-154 -424 158 0
-154 -158 424 0
-158 -424 154 0
-154 -425 159 0
-154 -159 425 0
-159 -425 154 0
-155 -426 156 0
-155 -156 426 0
-156 -426 155 0
-155 -427 157 0
-155 -157 427 0
-157 -427 155 0
-155 -428 158 0
-155 -158 428 0
-158 -428 155 0
-155 -429 159 0
-155 -159 429 0
-159 -429 155 0
-156 -430 157 0
-156 -157 430 0
-157 -430 156 0
-156 -431 158 0
-156 -158 431 0
-158 -431 156 0
-156 -432 159 0
-156 -159 432 0
-159 -432 156 0
-157 -433 158 0
-157 -158 433 0
-158 -433 157 0
-157 -434 159 0
-157 -159 434 0
-159 -434 157 0
-158 -435 159 0
-158 -159 435 0
-159 -435 158 0
-160 -183 161 0
-160 -161 183 0
-161 -183 160 0
-160 -184 162 0
-160 -162 184 0
-162 -184 160 0
-160 -185 163 0
-160 -163 185 0
-163 -185 160 0
-160 -186 164 0
-160 -164 186 0
-164 -186 160 0
-160 -187 165 0
-160 -165 187 0
-165 -187 160 0
-160 -188 166 0
-160 -166 188 0
-166 -188 160 0
-160 -189 167 0
-160 -167 189 0
-167 -189 160 0
-160 -190 168 0
-160 -168 190 0
-168 -190 160 0
-160 -191 169 0
-160 -169 191 0
-169 -191 160 0
-160 -192 170 0
-160 -170 192 0
-170 -192 160 0
-160 -193 171 0
-160 -171 193 0
-171 -193 160 0
-160 -194 172 0
-160 -172 194 0
-172 -194 160 0
-160 -195 173 0
-160 -173 195 0
-173 -195 160 0
-160 -196 174 0
-160 -174 196 0
-174 -196 160 0
-160 -197 175 0
-160 -175 197 0
-175 -197 160 0
-160 -198 176 0
-160 -176 198 0
-176 -198 160 0
-160 -199 177 0
-160 -177 199 0
-177 -199 160 0
-160 -200 178 0
-160 -178 200 0
-178 -200 160 0
-160 -201 179 0
-160 -179 201 0
-179 -201 160 0
-160 -202 180 0
-160 -180 202 0
-180 -202 160 0
-160 -203 181 0
-160 -181 203 0
-181 -203 160 0
-160 -204 182 0
-160 -182 204 0
-182 -204 160 0
-161 -205 162 0
-161 -162 205 0
-162 -205 161 0
-161 -206 163 0
-161 -163 206 0
-163 -206 161 0
-161 -207 164 0
-161 -164 207 0
-164 -207 161 0
-161 -208 165 0
-161 -165 208 0
-165 -208 161 0
-161 -209 166 0
-161 -166 209 0
-166 -209 161 0
-161 -210 167 0
-161 -167 210 0
-167 -210 161 0
-161 -211 168 0
-161 -168 211 0
-168 -211 161 0
-161 -212 169 0
-161 -169 212 0
-169 -212 161 0
-161 -213 170 0
-161 -170 213 0
-170 -213 161 0
-161 -214 171 0
-161 -171 214 0
-171 -214 161 0
-161 -215 172 0
-161 -172 215 0
-172 -215 161 0
-161 -216 173 0
-161 -173 216 0
-173 -216 161 0
-161 -217 174 0
-161 -174 217 0
-174 -217 161 0
-161 -218 175 0
-161 -175 218 0
-175 -218 161 0
-161 -219 176 0
-161 -176 219 0
-176 -219 161 0
-161 -220 177 0
-161 -177 220 0
-177 -220 161 0
-161 -221 178 0
-161 -178 221 0
-178 -221 161 0
-161 -222 179 0
-161 -179 222 0
-179 -222 161 0
-161 -223 180 0
-161 -180 223 0
-180 -223 161 0
-161 -224 181 0
-161 -181 224 0
-181 -224 161 0
-161 -225 182 0
-161 -182 225 0
-182 -225 161 0
-162 -226 163 0
-162 -163 226 0
-163 -226 162 0
-162 -227 164 0
-162 -164 227 0
-164 -227 162 0
-162 -228 165 0
-162 -165 228 0
-165 -228 162 0
-162 -229 166 0
-162 -166 229 0
-166 -229 162 0
-162 -230 167 0
-162 -167 230 0
-167 -230 162 0
-162 -231 168 0
-162 -168 231 0
-168 -231 162 0
-162 -232 169 0
-162 -169 232 0
-169 -232 162 0
-162 -233 170 0
-162 -170 233 0
-170 -233 162 0
-162 -234 171 0
-162 -171 234 0
-171 -234 162 0
-162 -235 172 0
-162 -172 235 0
-172 -235 162 0
-162 -236 173 0
-162 -173 236 0
-173 -236 162 0
-162 -237 174 0
-162 -174 237 0
-174 -237 162 0
-162 -238 175 0
-162 -175 238 0
-175 -238 162 0
-162 -239 176 0
-162 -176 239 0
-176 -239 162 0
-162 -240 177 0
-162 -177 240 0
-177 -240 162 0
-162 -241 178 0
-162 -178 241 0
-178 -241 162 0
-162 -242 179 0
-162 -179 242 0
-179 -242 162 0
-162 -243 180 0
-162 -180 243 0
-180 -243 162 0
-162 -244 181 0
-162 -181 244 0
-181 -244 162 0
-162 -245 182 0
-162 -182 245 0
-182 -245 162 0
-163 -246 164 0
-163 -164 246 0
-164 -246 163 0
-163 -247 165 0
-163 -165 247 0
-165 -247 163 0
-163 -248 166 0
-163 -166 248 0
-166 -248 163 0
-163 -249 167 0
-163 -167 249 0
-167 -249 163 0
-163 -250 168 0
-163 -168 250 0
-168 -250 163 0
-163 -251 169 0
-163 -169 251 0
-169 -251 163 0
-163 -252 170 0
-163 -170 252 0
-170 -252 163 0
-163 -253 171 0
-163 -171 253 0
-171 -253 163 0
-163 -254 172 0
-163 -172 254 0
-172 -254 163 0
-163 -255 173 0
-163 -173 255 0
-173 -255 163 0
-163 -256 174 0
-163 -174 256 0
-174 -256 163 0
-163 -257 175 0
-163 -175 257 0
-175 -257 163 0
-163 -258 176 0
-163 -176 258 0
-176 -258 163 0
-163 -259 177 0
-163 -177 259 0
-177 -259 163 0
-163 -260 178 0
-163 -178 260 0
-178 -260 163 0
-163 -261 179 0
-163 -179 261 0
-179 -261 163 0
-163 -262 180 0
-163 -180 262 0
-180 -262 163 0
-163 -263 181 0
-163 -181 263 0
-181 -263 163 0
-163 -264 182 0
-163 -182 264 0
-182 -264 163 0
-164 -265 165 0
-164 -165 265 0
-165 -265 164 0
-164 -266 166 0
-164 -166 266 0
-166 -266 164 0
-164 -267 167 0
-164 -167 267 0
-167 -267 164 0
-164 -268 168 0
-164 -168 268 0
-168 -268 164 0
-164 -269 169 0
-164 -169 269 0
-169 -269 164 0
-164 -270 170 0
-164 -170 270 0
-170 -270 164 0
-164 -271 171 0
-164 -171 271 0
-171 -271 164 0
-164 -272 172 0
-164 -172 272 0
-172 -272 164 0
-164 -273 173 0
-164 -173 273 0
-173 -273 164 0
-164 -274 174 0
-164 -174 274 0
-174 -274 164 0
-164 -275 175 0
-164 -175 275 0
-175 -275 164 0
-164 -276 176 0
-164 -176 276 0
-176 -276 164 0
-164 -277 177 0
-164 -177 277 0
-177 -277 164 0
-164 -278 178 0
-164 -178 278 0
-178 -278 164 0
-164 -279 179 0
-164 -179 279 0
-179 -279 164 0
-164 -280 180 0
-164 -180 280 0
-180 -280 164 0
-164 -281 181 0
-164 -181 281 0
-181 -281 164 0
-164 -282 182 0
-164 -182 282 0
-182 -282 164 0
-165 -283 166 0
-165 -166 283 0
-166 -283 165 0
-165 -284 167 0
-165 -167 284 0
-167 -284 165 0
-165 -285 168 0
-165 -168 285 0
-168 -285 165 0
-165 -286 169 0
-165 -169 286 0
-169 -286 165 0
-165 -287 170 0
-165 -170 287 0
-170 -287 165 0
-165 -288 171 0
-165 -171 288 0
-171 -288 165 0
-165 -289 172 0
-165 -172 289 0
-172 -289 165 0
-165 -290 173 0
-165 -173 290 0
-173 -290 165 0
-165 -291 174 0
-165 -174 291 0
-174 -291 165 0
-165 -292 175 0
-165 -175 292 0
-175 -292 165 0
-165 -293 176 0
-165 -176 293 0
-176 -293 165 0
-165 -294 177 0
-165 -177 294 0
-177 -294 165 0
-165 -295 178 0
-165 -178 295 0
-178 -295 165 0
-165 -296 179 0
-165 -179 296 0
-179 -296 165 0
-165 -297 180 0
-165 -180 297 0
-180 -297 165 0
-165 -298 181 0
-165 -181 298 0
-181 -298 165 0
-165 -299 182 0
-165 -182 299 0
-182 -299 165 0
-166 -300 167 0
-166 -167 300 0
-167 -300 166 0
-166 -301 168 0
-166 -168 301 0
-168 -301 166 0
-166 -302 169 0
-166 -169 302 0
-169 -302 166 0
-166 -303 170 0
-166 -170 303 0
-170 -303 166 0
-166 -304 171 0
-166 -171 304 0
-171 -304 166 0
-166 -305 172 0
-166 -172 305 0
-172 -305 166 0
-166 -306 173 0
-166 -173 306 0
-173 -306 166 0
-166 -307 174 0
-166 -174 307 0
-174 -307 166 0
-166 -308 175 0
-166 -175 308 0
-175 -308 166 0
-166 -309 176 0
-166 -176 309 0
-176 -309 166 0
-166 -310 177 0
-166 -177 310 0
-177 -310 166 0
-166 -311 178 0
-166 -178 311 0
-178 -311 166 0
-166 -312 179 0
-166 -179 312 0
-179 -312 166 0
-166 -313 180 0
-166 -180 313 0
-180 -313 166 0
-166 -314 181 0
-166 -181 314 0
-181 -314 166 0
-166 -315 182 0
-166 -182 315 0
-182 -315 166 0
-167 -316 168 0
-167 -168 316 0
-168 -316 167 0
-167 -317 169 0
-167 -169 317 0
-169 -317 167 0
-167 -318 170 0
-167 -170 318 0
-170 -318 167 0
-167 -319 171 0
-167 -171 319 0
-171 -319 167 0
-167 -320 172 0
-167 -172 320 0
-172 -320 167 0
-167 -321 173 0
-167 -173 321 0
-173 -321 167 0
-167 -322 174 0
-167 -174 322 0
-174 -322 167 0
-167 -323 175 0
-167 -175 323 0
-175 -323 167 0
-167 -324 176 0
-167 -176 324 0
-176 -324 167 0
-167 -325 177 0
-167 -177 325 0
-177 -325 167 0
-167 -326 178 0
-167 -178 326 0
-178 -326 167 0
-167 -327 179 0
-167 -179 327 0
-179 -327 167 0
-167 -328 180 0
-167 -180 328 0
-180 -328 167 0
-167 -329 181 0
-167 -181 329 0
-181 -329 167 0
-167 -330 182 0
-167 -182 330 0
-182 -330 167 0
-168 -331 169 0
-168 -169 331 0
-169 -331 168 0
-168 -332 170 0
-168 -170 332 0
-170 -332 168 0
-168 -333 171 0
-168 -171 333 0
-171 -333 168 0
-168 -334 172 0
-168 -172 334 0
-172 -334 168 0
-168 -335 173 0
-168 -173 335 0
-173 -335 168 0
-168 -336 174 0
-168 -174 336 0
-174 -336 168 0
-168 -337 175 0
-168 -175 337 0
-175 -337 168 0
-168 -338 176 0
-168 -176 338 0
-176 -338 168 0
-168 -339 177 0
-168 -177 339 0
-177 -339 168 0
-168 -340 178 0
-168 -178 340 0
-178 -340 168 0
-168 -341 179 0
-168 -179 341 0
-179 -341 168 0
-168 -342 180 0
-168 -180 342 0
-180 -342 168 0
-168 -343 181 0
-168 -181 343 0
-181 -343 168 0
-168 -344 182 0
-168 -182 344 0
-182 -344 168 0
-169 -345 170 0
-169 -170 345 0
-170 -345 169 0
-169 -346 171 0
-169 -171 346 0
-171 -346 169 0
-169 -347 172 0
-169 -172 347 0
-172 -347 169 0
-169 -348 173 0
-169 -173 348 0
-173 -348 169 0
-169 -349 174 0
-169 -174 349 0
-174 -349 169 0
-169 -350 175 0
-169 -175 350 0
-175 -350 169 0
-169 -351 176 0
-169 -176 351 0
-176 -351 169 0
-169 -352 177 0
-169 -177 352 0
-177 -352 169 0
-169 -353 178 0
-169 -178 353 0
-178 -353 169 0
-169 -354 179 0
-169 -179 354 0
-179 -354 169 0
-169 -355 180 0
-169 -180 355 0
-180 -355 169 0
-169 -356 181 0
-169 -181 356 0
-181 -356 169 0
-169 -357 182 0
-169 -182 357 0
-182 -357 169 0
-170 -358 171 0
-170 -171 358 0
-171 -358 170 0
-170 -359 172 0
-170 -172 359 0
-172 -359 170 0
-170 -360 173 0
-170 -173 360 0
-173 -360 170 0
-170 -361 174 0
-170 -174 361 0
-174 -361 170 0
-170 -362 175 0
-170 -175 362 0
-175 -362 170 0
-170 -363 176 0
-170 -176 363 0
-176 -363 170 0
-170 -364 177 0
-170 -177 364 0
-177 -364 170 0
-170 -365 178 0
-170 -178 365 0
-178 -365 170 0
-170 -366 179 0
-170 -179 366 0
-179 -366 170 0
-170 -367 180 0
-170 -180 367 0
-180 -367 170 0
-170 -368 181 0
-170 -181 368 0
-181 -368 170 0
-170 -369 182 0
-170 -182 369 0
-182 -369 170 0
-171 -370 172 0
-171 -172 370 0
-172 -370 171 0
-171 -371 173 0
-171 -173 371 0
-173 -371 171 0
-171 -372 174 0
-171 -174 372 0
-174 -372 171 0
-171 -373 175 0
-171 -175 373 0
-175 -373 171 0
-171 -374 176 0
-171 -176 374 0
-176 -374 171 0
-171 -375 177 0
-171 -177 375 0
-177 -375 171 0
-171 -376 178 0
-171 -178 376 0
-178 -376 171 0
-171 -377 179 0
-171 -179 377 0
-179 -377 171 0
-171 -378 180 0
-171 -180 378 0
-180 -378 171 0
-171 -379 181 0
-171 -181 379 0
-181 -379 171 0
-171 -380 182 0
-171 -182 380 0
-182 -380 171 0
-172 -381 173 0
-172 -173 381 0
-173 -381 172 0
-172 -382 174 0
-172 -174 382 0
-174 -382 172 0
-172 -383 175 0
-172 -175 383 0
-175 -383 172 0
-172 -384 176 0
-172 -176 384 0
-176 -384 172 0
-172 -385 177 0
-172 -177 385 0
-177 -385 172 0
-172 -386 178 0
-172 -178 386 0
-178 -386 172 0
-172 -387 179 0
-172 -179 387 0
-179 -387 172 0
-172 -388 180 0
-172 -180 388 0
-180 -388 172 0
-172 -389 181 0
-172 -181 389 0
-181 -389 172 0
-172 -390 182 0
-172 -182 390 0
-182 -390 172 0
-173 -391 174 0
-173 -174 391 0
-174 -391 173 0
-173 -392 175 0
-173 -175 392 0
-175 -392 173 0
-173 -393 176 0
-173 -176 393 0
-176 -393 173 0
-173 -394 177 0
-173 -177 394 0
-177 -394 173 0
-173 -395 178 0
-173 -178 395 0
-178 -395 173 0
-173 -396 179 0
-173 -179 396 0
-179 -396 173 0
-173 -397 180 0
-173 -180 397 0
-180 -397 173 0
-173 -398 181 0
-173 -181 398 0
-181 -398 173 0
-173 -399 182 0
-173 -182 399 0
-182 -399 173 0
-174 -400 175 0
-174 -175 400 0
-175 -400 174 0
-174 -401 176 0
-174 -176 401 0
-176 -401 174 0
-174 -402 177 0
-174 -177 402 0
-177 -402 174 0
-174 -403 178 0
-174 -178 403 0
-178 -403 174 0
-174 -404 179 0
-174 -179 404 0
-179 -404 174 0
-174 -405 180 0
-174 -180 405 0
-180 -405 174 0
-174 -406 181 0
-174 -181 406 0
-181 -406 174 0
-174 -407 182 0
-174 -182 407 0
-182 -407 174 0
-175 -408 176 0
-175 -176 408 0
-176 -408 175 0
-175 -409 177 0
-175 -177 409 0
-177 -409 175 0
-175 -410 178 0
-175 -178 410 0
-178 -410 175 0
-175 -411 179 0
-175 -179 411 0
-179 -411 175 0
-175 -412 180 0
-175 -180 412 0
-180 -412 175 0
-175 -413 181 0
-175 -181 413 0
-181 -413 175 0
-175 -414 182 0
-175 -182 414 0
-182 -414 175 0
-176 -415 177 0
-176 -177 415 0
-177 -415 176 0
-176 -416 178 0
-176 -178 416 0
-178 -416 176 0
-176 -417 179 0
-176 -179 417 0
-179 -417 176 0
-176 -418 180 0
-176 -180 418 0
-180 -418 176 0
-176 -419 181 0
-176 -181 419 0
-181 -419 176 0
-176 -420 182 0
-176 -182 420 0
-182 -420 176 0
-177 -421 178 0
-177 -178 421 0
-178 -421 177 0
-177 -422 179 0
-177 -179 422 0
-179 -422 177 0
-177 -423 180 0
-177 -180 423 0
-180 -423 177 0
-177 -424 181 0
-177 -181 424 0
-181 -424 177 0
-177 -425 182 0
-177 -182 425 0
-182 -425 177 0
-178 -426 179 0
-178 -179 426 0
-179 -426 178 0
-178 -427 180 0
-178 -180 427 0
-180 -427 178 0
-178 -428 181 0
-178 -181 428 0
-181 -428 178 0
-178 -429 182 0
-178 -182 429 0
-182 -429 178 0
-179 -430 180 0
-179 -180 430 0
-180 -430 179 0
-179 -431 181 0
-179 -181 431 0
-181 -431 179 0
-179 -432 182 0
-179 -182 432 0
-182 -432 179 0
-180 -433 181 0
-180 -181 433 0
-181 -433 180 0
-180 -434 182 0
-180 -182 434 0
-182 -434 180 0
-181 -435 182 0
-181 -182 435 0
-182 -435 181 0
-183 -205 184 0
-183 -184 205 0
-184 -205 183 0
-183 -206 185 0
-183 -185 206 0
-185 -206 183 0
-183 -207 186 0
-183 -186 207 0
-186 -207 183 0
-183 -208 187 0
-183 -187 208 0
-187 -208 183 0
-183 -209 188 0
-183 -188 209 0
-188 -209 183 0
-183 -210 189 0
-183 -189 210 0
-189 -210 183 0
-183 -211 190 0
-183 -190 211 0
-190 -211 183 0
-183 -212 191 0
-183 -191 212 0
-191 -212 183 0
-183 -213 192 0
-183 -192 213 0
-192 -213 183 0
-183 -214 193 0
-183 -193 214 0
-193 -214 183 0
-183 -215 194 0
-183 -194 215 0
-194 -215 183 0
-183 -216 195 0
-183 -195 216 0
-195 -216 183 0
-183 -217 196 0
-183 -196 217 0
-196 -217 183 0
-183 -218 197 0
-183 -197 218 0
-197 -218 183 0
-183 -219 198 0
-183 -198 219 0
-198 -219 183 0
-183 -220 199 0
-183 -199 220 0
-199 -220 183 0
-183 -221 200 0
-183 -200 221 0
-200 -221 183 0
-183 -222 201 0
-183 -201 222 0
-201 -222 183 0
-183 -223 202 0
-183 -202 223 0
-202 -223 183 0
-183 -224 203 0
-183 -203 224 0
-203 -224 183 0
-183 -225 204 0
-183 -204 225 0
-204 -225 183 0
-184 -226 185 0
-184 -185 226 0
-185 -226 184 0
-184 -227 186 0
-184 -186 227 0
-186 -227 184 0
-184 -228 187 0
-184 -187 228 0
-187 -228 184 0
-184 -229 188 0
-184 -188 229 0
-188 -229 184 0
-184 -230 189 0
-184 -189 230 0
-189 -230 184 0
-184 -231 190 0
-184 -190 231 0
-190 -231 184 0
-184 -232 191 0
-184 -191 232 0
-191 -232 184 0
-184 -233 192 0
-184 -192 233 0
-192 -233 184 0
-184 -234 193 0
-184 -193 234 0
-193 -234 184 0
-184 -235 194 0
-184 -194 235 0
-194 -235 184 0
-184 -236 195 0
-184 -195 236 0
-195 -236 184 0
-184 -237 196 0
-184 -196 237 0
-196 -237 184 0
-184 -238 197 0
-184 -197 238 0
-197 -238 184 0
-184 -239 198 0
-184 -198 239 0
-198 -239 184 0
-184 -240 199 0
-184 -199 240 0
-199 -240 184 0
-184 -241 200 0
-184 -200 241 0
-200 -241 184 0
-184 -242 201 0
-184 -201 242 0
-201 -242 184 0
-184 -243 202 0
-184 -202 243 0
-202 -243 184 0
-184 -244 203 0
-184 -203 244 0
-203 -244 184 0
-184 -245 204 0
-184 -204 245 0
-204 -245 184 0
-185 -246 186 0
-185 -186 246 0
-186 -246 185 0
-185 -247 187 0
-185 -187 247 0
-187 -247 185 0
-185 -248 188 0
-185 -188 248 0
-188 -248 185 0
-185 -249 189 0
-185 -189 249 0
-189 -249 185 0
-185 -250 190 0
-185 -190 250 0
-190 -250 185 0
-185 -251 191 0
-185 -191 251 0
-191 -251 185 0
-185 -252 192 0
-185 -192 252 0
-192 -252 185 0
-185 -253 193 0
-185 -193 253 0
-193 -253 185 0
-185 -254 194 0
-185 -194 254 0
-194 -254 185 0
-185 -255 195 0
-185 -195 255 0
-195 -255 185 0
-185 -256 196 0
-185 -196 256 0
-196 -256 185 0
-185 -257 197 0
-185 -197 257 0
-197 -257 185 0
-185 -258 198 0
-185 -198 258 0
-198 -258 185 0
-185 -259 199 0
-185 -199 259 0
-199 -259 185 0
-185 -260 200 0
-185 -200 260 0
-200 -260 185 0
-185 -261 201 0
-185 -201 261 0
-201 -261 185 0
-185 -262 202 0
-185 -202 262 0
-202 -262 185 0
-185 -263 203 0
-185 -203 263 0
-203 -263 185 0
-185 -264 204 0
-185 -204 264 0
-204 -264 185 0
-186 -265 187 0
-186 -187 265 0
-187 -265 186 0
-186 -266 188 0
-186 -188 266 0
-188 -266 186 0
-186 -267 189 0
-186 -189 267 0
-189 -267 186 0
-186 -268 190 0
-186 -190 268 0
-190 -268 186 0
-186 -269 191 0
-186 -191 269 0
-191 -269 186 0
-186 -270 192 0
-186 -192 270 0
-192 -270 186 0
-186 -271 193 0
-186 -193 271 0
-193 -271 186 0
-186 -272 194 0
-186 -194 272 0
-194 -272 186 0
-186 -273 195 0
-186 -195 273 0
-195 -273 186 0
-186 -274 196 0
-186 -196 274 0
-196 -274 186 0
-186 -275 197 0
-186 -197 275 0
-197 -275 186 0
-186 -276 198 0
-186 -198 276 0
-198 -276 186 0
-186 -277 199 0
-186 -199 277 0
-199 -277 186 0
-186 -278 200 0
-186 -200 278 0
-200 -278 186 0
-186 -279 201 0
-186 -201 279 0
-201 -279 186 0
-186 -280 202 0
-186 -202 280 0
-202 -280 186 0
-186 -281 203 0
-186 -203 281 0
-203 -281 186 0
-186 -282 204 0
-186 -204 282 0
-204 -282 186 0
-187 -283 188 0
-187 -188 283 0
-188 -283 187 0
-187 -284 189 0
-187 -189 284 0
-189 -284 187 0
-187 -285 190 0
-187 -190 285 0
-190 -285 187 0
-187 -286 191 0
-187 -191 286 0
-191 -286 187 0
-187 -287 192 0
-187 -192 287 0
-192 -287 187 0
-187 -288 193 0
-187 -193 288 0
-193 -288 187 0
-187 -289 194 0
-187 -194 289 0
-194 -289 187 0
-187 -290 195 0
-187 -195 290 0
-195 -290 187 0
-187 -291 196 0
-187 -196 291 0
-196 -291 187 0
-187 -292 197 0
-187 -197 292 0
-197 -292 187 0
-187 -293 198 0
-187 -198 293 0
-198 -293 187 0
-187 -294 199 0
-187 -199 294 0
-199 -294 187 0
-187 -295 200 0
-187 -200 295 0
-200 -295 187 0
-187 -296 201 0
-187 -201 296 0
-201 -296 187 0
-187 -297 202 0
-187 -202 297 0
-202 -297 187 0
-187 -298 203 0
-187 -203 298 0
-203 -298 187 0
-187 -299 204 0
-187 -204 299 0
-204 -299 187 0
-188 -300 189 0
-188 -189 300 0
-189 -300 188 0
-188 -301 190 0
-188 -190 301 0
-190 -301 188 0
-188 -302 191 0
-188 -191 302 0
-191 -302 188 0
-188 -303 192 0
-188 -192 303 0
-192 -303 188 0
-188 -304 193 0
-188 -193 304 0
-193 -304 188 0
-188 -305 194 0
-188 -194 305 0
-194 -305 188 0
-188 -306 195 0
-188 -195 306 0
-195 -306 188 0
-188 -307 196 0
-188 -196 307 0
-196 -307 188 0
-188 -308 197 0
-188 -197 308 0
-197 -308 188 0
-188 -309 198 0
-188 -198 309 0
-198 -309 188 0
-188 -310 199 0
-188 -199 310 0
-199 -310 188 0
-188 -311 200 0
-188 -200 311 0
-200 -311 188 0
-188 -312 201 0
-188 -201 312 0
-201 -312 188 0
-188 -313 202 0
-188 -202 313 0
-202 -313 188 0
-188 -314 203 0
-188 -203 314 0
-203 -314 188 0
-188 -315 204 0
-188 -204 315 0
-204 -315 188 0
-189 -316 190 0
-189 -190 316 0
-190 -316 189 0
-189 -317 191 0
-189 -191 317 0
-191 -317 189 0
-189 -318 192 0
-189 -192 318 0
-192 -318 189 0
-189 -319 193 0
-189 -193 319 0
-193 -319 189 0
-189 -320 194 0
-189 -194 320 0
-194 -320 189 0
-189 -321 195 0
-189 -195 321 0
-195 -321 189 0
-189 -322 196 0
-189 -196 322 0
-196 -322 189 0
-189 -323 197 0
-189 -197 323 0
-197 -323 189 0
-189 -324 198 0
-189 -198 324 0
-198 -324 189 0
-189 -325 199 0
-189 -199 325 0
-199 -325 189 0
-189 -326 200 0
-189 -200 326 0
-200 -326 189 0
-189 -327 201 0
-189 -201 327 0
-201 -327 189 0
-189 -328 202 0
-189 -202 328 0
-202 -328 189 0
-189 -329 203 0
-189 -203 329 0
-203 -329 189 0
-189 -330 204 0
-189 -204 330 0
-204 -330 189 0
-190 -331 191 0
-190 -191 331 0
-191 -331 190 0
-190 -332 192 0
-190 -192 332 0
-192 -332 190 0
-190 -333 193 0
-190 -193 333 0
-193 -333 190 0
-190 -334 194 0
-190 -194 334 0
-194 -334 190 0
-190 -335 195 0
-190 -195 335 0
-195 -335 190 0
-190 -336 196 0
-190 -196 336 0
-196 -336 190 0
-190 -337 197 0
-190 -197 337 0
-197 -337 190 0
-190 -338 198 0
-190 -198 338 0
-198 -338 190 0
-190 -339 199 0
-190 -199 339 0
-199 -339 190 0
-190 -340 200 0
-190 -200 340 0
-200 -340 190 0
-190 -341 201 0
-190 -201 341 0
-201 -341 190 0
-190 -342 202 0
-190 -202 342 0
-202 -342 190 0
-190 -343 203 0
-190 -203 343 0
-203 -343 190 0
-190 -344 204 0
-190 -204 344 0
-204 -344 190 0
-191 -345 192 0
-191 -192 345 0
-192 -345 191 0
-191 -346 193 0
-191 -193 346 0
-193 -346 191 0
-191 -347 194 0
-191 -194 347 0
-194 -347 191 0
-191 -348 195 0
-191 -195 348 0
-195 -348 191 0
-191 -349 196 0
-191 -196 349 0
-196 -349 191 0
-191 -350 197 0
-191 -197 350 0
-197 -350 191 0
-191 -351 198 0
-191 -198 351 0
-198 -351 191 0
-191 -352 199 0
-191 -199 352 0
-199 -352 191 0
-191 -353 200 0
-191 -200 353 0
-200 -353 191 0
-191 -354 201 0
-191 -201 354 0
-201 -354 191 0
-191 -355 202 0
-191 -202 355 0
-202 -355 191 0
-191 -356 203 0
-191 -203 356 0
-203 -356 191 0
-191 -357 204 0
-191 -204 357 0
-204 -357 191 0
-192 -358 193 0
-192 -193 358 0
-193 -358 192 0
-192 -359 194 0
-192 -194 359 0
-194 -359 192 0
-192 -360 195 0
-192 -195 360 0
-195 -360 192 0
-192 -361 196 0
-192 -196 361 0
-196 -361 192 0
-192 -362 197 0
-192 -197 362 0
-197 -362 192 0
-192 -363 198 0
-192 -198 363 0
-198 -363 192 0
-192 -364 199 0
-192 -199 364 0
-199 -364 192 0
-192 -365 200 0
-192 -200 365 0
-200 -365 192 0
-192 -366 201 0
-192 -201 366 0
-201 -366 192 0
-192 -367 202 0
-192 -202 367 0
-202 -367 192 0
-192 -368 203 0
-192 -203 368 0
-203 -368 192 0
-192 -369 204 0
-192 -204 369 0
-204 -369 192 0
-193 -370 194 0
-193 -194 370 0
-194 -370 193 0
-193 -371 195 0
-193 -195 371 0
-195 -371 193 0
-193 -372 196 0
-193 -196 372 0
-196 -372 193 0
-193 -373 197 0
-193 -197 373 0
-197 -373 193 0
-193 -374 198 0
-193 -198 374 0
-198 -374 193 0
-193 -375 199 0
-193 -199 375 0
-199 -375 193 0
-193 -376 200 0
-193 -200 376 0
-200 -376 193 0
-193 -377 201 0
-193 -201 377 0
-201 -377 193 0
-193 -378 202 0
-193 -202 378 0
-202 -378 193 0
-193 -379 203 0
-193 -203 379 0
-203 -379 193 0
-193 -380 204 0
-193 -204 380 0
-204 -380 193 0
-194 -381 195 0
-194 -195 381 0
-195 -381 194 0
-194 -382 196 0
-194 -196 382 0
-196 -382 194 0
-194 -383 197 0
-194 -197 383 0
-197 -383 194 0
-194 -384 198 0
-194 -198 384 0
-198 -384 194 0
-194 -385 199 0
-194 -199 385 0
-199 -385 194 0
-194 -386 200 0
-194 -200 386 0
-200 -386 194 0
-194 -387 201 0
-194 -201 387 0
-201 -387 194 0
-194 -388 202 0
-194 -202 388 0
-202 -388 194 0
-194 -389 203 0
-194 -203 389 0
-203 -389 194 0
-194 -390 204 0
-194 -204 390 0
-204 -390 194 0
-195 -391 196 0
-195 -196 391 0
-196 -391 195 0
-195 -392 197 0
-195 -197 392 0
-197 -392 195 0
-195 -393 198 0
-195 -198 393 0
-198 -393 195 0
-195 -394 199 0
-195 -199 394 0
-199 -394 195 0
-195 -395 200 0
-195 -200 395 0
-200 -395 195 0
-195 -396 201 0
-195 -201 396 0
-201 -396 195 0
-195 -397 202 0
-195 -202 397 0
-202 -397 195 0
-195 -398 203 0
-195 -203 398 0
-203 -398 195 0
-195 -399 204 0
-195 -204 399 0
-204 -399 195 0
-196 -400 197 0
-196 -197 400 0
-197 -400 196 0
-196 -401 198 0
-196 -198 401 0
-198 -401 196 0
-196 -402 199 0
-196 -199 402 0
-199 -402 196 0
-196 -403 200 0
-196 -200 403 0
-200 -403 196 0
-196 -404 201 0
-196 -201 404 0
-201 -404 196 0
-196 -405 202 0
-196 -202 405 0
-202 -405 196 0
-196 -406 203 0
-196 -203 406 0
-203 -406 196 0
-196 -407 204 0
-196 -204 407 0
-204 -407 196 0
-197 -408 198 0
-197 -198 408 0
-198 -408 197 0
-197 -409 199 0
-197 -199 409 0
-199 -409 197 0
-197 -410 200 0
-197 -200 410 0
-200 -410 197 0
-197 -411 201 0
-197 -201 411 0
-201 -411 197 0
-197 -412 202 0
-197 -202 412 0
-202 -412 197 0
-197 -413 203 0
-197 -203 413 0
-203 -413 197 0
-197 -414 204 0
-197 -204 414 0
-204 -414 197 0
-198 -415 199 0
-198 -199 415 0
-199 -415 198 0
-198 -416 200 0
-198 -200 416 0
-200 -416 198 0
-198 -417 201 0
-198 -201 417 0
-201 -417 198 0
-198 -418 202 0
-198 -202 418 0
-202 -418 198 0
-198 -419 203 0
-198 -203 419 0
-203 -419 198 0
-198 -420 204 0
-198 -204 420 0
-204 -420 198 0
-199 -421 200 0
-199 -200 421 0
-200 -421 199 0
-199 -422 201 0
-199 -201 422 0
-201 -422 199 0
-199 -423 202 0
-199 -202 423 0
-202 -423 199 0
-199 -424 203 0
-199 -203 424 0
-203 -424 199 0
-199 -425 204 0
-199 -204 425 0
-204 -425 199 0
-200 -426 201 0
-200 -201 426 0
-201 -426 200 0
-200 -427 202 0
-200 -202 427 0
-202 -427 200 0
-200 -428 203 0
-200 -203 428 0
-203 -428 200 0
-200 -429 204 0
-200 -204 429 0
-204 -429 200 0
-201 -430 202 0
-201 -202 430 0
-202 -430 201 0
-201 -431 203 0
-201 -203 431 0
-203 -431 201 0
-201 -432 204 0
-201 -204 432 0
-204 -432 201 0
-202 -433 203 0
-202 -203 433 0
-203 -433 202 0
-202 -434 204 0
-202 -204 434 0
-204 -434 202 0
-203 -435 204 0
-203 -204 435 0
-204 -435 203 0
-205 -226 206 0
-205 -206 226 0
-206 -226 205 0
-205 -227 207 0
-205 -207 227 0
-207 -227 205 0
-205 -228 208 0
-205 -208 228 0
-208 -228 205 0
-205 -229 209 0
-205 -209 229 0
-209 -229 205 0
-205 -230 210 0
-205 -210 230 0
-210 -230 205 0
-205 -231 211 0
-205 -211 231 0
-211 -231 205 0
-205 -232 212 0
-205 -212 232 0
-212 -232 205 0
-205 -233 213 0
-205 -213 233 0
-213 -233 205 0
-205 -234 214 0
-205 -214 234 0
-214 -234 205 0
-205 -235 215 0
-205 -215 235 0
-215 -235 205 0
-205 -236 216 0
-205 -216 236 0
-216 -236 205 0
-205 -237 217 0
-205 -217 237 0
-217 -237 205 0
-205 -238 218 0
-205 -218 238 0
-218 -238 205 0
-205 -239 219 0
-205 -219 239 0
-219 -239 205 0
-205 -240 220 0
-205 -220 240 0
-220 -240 205 0
-205 -241 221 0
-205 -221 241 0
-221 -241 205 0
-205 -242 222 0
-205 -222 242 0
-222 -242 205 0
-205 -243 223 0
-205 -223 243 0
-223 -243 205 0
-205 -244 224 0
-205 -224 244 0
-224 -244 205 0
-205 -245 225 0
-205 -225 245 0
-225 -245 205 0
-206 -246 207 0
-206 -207 246 0
-207 -246 206 0
-206 -247 208 0
-206 -208 247 0
-208 -247 206 0
-206 -248 209 0
-206 -209 248 0
-209 -248 206 0
-206 -249 210 0
-206 -210 249 0
-210 -249 206 0
-206 -250 211 0
-206 -211 250 0
-211 -250 206 0
-206 -251 212 0
-206 -212 251 0
-212 -251 206 0
-206 -252 213 0
-206 -213 252 0
-213 -252 206 0
-206 -253 214 0
-206 -214 253 0
-214 -253 206 0
-206 -254 215 0
-206 -215 254 0
-215 -254 206 0
-206 -255 216 0
-206 -216 255 0
-216 -255 206 0
-206 -256 217 0
-206 -217 256 0
-217 -256 206 0
-206 -257 218 0
-206 -218 257 0
-218 -257 206 0
-206 -258 219 0
-206 -219 258 0
-219 -258 206 0
-206 -259 220 0
-206 -220 259 0
-220 -259 206 0
-206 -260 221 0
-206 -221 260 0
-221 -260 206 0
-206 -261 222 0
-206 -222 261 0
-222 -261 206 0
-206 -262 223 0
-206 -223 262 0
-223 -262 206 0
-206 -263 224 0
-206 -224 263 0
-224 -263 206 0
-206 -264 225 0
-206 -225 264 0
-225 -264 206 0
-207 -265 208 0
-207 -208 265 0
-208 -265 207 0
-207 -266 209 0
-207 -209 266 0
-209 -266 207 0
-207 -267 210 0
-207 -210 267 0
-210 -267 207 0
-207 -268 211 0
-207 -211 268 0
-211 -268 207 0
-207 -269 212 0
-207 -212 269 0
-212 -269 207 0
-207 -270 213 0
-207 -213 270 0
-213 -270 207 0
-207 -271 214 0
-207 -214 271 0
-214 -271 207 0
-207 -272 215 0
-207 -215 272 0
-215 -272 207 0
-207 -273 216 0
-207 -216 273 0
-216 -273 207 0
-207 -274 217 0
-207 -217 274 0
-217 -274 207 0
-207 -275 218 0
-207 -218 275 0
-218 -275 207 0
-207 -276 219 0
-207 -219 276 0
-219 -276 207 0
-207 -277 220 0
-207 -220 277 0
-220 -277 207 0
-207 -278 221 0
-207 -221 278 0
-221 -278 207 0
-207 -279 222 0
-207 -222 279 0
-222 -279 207 0
-207 -280 223 0
-207 -223 280 0
-223 -280 207 0
-207 -281 224 0
-207 -224 281 0
-224 -281 207 0
-207 -282 225 0
-207 -225 282 0
-225 -282 207 0
-208 -283 209 0
-208 -209 283 0
-209 -283 208 0
-208 -284 210 0
-208 -210 284 0
-210 -284 208 0
-208 -285 211 0
-208 -211 285 0
-211 -285 208 0
-208 -286 212 0
-208 -212 286 0
-212 -286 208 0
-208 -287 213 0
-208 -213 287 0
-213 -287 208 0
-208 -288 214 0
-208 -214 288 0
-214 -288 208 0
-208 -289 215 0
-208 -215 289 0
-215 -289 208 0
-208 -290 216 0
-208 -216 290 0
-216 -290 208 0
-208 -291 217 0
-208 -217 291 0
-217 -291 208 0
-208 -292 218 0
-208 -218 292 0
-218 -292 208 0
-208 -293 219 0
-208 -219 293 0
-219 -293 208 0
-208 -294 220 0
-208 -220 294 0
-220 -294 208 0
-208 -295 221 0
-208 -221 295 0
-221 -295 208 0
-208 -296 222 0
-208 -222 296 0
-222 -296 208 0
-208 -297 223 0
-208 -223 297 0
-223 -297 208 0
-208 -298 224 0
-208 -224 298 0
-224 -298 208 0
-208 -299 225 0
-208 -225 299 0
-225 -299 208 0
-209 -300 210 0
-209 -210 300 0
-210 -300 209 0
-209 -301 211 0
-209 -211 301 0
-211 -301 209 0
-209 -302 212 0
-209 -212 302 0
-212 -302 209 0
-209 -303 213 0
-209 -213 303 0
-213 -303 209 0
-209 -304 214 0
-209 -214 304 0
-214 -304 209 0
-209 -305 215 0
-209 -215 305 0
-215 -305 209 0
-209 -306 216 0
-209 -216 306 0
-216 -306 209 0
-209 -307 217 0
-209 -217 307 0
-217 -307 209 0
-209 -308 218 0
-209 -218 308 0
-218 -308 209 0
-209 -309 219 0
-209 -219 309 0
-219 -309 209 0
-209 -310 220 0
-209 -220 310 0
-220 -310 209 0
-209 -311 221 0
-209 -221 311 0
-221 -311 209 0
-209 -312 222 0
-209 -222 312 0
-222 -312 209 0
-209 -313 223 0
-209 -223 313 0
-223 -313 209 0
-209 -314 224 0
-209 -224 314 0
-224 -314 209 0
-209 -315 225 0
-209 -225 315 0
-225 -315 209 0
-210 -316 211 0
-210 -211 316 0
-211 -316 210 0
-210 -317 212 0
-210 -212 317 0
-212 -317 210 0
-210 -318 213 0
-210 -213 318 0
-213 -318 210 0
-210 -319 214 0
-210 -214 319 0
-214 -319 210 0
-210 -320 215 0
-210 -215 320 0
-215 -320 210 0
-210 -321 216 0
-210 -216 321 0
-216 -321 210 0
-210 -322 217 0
-210 -217 322 0
-217 -322 210 0
-210 -323 218 0
-210 -218 323 0
-218 -323 210 0
-210 -324 219 0
-210 -219 324 0
-219 -324 210 0
-210 -325 220 0
-210 -220 325 0
-220 -325 210 0
-210 -326 221 0
-210 -221 326 0
-221 -326 210 0
-210 -327 222 0
-210 -222 327 0
-222 -327 210 0
-210 -328 223 0
-210 -223 328 0
-223 -328 210 0
-210 -329 224 0
-210 -224 329 0
-224 -329 210 0
-210 -330 225 0
-210 -225 330 0
-225 -330 210 0
-211 -331 212 0
-211 -212 331 0
-212 -331 211 0
-211 -332 213 0
-211 -213 332 0
-213 -332 211 0
-211 -333 214 0
-211 -214 333 0
-214 -333 211 0
-211 -334 215 0
-211 -215 334 0
-215 -334 211 0
-211 -335 216 0
-211 -216 335 0
-216 -335 211 0
-211 -336 217 0
-211 -217 336 0
-217 -336 211 0
-211 -337 218 0
-211 -218 337 0
-218 -337 211 0
-211 -338 219 0
-211 -219 338 0
-219 -338 211 0
-211 -339 220 0
-211 -220 339 0
-220 -339 211 0
-211 -340 221 0
-211 -221 340 0
-221 -340 211 0
-211 -341 222 0
-211 -222 341 0
-222 -341 211 0
-211 -342 223 0
-211 -223 342 0
-223 -342 211 0
-211 -343 224 0
-211 -224 343 0
-224 -343 211 0
-211 -344 225 0
-211 -225 344 0
-225 -344 211 0
-212 -345 213 0
-212 -213 345 0
-213 -345 212 0
-212 -346 214 0
-212 -214 346 0
-214 -346 212 0
-212 -347 215 0
-212 -215 347 0
-215 -347 212 0
-212 -348 216 0
-212 -216 348 0
-216 -348 212 0
-212 -349 217 0
-212 -217 349 0
-217 -349 212 0
-212 -350 218 0
-212 -218 350 0
-218 -350 212 0
-212 -351 219 0
-212 -219 351 0
-219 -351 212 0
-212 -352 220 0
-212 -220 352 0
-220 -352 212 0
-212 -353 221 0
-212 -221 353 0
-221 -353 212 0
-212 -354 222 0
-212 -222 354 0
-222 -354 212 0
-212 -355 223 0
-212 -223 355 0
-223 -355 212 0
-212 -356 224 0
-212 -224 356 0
-224 -356 212 0
-212 -357 225 0
-212 -225 357 0
-225 -357 212 0
-213 -358 214 0
-213 -214 358 0
-214 -358 213 0
-213 -359 215 0
-213 -215 359 0
-215 -359 213 0
-213 -360 216 0
-213 -216 360 0
-216 -360 213 0
-213 -361 217 0
-213 -217 361 0
-217 -361 213 0
-213 -362 218 0
-213 -218 362 0
-218 -362 213 0
-213 -363 219 0
-213 -219 363 0
-219 -363 213 0
-213 -364 220 0
-213 -220 364 0
-220 -364 213 0
-213 -365 221 0
-213 -221 365 0
-221 -365 213 0
-213 -366 222 0
-213 -222 366 0
-222 -366 213 0
-213 -367 223 0
-213 -223 367 0
-223 -367 213 0
-213 -368 224 0
-213 -224 368 0
-224 -368 213 0
-213 -369 225 0
-213 -225 369 0
-225 -369 213 0
-214 -370 215 0
-214 -215 370 0
-215 -370 214 0
-214 -371 216 0
-214 -216 371 0
-216 -371 214 0
-214 -372 217 0
-214 -217 372 0
-217 -372 214 0
-214 -373 218 0
-214 -218 373 0
-218 -373 214 0
-214 -374 219 0
-214 -219 374 0
-219 -374 214 0
-214 -375 220 0
-214 -220 375 0
-220 -375 214 0
-214 -376 221 0
-214 -221 376 0
-221 -376 214 0
-214 -377 222 0
-214 -222 377 0
-222 -377 214 0
-214 -378 223 0
-214 -223 378 0
-223 -378 214 0
-214 -379 224 0
-214 -224 379 0
-224 -379 214 0
-214 -380 225 0
-214 -225 380 0
-225 -380 214 0
-215 -381 216 0
-215 -216 381 0
-216 -381 215 0
-215 -382 217 0
-215 -217 382 0
-217 -382 215 0
-215 -383 218 0
-215 -218 383 0
-218 -383 215 0
-215 -384 219 0
-215 -219 384 0
-219 -384 215 0
-215 -385 220 0
-215 -220 385 0
-220 -385 215 0
-215 -386 221 0
-215 -221 386 0
-221 -386 215 0
-215 -387 222 0
-215 -222 387 0
-222 -387 215 0
-215 -388 223 0
-215 -223 388 0
-223 -388 215 0
-215 -389 224 0
-215 -224 389 0
-224 -389 215 0
-215 -390 225 0
-215 -225 390 0
-225 -390 215 0
-216 -391 217 0
-216 -217 391 0
-217 -391 216 0
-216 -392 218 0
-216 -218 392 0
-218 -392 216 0
-216 -393 219 0
-216 -219 393 0
-219 -393 216 0
-216 -394 220 0
-216 -220 394 0
-220 -394 216 0
-216 -395 221 0
-216 -221 395 0
-221 -395 216 0
-216 -396 222 0
-216 -222 396 0
-222 -396 216 0
-216 -397 223 0
-216 -223 397 0
-223 -397 216 0
-216 -398 224 0
-216 -224 398 0
-224 -398 216 0
-216 -399 225 0
-216 -225 399 0
-225 -399 216 0
-217 -400 218 0
-217 -218 400 0
-218 -400 217 0
-217 -401 219 0
-217 -219 401 0
-219 -401 217 0
-217 -402 220 0
-217 -220 402 0
-220 -402 217 0
-217 -403 221 0
-217 -221 403 0
-221 -403 217 0
-217 -404 222 0
-217 -222 404 0
-222 -404 217 0
-217 -405 223 0
-217 -223 405 0
-223 -405 217 0
-217 -406 224 0
-217 -224 406 0
-224 -406 217 0
-217 -407 225 0
-217 -225 407 0
-225 -407 217 0
-218 -408 219 0
-218 -219 408 0
-219 -408 218 0
-218 -409 220 0
-218 -220 409 0
-220 -409 218 0
-218 -410 221 0
-218 -221 410 0
-221 -410 218 0
-218 -411 222 0
-218 -222 411 0
-222 -411 218 0
-218 -412 223 0
-218 -223 412 0
-223 -412 218 0
-218 -413 224 0
-218 -224 413 0
-224 -413 218 0
-218 -414 225 0
-218 -225 414 0
-225 -414 218 0
-219 -415 220 0
-219 -220 415 0
-220 -415 219 0
-219 -416 221 0
-219 -221 416 0
-221 -416 219 0
-219 -417 222 0
-219 -222 417 0
-222 -417 219 0
-219 -418 223 0
-219 -223 418 0
-223 -418 219 0
-219 -419 224 0
-219 -224 419 0
-224 -419 219 0
-219 -420 225 0
-219 -225 420 0
-225 -420 219 0
-220 -421 221 0
-220 -221 421 0
-221 -421 220 0
-220 -422 222 0
-220 -222 422 0
-222 -422 220 0
-220 -423 223 0
-220 -223 423 0
-223 -423 220 0
-220 -424 224 0
-220 -224 424 0
-224 -424 220 0
-220 -425 225 0
-220 -225 425 0
-225 -425 220 0
-221 -426 222 0
-221 -222 426 0
-222 -426 221 0
-221 -427 223 0
-221 -223 427 0
-223 -427 221 0
-221 -428 224 0
-221 -224 428 0
-224 -428 221 0
-221 -429 225 0
-221 -225 429 0
-225 -429 221 0
-222 -430 223 0
-222 -223 430 0
-223 -430 222 0
-222 -431 224 0
-222 -224 431 0
-224 -431 222 0
-222 -432 225 0
-222 -225 432 0
-225 -432 222 0
-223 -433 224 0
-223 -224 433 0
-224 -433 223 0
-223 -434 225 0
-223 -225 434 0
-225 -434 223 0
-224 -435 225 0
-224 -225 435 0
-225 -435 224 0
-226 -246 227 0
-226 -227 246 0
-227 -246 226 0
-226 -247 228 0
-226 -228 247 0
-228 -247 226 0
-226 -248 229 0
-226 -229 248 0
-229 -248 226 0
-226 -249 230 0
-226 -230 249 0
-230 -249 226 0
-226 -250 231 0
-226 -231 250 0
-231 -250 226 0
-226 -251 232 0
-226 -232 251 0
-232 -251 226 0
-226 -252 233 0
-226 -233 252 0
-233 -252 226 0
-226 -253 234 0
-226 -234 253 0
-234 -253 226 0
-226 -254 235 0
-226 -235 254 0
-235 -254 226 0
-226 -255 236 0
-226 -236 255 0
-236 -255 226 0
-226 -256 237 0
-226 -237 256 0
-237 -256 226 0
-226 -257 238 0
-226 -238 257 0
-238 -257 226 0
-226 -258 239 0
-226 -239 258 0
-239 -258 226 0
-226 -259 240 0
-226 -240 259 0
-240 -259 226 0
-226 -260 241 0
-226 -241 260 0
-241 -260 226 0
-226 -261 242 0
-226 -242 261 0
-242 -261 226 0
-226 -262 243 0
-226 -243 262 0
-243 -262 226 0
-226 -263 244 0
-226 -244 263 0
-244 -263 226 0
-226 -264 245 0
-226 -245 264 0
-245 -264 226 0
-227 -265 228 0
-227 -228 265 0
-228 -265 227 0
-227 -266 229 0
-227 -229 266 0
-229 -266 227 0
-227 -267 230 0
-227 -230 267 0
-230 -267 227 0
-227 -268 231 0
-227 -231 268 0
-231 -268 227 0
-227 -269 232 0
-227 -232 269 0
-232 -269 227 0
-227 -270 233 0
-227 -233 270 0
-233 -270 227 0
-227 -271 234 0
-227 -234 271 0
-234 -271 227 0
-227 -272 235 0
-227 -235 272 0
-235 -272 227 0
-227 -273 236 0
-227 -236 273 0
-236 -273 227 0
-227 -274 237 0
-227 -237 274 0
-237 -274 227 0
-227 -275 238 0
-227 -238 275 0
-238 -275 227 0
-227 -276 239 0
-227 -239 276 0
-239 -276 227 0
-227 -277 240 0
-227 -240 277 0
-240 -277 227 0
-227 -278 241 0
-227 -241 278 0
-241 -278 227 0
-227 -279 242 0
-227 -242 279 0
-242 -279 227 0
-227 -280 243 0
-227 -243 280 0
-243 -280 227 0
-227 -281 244 0
-227 -244 281 0
-244 -281 227 0
-227 -282 245 0
-227 -245 282 0
-245 -282 227 0
-228 -283 229 0
-228 -229 283 0
-229 -283 228 0
-228 -284 230 0
-228 -230 284 0
-230 -284 228 0
-228 -285 231 0
-228 -231 285 0
-231 -285 228 0
-228 -286 232 0
-228 -232 286 0
-232 -286 228 0
-228 -287 233 0
-228 -233 287 0
-233 -287 228 0
-228 -288 234 0
-228 -234 288 0
-234 -288 228 0
-228 -289 235 0
-228 -235 289 0
-235 -289 228 0
-228 -290 236 0
-228 -236 290 0
-236 -290 228 0
-228 -291 237 0
-228 -237 291 0
-237 -291 228 0
-228 -292 238 0
-228 -238 292 0
-238 -292 228 0
-228 -293 239 0
-228 -239 293 0
-239 -293 228 0
-228 -294 240 0
-228 -240 294 0
-240 -294 228 0
-228 -295 241 0
-228 -241 295 0
-241 -295 228 0
-228 -296 242 0
-228 -242 296 0
-242 -296 228 0
-228 -297 243 0
-228 -243 297 0
-243 -297 228 0
-228 -298 244 0
-228 -244 298 0
-244 -298 228 0
-228 -299 245 0
-228 -245 299 0
-245 -299 228 0
-229 -300 230 0
-229 -230 300 0
-230 -300 229 0
-229 -301 231 0
-229 -231 301 0
-231 -301 229 0
-229 -302 232 0
-229 -232 302 0
-232 -302 229 0
-229 -303 233 0
-229 -233 303 0
-233 -303 229 0
-229 -304 234 0
-229 -234 304 0
-234 -304 229 0
-229 -305 235 0
-229 -235 305 0
-235 -305 229 0
-229 -306 236 0
-229 -236 306 0
-236 -306 229 0
-229 -307 237 0
-229 -237 307 0
-237 -307 229 0
-229 -308 238 0
-229 -238 308 0
-238 -308 229 0
-229 -309 239 0
-229 -239 309 0
-239 -309 229 0
-229 -310 240 0
-229 -240 310 0
-240 -310 229 0
-229 -311 241 0
-229 -241 311 0
-241 -311 229 0
-229 -312 242 0
-229 -242 312 0
-242 -312 229 0
-229 -313 243 0
-229 -243 313 0
-243 -313 229 0
-229 -314 244 0
-229 -244 314 0
-244 -314 229 0
-229 -315 245 0
-229 -245 315 0
-245 -315 229 0
-230 -316 231 0
-230 -231 316 0
-231 -316 230 0
-230 -317 232 0
-230 -232 317 0
-232 -317 230 0
-230 -318 233 0
-230 -233 318 0
-233 -318 230 0
-230 -319 234 0
-230 -234 319 0
-234 -319 230 0
-230 -320 235 0
-230 -235 320 0
-235 -320 230 0
-230 -321 236 0
-230 -236 321 0
-236 -321 230 0
-230 -322 237 0
-230 -237 322 0
-237 -322 230 0
-230 -323 238 0
-230 -238 323 0
-238 -323 230 0
-230 -324 239 0
-230 -239 324 0
-239 -324 230 0
-230 -325 240 0
-230 -240 325 0
-240 -325 230 0
-230 -326 241 0
-230 -241 326 0
-241 -326 230 0
-230 -327 242 0
-230 -242 327 0
-242 -327 230 0
-230 -328 243 0
-230 -243 328 0
-243 -328 230 0
-230 -329 244 0
-230 -244 329 0
-244 -329 230 0
-230 -330 245 0
-230 -245 330 0
-245 -330 230 0
-231 -331 232 0
-231 -232 331 0
-232 -331 231 0
-231 -332 233 0
-231 -233 332 0
-233 -332 231 0
-231 -333 234 0
-231 -234 333 0
-234 -333 231 0
-231 -334 235 0
-231 -235 334 0
-235 -334 231 0
-231 -335 236 0
-231 -236 335 0
-236 -335 231 0
-231 -336 237 0
-231 -237 336 0
-237 -336 231 0
-231 -337 238 0
-231 -238 337 0
-238 -337 231 0
-231 -338 239 0
-231 -239 338 0
-239 -338 231 0
-231 -339 240 0
-231 -240 339 0
-240 -339 231 0
-231 -340 241 0
-231 -241 340 0
-241 -340 231 0
-231 -341 242 0
-231 -242 341 0
-242 -341 231 0
-231 -342 243 0
-231 -243 342 0
-243 -342 231 0
-231 -343 244 0
-231 -244 343 0
-244 -343 231 0
-231 -344 245 0
-231 -245 344 0
-245 -344 231 0
-232 -345 233 0
-232 -233 345 0
-233 -345 232 0
-232 -346 234 0
-232 -234 346 0
-234 -346 232 0
-232 -347 235 0
-232 -235 347 0
-235 -347 232 0
-232 -348 236 0
-232 -236 348 0
-236 -348 232 0
-232 -349 237 0
-232 -237 349 0
-237 -349 232 0
-232 -350 238 0
-232 -238 350 0
-238 -350 232 0
-232 -351 239 0
-232 -239 351 0
-239 -351 232 0
-232 -352 240 0
-232 -240 352 0
-240 -352 232 0
-232 -353 241 0
-232 -241 353 0
-241 -353 232 0
-232 -354 242 0
-232 -242 354 0
-242 -354 232 0
-232 -355 243 0
-232 -243 355 0
-243 -355 232 0
-232 -356 244 0
-232 -244 356 0
-244 -356 232 0
-232 -357 245 0
-232 -245 357 0
-245 -357 232 0
-233 -358 234 0
-233 -234 358 0
-234 -358 233 0
-233 -359 235 0
-233 -235 359 0
-235 -359 233 0
-233 -360 236 0
-233 -236 360 0
-236 -360 233 0
-233 -361 237 0
-233 -237 361 0
-237 -361 233 0
-233 -362 238 0
-233 -238 362 0
-238 -362 233 0
-233 -363 239 0
-233 -239 363 0
-239 -363 233 0
-233 -364 240 0
-233 -240 364 0
-240 -364 233 0
-233 -365 241 0
-233 -241 365 0
-241 -365 233 0
-233 -366 242 0
-233 -242 366 0
-242 -366 233 0
-233 -367 243 0
-233 -243 367 0
-243 -367 233 0
-233 -368 244 0
-233 -244 368 0
-244 -368 233 0
-233 -369 245 0
-233 -245 369 0
-245 -369 233 0
-234 -370 235 0
-234 -235 370 0
-235 -370 234 0
-234 -371 236 0
-234 -236 371 0
-236 -371 234 0
-234 -372 237 0
-234 -237 372 0
-237 -372 234 0
-234 -373 238 0
-234 -238 373 0
-238 -373 234 0
-234 -374 239 0
-234 -239 374 0
-239 -374 234 0
-234 -375 240 0
-234 -240 375 0
-240 -375 234 0
-234 -376 241 0
-234 -241 376 0
-241 -376 234 0
-234 -377 242 0
-234 -242 377 0
-242 -377 234 0
-234 -378 243 0
-234 -243 378 0
-243 -378 234 0
-234 -379 244 0
-234 -244 379 0
-244 -379 234 0
-234 -380 245 0
-234 -245 380 0
-245 -380 234 0
-235 -381 236 0
-235 -236 381 0
-236 -381 235 0
-235 -382 237 0
-235 -237 382 0
-237 -382 235 0
-235 -383 238 0
-235 -238 383 0
-238 -383 235 0
-235 -384 239 0
-235 -239 384 0
-239 -384 235 0
-235 -385 240 0
-235 -240 385 0
-240 -385 235 0
-235 -386 241 0
-235 -241 386 0
-241 -386 235 0
-235 -387 242 0
-235 -242 387 0
-242 -387 235 0
-235 -388 243 0
-235 -243 388 0
-243 -388 235 0
-235 -389 244 0
-235 -244 389 0
-244 -389 235 0
-235 -390 245 0
-235 -245 390 0
-245 -390 235 0
-236 -391 237 0
-236 -237 391 0
-237 -391 236 0
-236 -392 238 0
-236 -238 392 0
-238 -392 236 0
-236 -393 239 0
-236 -239 393 0
-239 -393 236 0
-236 -394 240 0
-236 -240 394 0
-240 -394 236 0
-236 -395 241 0
-236 -241 395 0
-241 -395 236 0
-236 -396 242 0
-236 -242 396 0
-242 -396 236 0
-236 -397 243 0
-236 -243 397 0
-243 -397 236 0
-236 -398 244 0
-236 -244 398 0
-244 -398 236 0
-236 -399 245 0
-236 -245 399 0
-245 -399 236 0
-237 -400 238 0
-237 -238 400 0
-238 -400 237 0
-237 -401 239 0
-237 -239 401 0
-239 -401 237 0
-237 -402 240 0
-237 -240 402 0
-240 -402 237 0
-237 -403 241 0
-237 -241 403 0
-241 -403 237 0
-237 -404 242 0
-237 -242 404 0
-242 -404 237 0
-237 -405 243 0
-237 -243 405 0
-243 -405 237 0
-237 -406 244 0
-237 -244 406 0
-244 -406 237 0
-237 -407 245 0
-237 -245 407 0
-245 -407 237 0
-238 -408 239 0
-238 -239 408 0
-239 -408 238 0
-238 -409 240 0
-238 -240 409 0
-240 -409 238 0
-238 -410 241 0
-238 -241 410 0
-241 -410 238 0
-238 -411 242 0
-238 -242 411 0
-242 -411 238 0
-238 -412 243 0
-238 -243 412 0
-243 -412 238 0
-238 -413 244 0
-238 -244 413 0
-244 -413 238 0
-238 -414 245 0
-238 -245 414 0
-245 -414 238 0
-239 -415 240 0
-239 -240 415 0
-240 -415 239 0
-239 -416 241 0
-239 -241 416 0
-241 -416 239 0
-239 -417 242 0
-239 -242 417 0
-242 -417 239 0
-239 -418 243 0
-239 -243 418 0
-243 -418 239 0
-239 -419 244 0
-239 -244 419 0
-244 -419 239 0
-239 -420 245 0
-239 -245 420 0
-245 -420 239 0
-240 -421 241 0
-240 -241 421 0
-241 -421 240 0
-240 -422 242 0
-240 -242 422 0
-242 -422 240 0
-240 -423 243 0
-240 -243 423 0
-243 -423 240 0
-240 -424 244 0
-240 -244 424 0
-244 -424 240 0
-240 -425 245 0
-240 -245 425 0
-245 -425 240 0
-241 -426 242 0
-241 -242 426 0
-242 -426 241 0
-241 -427 243 0
-241 -243 427 0
-243 -427 241 0
-241 -428 244 0
-241 -244 428 0
-244 -428 241 0
-241 -429 245 0
-241 -245 429 0
-245 -429 241 0
-242 -430 243 0
-242 -243 430 0
-243 -430 242 0
-242 -431 244 0
-242 -244 431 0
-244 -431 242 0
-242 -432 245 0
-242 -245 432 0
-245 -432 242 0
-243 -433 244 0
-243 -244 433 0
-244 -433 243 0
-243 -434 245 0
-243 -245 434 0
-245 -434 243 0
-244 -435 245 0
-244 -245 435 0
-245 -435 244 0
-246 -265 247 0
-246 -247 265 0
-247 -265 246 0
-246 -266 248 0
-246 -248 266 0
-248 -266 246 0
-246 -267 249 0
-246 -249 267 0
-249 -267 246 0
-246 -268 250 0
-246 -250 268 0
-250 -268 246 0
-246 -269 251 0
-246 -251 269 0
-251 -269 246 0
-246 -270 252 0
-246 -252 270 0
-252 -270 246 0
-246 -271 253 0
-246 -253 271 0
-253 -271 246 0
-246 -272 254 0
-246 -254 272 0
-254 -272 246 0
-246 -273 255 0
-246 -255 273 0
-255 -273 246 0
-246 -274 256 0
-246 -256 274 0
-256 -274 246 0
-246 -275 257 0
-246 -257 275 0
-257 -275 246 0
-246 -276 258 0
-246 -258 276 0
-258 -276 246 0
-246 -277 259 0
-246 -259 277 0
-259 -277 246 0
-246 -278 260 0
-246 -260 278 0
-260 -278 246 0
-246 -279 261 0
-246 -261 279 0
-261 -279 246 0
-246 -280 262 0
-246 -262 280 0
-262 -280 246 0
-246 -281 263 0
-246 -263 281 0
-263 -281 246 0
-246 -282 264 0
-246 -264 282 0
-264 -282 246 0
-247 -283 248 0
-247 -248 283 0
-248 -283 247 0
-247 -284 249 0
-247 -249 284 0
-249 -284 247 0
-247 -285 250 0
-247 -250 285 0
-250 -285 247 0
-247 -286 251 0
-247 -251 286 0
-251 -286 247 0
-247 -287 252 0
-247 -252 287 0
-252 -287 247 0
-247 -288 253 0
-247 -253 288 0
-253 -288 247 0
-247 -289 254 0
-247 -254 289 0
-254 -289 247 0
-247 -290 255 0
-247 -255 290 0
-255 -290 247 0
-247 -291 256 0
-247 -256 291 0
-256 -291 247 0
-247 -292 257 0
-247 -257 292 0
-257 -292 247 0
-247 -293 258 0
-247 -258 293 0
-258 -293 247 0
-247 -294 259 0
-247 -259 294 0
-259 -294 247 0
-247 -295 260 0
-247 -260 295 0
-260 -295 247 0
-247 -296 261 0
-247 -261 296 0
-261 -296 247 0
-247 -297 262 0
-247 -262 297 0
-262 -297 247 0
-247 -298 263 0
-247 -263 298 0
-263 -298 247 0
-247 -299 264 0
-247 -264 299 0
-264 -299 247 0
-248 -300 249 0
-248 -249 300 0
-249 -300 248 0
-248 -301 250 0
-248 -250 301 0
-250 -301 248 0
-248 -302 251 0
-248 -251 302 0
-251 -302 248 0
-248 -303 252 0
-248 -252 303 0
-252 -303 248 0
-248 -304 253 0
-248 -253 304 0
-253 -304 248 0
-248 -305 254 0
-248 -254 305 0
-254 -305 248 0
-248 -306 255 0
-248 -255 306 0
-255 -306 248 0
-248 -307 256 0
-248 -256 307 0
-256 -307 248 0
-248 -308 257 0
-248 -257 308 0
-257 -308 248 0
-248 -309 258 0
-248 -258 309 0
-258 -309 248 0
-248 -310 259 0
-248 -259 310 0
-259 -310 248 0
-248 -311 260 0
-248 -260 311 0
-260 -311 248 0
-248 -312 261 0
-248 -261 312 0
-261 -312 248 0
-248 -313 262 0
-248 -262 313 0
-262 -313 248 0
-248 -314 263 0
-248 -263 314 0
-263 -314 248 0
-248 -315 264 0
-248 -264 315 0
-264 -315 248 0
-249 -316 250 0
-249 -250 316 0
-250 -316 249 0
-249 -317 251 0
-249 -251 317 0
-251 -317 249 0
-249 -318 252 0
-249 -252 318 0
-252 -318 249 0
-249 -319 253 0
-249 -253 319 0
-253 -319 249 0
-249 -320 254 0
-249 -254 320 0
-254 -320 249 0
-249 -321 255 0
-249 -255 321 0
-255 -321 249 0
-249 -322 256 0
-249 -256 322 0
-256 -322 249 0
-249 -323 257 0
-249 -257 323 0
-257 -323 249 0
-249 -324 258 0
-249 -258 324 0
-258 -324 249 0
-249 -325 259 0
-249 -259 325 0
-259 -325 249 0
-249 -326 260 0
-249 -260 326 0
-260 -326 249 0
-249 -327 261 0
-249 -261 327 0
-261 -327 249 0
-249 -328 262 0
-249 -262 328 0
-262 -328 249 0
-249 -329 263 0
-249 -263 329 0
-263 -329 249 0
-249 -330 264 0
-249 -264 330 0
-264 -330 249 0
-250 -331 251 0
-250 -251 331 0
-251 -331 250 0
-250 -332 252 0
-250 -252 332 0
-252 -332 250 0
-250 -333 253 0
-250 -253 333 0
-253 -333 250 0
-250 -334 254 0
-250 -254 334 0
-254 -334 250 0
-250 -335 255 0
-250 -255 335 0
-255 -335 250 0
-250 -336 256 0
-250 -256 336 0
-256 -336 250 0
-250 -337 257 0
-250 -257 337 0
-257 -337 250 0
-250 -338 258 0
-250 -258 338 0
-258 -338 250 0
-250 -339 259 0
-250 -259 339 0
-259 -339 250 0
-250 -340 260 0
-250 -260 340 0
-260 -340 250 0
-250 -341 261 0
-250 -261 341 0
-261 -341 250 0
-250 -342 262 0
-250 -262 342 0
-262 -342 250 0
-250 -343 263 0
-250 -263 343 0
-263 -343 250 0
-250 -344 264 0
-250 -264 344 0
-264 -344 250 0
-251 -345 252 0
-251 -252 345 0
-252 -345 251 0
-251 -346 253 0
-251 -253 346 0
-253 -346 251 0
-251 -347 254 0
-251 -254 347 0
-254 -347 251 0
-251 -348 255 0
-251 -255 348 0
-255 -348 251 0
-251 -349 256 0
-251 -256 349 0
-256 -349 251 0
-251 -350 257 0
-251 -257 350 0
-257 -350 251 0
-251 -351 258 0
-251 -258 351 0
-258 -351 251 0
-251 -352 259 0
-251 -259 352 0
-259 -352 251 0
-251 -353 260 0
-251 -260 353 0
-260 -353 251 0
-251 -354 261 0
-251 -261 354 0
-261 -354 251 0
-251 -355 262 0
-251 -262 355 0
-262 -355 251 0
-251 -356 263 0
-251 -263 356 0
-263 -356 251 0
-251 -357 264 0
-251 -264 357 0
-264 -357 251 0
-252 -358 253 0
-252 -253 358 0
-253 -358 252 0
-252 -359 254 0
-252 -254 359 0
-254 -359 252 0
-252 -360 255 0
-252 -255 360 0
-255 -360 252 0
-252 -361 256 0
-252 -256 361 0
-256 -361 252 0
-252 -362 257 0
-252 -257 362 0
-257 -362 252 0
-252 -363 258 0
-252 -258 363 0
-258 -363 252 0
-252 -364 259 0
-252 -259 364 0
-259 -364 252 0
-252 -365 260 0
-252 -260 365 0
-260 -365 252 0
-252 -366 261 0
-252 -261 366 0
-261 -366 252 0
-252 -367 262 0
-252 -262 367 0
-262 -367 252 0
-252 -368 263 0
-252 -263 368 0
-263 -368 252 0
-252 -369 264 0
-252 -264 369 0
-264 -369 252 0
-253 -370 254 0
-253 -254 370 0
-254 -370 253 0
-253 -371 255 0
-253 -255 371 0
-255 -371 253 0
-253 -372 256 0
-253 -256 372 0
-256 -372 253 0
-253 -373 257 0
-253 -257 373 0
-257 -373 253 0
-253 -374 258 0
-253 -258 374 0
-258 -374 253 0
-253 -375 259 0
-253 -259 375 0
-259 -375 253 0
-253 -376 260 0
-253 -260 376 0
-260 -376 253 0
-253 -377 261 0
-253 -261 377 0
-261 -377 253 0
-253 -378 262 0
-253 -262 378 0
-262 -378 253 0
-253 -379 263 0
-253 -263 379 0
-263 -379 253 0
-253 -380 264 0
-253 -264 380 0
-264 -380 253 0
-254 -381 255 0
-254 -255 381 0
-255 -381 254 0
-254 -382 256 0
-254 -256 382 0
-256 -382 254 0
-254 -383 257 0
-254 -257 383 0
-257 -383 254 0
-254 -384 258 0
-254 -258 384 0
-258 -384 254 0
-254 -385 259 0
-254 -259 385 0
-259 -385 254 0
-254 -386 260 0
-254 -260 386 0
-260 -386 254 0
-254 -387 261 0
-254 -261 387 0
-261 -387 254 0
-254 -388 262 0
-254 -262 388 0
-262 -388 254 0
-254 -389 263 0
-254 -263 389 0
-263 -389 254 0
-254 -390 264 0
-254 -264 390 0
-264 -390 254 0
-255 -391 256 0
-255 -256 391 0
-256 -391 255 0
-255 -392 257 0
-255 -257 392 0
-257 -392 255 0
-255 -393 258 0
-255 -258 393 0
-258 -393 255 0
-255 -394 259 0
-255 -259 394 0
-259 -394 255 0
-255 -395 260 0
-255 -260 395 0
-260 -395 255 0
-255 -396 261 0
-255 -261 396 0
-261 -396 255 0
-255 -397 262 0
-255 -262 397 0
-262 -397 255 0
-255 -398 263 0
-255 -263 398 0
-263 -398 255 0
-255 -399 264 0
-255 -264 399 0
-264 -399 255 0
-256 -400 257 0
-256 -257 400 0
-257 -400 256 0
-256 -401 258 0
-256 -258 401 0
-258 -401 256 0
-256 -402 259 0
-256 -259 402 0
-259 -402 256 0
-256 -403 260 0
-256 -260 403 0
-260 -403 256 0
-256 -404 261 0
-256 -261 404 0
-261 -404 256 0
-256 -405 262 0
-256 -262 405 0
-262 -405 256 0
-256 -406 263 0
-256 -263 406 0
-263 -406 256 0
-256 -407 264 0
-256 -264 407 0
-264 -407 256 0
-257 -408 258 0
-257 -258 408 0
-258 -408 257 0
-257 -409 259 0
-257 -259 409 0
-259 -409 257 0
-257 -410 260 0
-257 -260 410 0
-260 -410 257 0
-257 -411 261 0
-257 -261 411 0
-261 -411 257 0
-257 -412 262 0
-257 -262 412 0
-262 -412 257 0
-257 -413 263 0
-257 -263 413 0
-263 -413 257 0
-257 -414 264 0
-257 -264 414 0
-264 -414 257 0
-258 -415 259 0
-258 -259 415 0
-259 -415 258 0
-258 -416 260 0
-258 -260 416 0
-260 -416 258 0
-258 -417 261 0
-258 -261 417 0
-261 -417 258 0
-258 -418 262 0
-258 -262 418 0
-262 -418 258 0
-258 -419 263 0
-258 -263 419 0
-263 -419 258 0
-258 -420 264 0
-258 -264 420 0
-264 -420 258 0
-259 -421 260 0
-259 -260 421 0
-260 -421 259 0
-259 -422 261 0
-259 -261 422 0
-261 -422 259 0
-259 -423 262 0
-259 -262 423 0
-262 -423 259 0
-259 -424 263 0
-259 -263 424 0
-263 -424 259 0
-259 -425 264 0
-259 -264 425 0
-264 -425 259 0
-260 -426 261 0
-260 -261 426 0
-261 -426 260 0
-260 -427 262 0
-260 -262 427 0
-262 -427 260 0
-260 -428 263 0
-260 -263 428 0
-263 -428 260 0
-260 -429 264 0
-260 -264 429 0
-264 -429 260 0
-261 -430 262 0
-261 -262 430 0
-262 -430 261 0
-261 -431 263 0
-261 -263 431 0
-263 -431 261 0
-261 -432 264 0
-261 -264 432 0
-264 -432 261 0
-262 -433 263 0
-262 -263 433 0
-263 -433 262 0
-262 -434 264 0
-262 -264 434 0
-264 -434 262 0
-263 -435 264 0
-263 -264 435 0
-264 -435 263 0
-265 -283 266 0
-265 -266 283 0
-266 -283 265 0
-265 -284 267 0
-265 -267 284 0
-267 -284 265 0
-265 -285 268 0
-265 -268 285 0
-268 -285 265 0
-265 -286 269 0
-265 -269 286 0
-269 -286 265 0
-265 -287 270 0
-265 -270 287 0
-270 -287 265 0
-265 -288 271 0
-265 -271 288 0
-271 -288 265 0
-265 -289 272 0
-265 -272 289 0
-272 -289 265 0
-265 -290 273 0
-265 -273 290 0
-273 -290 265 0
-265 -291 274 0
-265 -274 291 0
-274 -291 265 0
-265 -292 275 0
-265 -275 292 0
-275 -292 265 0
-265 -293 276 0
-265 -276 293 0
-276 -293 265 0
-265 -294 277 0
-265 -277 294 0
-277 -294 265 0
-265 -295 278 0
-265 -278 295 0
-278 -295 265 0
-265 -296 279 0
-265 -279 296 0
-279 -296 265 0
-265 -297 280 0
-265 -280 297 0
-280 -297 265 0
-265 -298 281 0
-265 -281 298 0
-281 -298 265 0
-265 -299 282 0
-265 -282 299 0
-282 -299 265 0
-266 -300 267 0
-266 -267 300 0
-267 -300 266 0
-266 -301 268 0
-266 -268 301 0
-268 -301 266 0
-266 -302 269 0
-266 -269 302 0
-269 -302 266 0
-266 -303 270 0
-266 -270 303 0
-270 -303 266 0
-266 -304 271 0
-266 -271 304 0
-271 -304 266 0
-266 -305 272 0
-266 -272 305 0
-272 -305 266 0
-266 -306 273 0
-266 -273 306 0
-273 -306 266 0
-266 -307 274 0
-266 -274 307 0
-274 -307 266 0
-266 -308 275 0
-266 -275 308 0
-275 -308 266 0
-266 -309 276 0
-266 -276 309 0
-276 -309 266 0
-266 -310 277 0
-266 -277 310 0
-277 -310 266 0
-266 -311 278 0
-266 -278 311 0
-278 -311 266 0
-266 -312 279 0
-266 -279 312 0
-279 -312 266 0
-266 -313 280 0
-266 -280 313 0
-280 -313 266 0
-266 -314 281 0
-266 -281 314 0
-281 -314 266 0
-266 -315 282 0
-266 -282 315 0
-282 -315 266 0
-267 -316 268 0
-267 -268 316 0
-268 -316 267 0
-267 -317 269 0
-267 -269 317 0
-269 -317 267 0
-267 -318 270 0
-267 -270 318 0
-270 -318 267 0
-267 -319 271 0
-267 -271 319 0
-271 -319 267 0
-267 -320 272 0
-267 -272 320 0
-272 -320 267 0
-267 -321 273 0
-267 -273 321 0
-273 -321 267 0
-267 -322 274 0
-267 -274 322 0
-274 -322 267 0
-267 -323 275 0
-267 -275 323 0
-275 -323 267 0
-267 -324 276 0
-267 -276 324 0
-276 -324 267 0
-267 -325 277 0
-267 -277 325 0
-277 -325 267 0
-267 -326 278 0
-267 -278 326 0
-278 -326 267 0
-267 -327 279 0
-267 -279 327 0
-279 -327 267 0
-267 -328 280 0
-267 -280 328 0
-280 -328 267 0
-267 -329 281 0
-267 -281 329 0
-281 -329 267 0
-267 -330 282 0
-267 -282 330 0
-282 -330 267 0
-268 -331 269 0
-268 -269 331 0
-269 -331 268 0
-268 -332 270 0
-268 -270 332 0
-270 -332 268 0
-268 -333 271 0
-268 -271 333 0
-271 -333 268 0
-268 -334 272 0
-268 -272 334 0
-272 -334 268 0
-268 -335 273 0
-268 -273 335 0
-273 -335 268 0
-268 -336 274 0
-268 -274 336 0
-274 -336 268 0
-268 -337 275 0
-268 -275 337 0
-275 -337 268 0
-268 -338 276 0
-268 -276 338 0
-276 -338 268 0
-268 -339 277 0
-268 -277 339 0
-277 -339 268 0
-268 -340 278 0
-268 -278 340 0
-278 -340 268 0
-268 -341 279 0
-268 -279 341 0
-279 -341 268 0
-268 -342 280 0
-268 -280 342 0
-280 -342 268 0
-268 -343 281 0
-268 -281 343 0
-281 -343 268 0
-268 -344 282 0
-268 -282 344 0
-282 -344 268 0
-269 -345 270 0
-269 -270 345 0
-270 -345 269 0
-269 -346 271 0
-269 -271 346 0
-271 -346 269 0
-269 -347 272 0
-269 -272 347 0
-272 -347 269 0
-269 -348 273 0
-269 -273 348 0
-273 -348 269 0
-269 -349 274 0
-269 -274 349 0
-274 -349 269 0
-269 -350 275 0
-269 -275 350 0
-275 -350 269 0
-269 -351 276 0
-269 -276 351 0
-276 -351 269 0
-269 -352 277 0
-269 -277 352 0
-277 -352 269 0
-269 -353 278 0
-269 -278 353 0
-278 -353 269 0
-269 -354 279 0
-269 -279 354 0
-279 -354 269 0
-269 -355 280 0
-269 -280 355 0
-280 -355 269 0
-269 -356 281 0
-269 -281 356 0
-281 -356 269 0
-269 -357 282 0
-269 -282 357 0
-282 -357 269 0
-270 -358 271 0
-270 -271 358 0
-271 -358 270 0
-270 -359 272 0
-270 -272 359 0
-272 -359 270 0
-270 -360 273 0
-270 -273 360 0
-273 -360 270 0
-270 -361 274 0
-270 -274 361 0
-274 -361 270 0
-270 -362 275 0
-270 -275 362 0
-275 -362 270 0
-270 -363 276 0
-270 -276 363 0
-276 -363 270 0
-270 -364 277 0
-270 -277 364 0
-277 -364 270 0
-270 -365 278 0
-270 -278 365 0
-278 -365 270 0
-270 -366 279 0
-270 -279 366 0
-279 -366 270 0
-270 -367 280 0
-270 -280 367 0
-280 -367 270 0
-270 -368 281 0
-270 -281 368 0
-281 -368 270 0
-270 -369 282 0
-270 -282 369 0
-282 -369 270 0
-271 -370 272 0
-271 -272 370 0
-272 -370 271 0
-271 -371 273 0
-271 -273 371 0
-273 -371 271 0
-271 -372 274 0
-271 -274 372 0
-274 -372 271 0
-271 -373 275 0
-271 -275 373 0
-275 -373 271 0
-271 -374 276 0
-271 -276 374 0
-276 -374 271 0
-271 -375 277 0
-271 -277 375 0
-277 -375 271 0
-271 -376 278 0
-271 -278 376 0
-278 -376 271 0
-271 -377 279 0
-271 -279 377 0
-279 -377 271 0
-271 -378 280 0
-271 -280 378 0
-280 -378 271 0
-271 -379 281 0
-271 -281 379 0
-281 -379 271 0
-271 -380 282 0
-271 -282 380 0
-282 -380 271 0
-272 -381 273 0
-272 -273 381 0
-273 -381 272 0
-272 -382 274 0
-272 -274 382 0
-274 -382 272 0
-272 -383 275 0
-272 -275 383 0
-275 -383 272 0
-272 -384 276 0
-272 -276 384 0
-276 -384 272 0
-272 -385 277 0
-272 -277 385 0
-277 -385 272 0
-272 -386 278 0
-272 -278 386 0
-278 -386 272 0
-272 -387 279 0
-272 -279 387 0
-279 -387 272 0
-272 -388 280 0
-272 -280 388 0
-280 -388 272 0
-272 -389 281 0
-272 -281 389 0
-281 -389 272 0
-272 -390 282 0
-272 -282 390 0
-282 -390 272 0
-273 -391 274 0
-273 -274 391 0
-274 -391 273 0
-273 -392 275 0
-273 -275 392 0
-275 -392 273 0
-273 -393 276 0
-273 -276 393 0
-276 -393 273 0
-273 -394 277 0
-273 -277 394 0
-277 -394 273 0
-273 -395 278 0
-273 -278 395 0
-278 -395 273 0
-273 -396 279 0
-273 -279 396 0
-279 -396 273 0
-273 -397 280 0
-273 -280 397 0
-280 -397 273 0
-273 -398 281 0
-273 -281 398 0
-281 -398 273 0
-273 -399 282 0
-273 -282 399 0
-282 -399 273 0
-274 -400 275 0
-274 -275 400 0
-275 -400 274 0
-274 -401 276 0
-274 -276 401 0
-276 -401 274 0
-274 -402 277 0
-274 -277 402 0
-277 -402 274 0
-274 -403 278 0
-274 -278 403 0
-278 -403 274 0
-274 -404 279 0
-274 -279 404 0
-279 -404 274 0
-274 -405 280 0
-274 -280 405 0
-280 -405 274 0
-274 -406 281 0
-274 -281 406 0
-281 -406 274 0
-274 -407 282 0
-274 -282 407 0
-282 -407 274 0
-275 -408 276 0
-275 -276 408 0
-276 -408 275 0
-275 -409 277 0
-275 -277 409 0
-277 -409 275 0
-275 -410 278 0
-275 -278 410 0
-278 -410 275 0
-275 -411 279 0
-275 -279 411 0
-279 -411 275 0
-275 -412 280 0
-275 -280 412 0
-280 -412 275 0
-275 -413 281 0
-275 -281 413 0
-281 -413 275 0
-275 -414 282 0
-275 -282 414 0
-282 -414 275 0
-276 -415 277 0
-276 -277 415 0
-277 -415 276 0
-276 -416 278 0
-276 -278 416 0
-278 -416 276 0
-276 -417 279 0
-276 -279 417 0
-279 -417 276 0
-276 -418 280 0
-276 -280 418 0
-280 -418 276 0
-276 -419 281 0
-276 -281 419 0
-281 -419 276 0
-276 -420 282 0
-276 -282 420 0
-282 -420 276 0
-277 -421 278 0
-277 -278 421 0
-278 -421 277 0
-277 -422 279 0
-277 -279 422 0
-279 -422 277 0
-277 -423 280 0
-277 -280 423 0
-280 -423 277 0
-277 -424 281 0
-277 -281 424 0
-281 -424 277 0
-277 -425 282 0
-277 -282 425 0
-282 -425 277 0
-278 -426 279 0
-278 -279 426 0
-279 -426 278 0
-278 -427 280 0
-278 -280 427 0
-280 -427 278 0
-278 -428 281 0
-278 -281 428 0
-281 -428 278 0
-278 -429 282 0
-278 -282 429 0
-282 -429 278 0
-279 -430 280 0
-279 -280 430 0
-280 -430 279 0
-279 -431 281 0
-279 -281 431 0
-281 -431 279 0
-279 -432 282 0
-279 -282 432 0
-282 -432 279 0
-280 -433 281 0
-280 -281 433 0
-281 -433 280 0
-280 -434 282 0
-280 -282 434 0
-282 -434 280 0
-281 -435 282 0
-281 -282 435 0
-282 -435 281 0
-283 -300 284 0
-283 -284 300 0
-284 -300 283 0
-283 -301 285 0
-283 -285 301 0
-285 -301 283 0
-283 -302 286 0
-283 -286 302 0
-286 -302 283 0
-283 -303 287 0
-283 -287 303 0
-287 -303 283 0
-283 -304 288 0
-283 -288 304 0
-288 -304 283 0
-283 -305 289 0
-283 -289 305 0
-289 -305 283 0
-283 -306 290 0
-283 -290 306 0
-290 -306 283 0
-283 -307 291 0
-283 -291 307 0
-291 -307 283 0
-283 -308 292 0
-283 -292 308 0
-292 -308 283 0
-283 -309 293 0
-283 -293 309 0
-293 -309 283 0
-283 -310 294 0
-283 -294 310 0
-294 -310 283 0
-283 -311 295 0
-283 -295 311 0
-295 -311 283 0
-283 -312 296 0
-283 -296 312 0
-296 -312 283 0
-283 -313 297 0
-283 -297 313 0
-297 -313 283 0
-283 -314 298 0
-283 -298 314 0
-298 -314 283 0
-283 -315 299 0
-283 -299 315 0
-299 -315 283 0
-284 -316 285 0
-284 -285 316 0
-285 -316 284 0
-284 -317 286 0
-284 -286 317 0
-286 -317 284 0
-284 -318 287 0
-284 -287 318 0
-287 -318 284 0
-284 -319 288 0
-284 -288 319 0
-288 -319 284 0
-284 -320 289 0
-284 -289 320 0
-289 -320 284 0
-284 -321 290 0
-284 -290 321 0
-290 -321 284 0
-284 -322 291 0
-284 -291 322 0
-291 -322 284 0
-284 -323 292 0
-284 -292 323 0
-292 -323 284 0
-284 -324 293 0
-284 -293 324 0
-293 -324 284 0
-284 -325 294 0
-284 -294 325 0
-294 -325 284 0
-284 -326 295 0
-284 -295 326 0
-295 -326 284 0
-284 -327 296 0
-284 -296 327 0
-296 -327 284 0
-284 -328 297 0
-284 -297 328 0
-297 -328 284 0
-284 -329 298 0
-284 -298 329 0
-298 -329 284 0
-284 -330 299 0
-284 -299 330 0
-299 -330 284 0
-285 -331 286 0
-285 -286 331 0
-286 -331 285 0
-285 -332 287 0
-285 -287 332 0
-287 -332 285 0
-285 -333 288 0
-285 -288 333 0
-288 -333 285 0
-285 -334 289 0
-285 -289 334 0
-289 -334 285 0
-285 -335 290 0
-285 -290 335 0
-290 -335 285 0
-285 -336 291 0
-285 -291 336 0
-291 -336 285 0
-285 -337 292 0
-285 -292 337 0
-292 -337 285 0
-285 -338 293 0
-285 -293 338 0
-293 -338 285 0
-285 -339 294 0
-285 -294 339 0
-294 -339 285 0
-285 -340 295 0
-285 -295 340 0
-295 -340 285 0
-285 -341 296 0
-285 -296 341 0
-296 -341 285 0
-285 -342 297 0
-285 -297 342 0
-297 -342 285 0
-285 -343 298 0
-285 -298 343 0
-298 -343 285 0
-285 -344 299 0
-285 -299 344 0
-299 -344 285 0
-286 -345 287 0
-286 -287 345 0
-287 -345 286 0
-286 -346 288 0
-286 -288 346 0
-288 -346 286 0
-286 -347 289 0
-286 -289 347 0
-289 -347 286 0
-286 -348 290 0
-286 -290 348 0
-290 -348 286 0
-286 -349 291 0
-286 -291 349 0
-291 -349 286 0
-286 -350 292 0
-286 -292 350 0
-292 -350 286 0
-286 -351 293 0
-286 -293 351 0
-293 -351 286 0
-286 -352 294 0
-286 -294 352 0
-294 -352 286 0
-286 -353 295 0
-286 -295 353 0
-295 -353 286 0
-286 -354 296 0
-286 -296 354 0
-296 -354 286 0
-286 -355 297 0
-286 -297 355 0
-297 -355 286 0
-286 -356 298 0
-286 -298 356 0
-298 -356 286 0
-286 -357 299 0
-286 -299 357 0
-299 -357 286 0
-287 -358 288 0
-287 -288 358 0
-288 -358 287 0
-287 -359 289 0
-287 -289 359 0
-289 -359 287 0
-287 -360 290 0
-287 -290 360 0
-290 -360 287 0
-287 -361 291 0
-287 -291 361 0
-291 -361 287 0
-287 -362 292 0
-287 -292 362 0
-292 -362 287 0
-287 -363 293 0
-287 -293 363 0
-293 -363 287 0
-287 -364 294 0
-287 -294 364 0
-294 -364 287 0
-287 -365 295 0
-287 -295 365 0
-295 -365 287 0
-287 -366 296 0
-287 -296 366 0
-296 -366 287 0
-287 -367 297 0
-287 -297 367 0
-297 -367 287 0
-287 -368 298 0
-287 -298 368 0
-298 -368 287 0
-287 -369 299 0
-287 -299 369 0
-299 -369 287 0
-288 -370 289 0
-288 -289 370 0
-289 -370 288 0
-288 -371 290 0
-288 -290 371 0
-290 -371 288 0
-288 -372 291 0
-288 -291 372 0
-291 -372 288 0
-288 -373 292 0
-288 -292 373 0
-292 -373 288 0
-288 -374 293 0
-288 -293 374 0
-293 -374 288 0
-288 -375 294 0
-288 -294 375 0
-294 -375 288 0
-288 -376 295 0
-288 -295 376 0
-295 -376 288 0
-288 -377 296 0
-288 -296 377 0
-296 -377 288 0
-288 -378 297 0
-288 -297 378 0
-297 -378 288 0
-288 -379 298 0
-288 -298 379 0
-298 -379 288 0
-288 -380 299 0
-288 -299 380 0
-299 -380 288 0
-289 -381 290 0
-289 -290 381 0
-290 -381 289 0
-289 -382 291 0
-289 -291 382 0
-291 -382 289 0
-289 -383 292 0
-289 -292 383 0
-292 -383 289 0
-289 -384 293 0
-289 -293 384 0
-293 -384 289 0
-289 -385 294 0
-289 -294 385 0
-294 -385 289 0
-289 -386 295 0
-289 -295 386 0
-295 -386 289 0
-289 -387 296 0
-289 -296 387 0
-296 -387 289 0
-289 -388 297 0
-289 -297 388 0
-297 -388 289 0
-289 -389 298 0
-289 -298 389 0
-298 -389 289 0
-289 -390 299 0
-289 -299 390 0
-299 -390 289 0
-290 -391 291 0
-290 -291 391 0
-291 -391 290 0
-290 -392 292 0
-290 -292 392 0
-292 -392 290 0
-290 -393 293 0
-290 -293 393 0
-293 -393 290 0
-290 -394 294 0
-290 -294 394 0
-294 -394 290 0
-290 -395 295 0
-290 -295 395 0
-295 -395 290 0
-290 -396 296 0
-290 -296 396 0
-296 -396 290 0
-290 -397 297 0
-290 -297 397 0
-297 -397 290 0
-290 -398 298 0
-290 -298 398 0
-298 -398 290 0
-290 -399 299 0
-290 -299 399 0
-299 -399 290 0
-291 -400 292 0
-291 -292 400 0
-292 -400 291 0
-291 -401 293 0
-291 -293 401 0
-293 -401 291 0
-291 -402 294 0
-291 -294 402 0
-294 -402 291 0
-291 -403 295 0
-291 -295 403 0
-295 -403 291 0
-291 -404 296 0
-291 -296 404 0
-296 -404 291 0
-291 -405 297 0
-291 -297 405 0
-297 -405 291 0
-291 -406 298 0
-291 -298 406 0
-298 -406 291 0
-291 -407 299 0
-291 -299 407 0
-299 -407 291 0
-292 -408 293 0
-292 -293 408 0
-293 -408 292 0
-292 -409 294 0
-292 -294 409 0
-294 -409 292 0
-292 -410 295 0
-292 -295 410 0
-295 -410 292 0
-292 -411 296 0
-292 -296 411 0
-296 -411 292 0
-292 -412 297 0
-292 -297 412 0
-297 -412 292 0
-292 -413 298 0
-292 -298 413 0
-298 -413 292 0
-292 -414 299 0
-292 -299 414 0
-299 -414 292 0
-293 -415 294 0
-293 -294 415 0
-294 -415 293 0
-293 -416 295 0
-293 -295 416 0
-295 -416 293 0
-293 -417 296 0
-293 -296 417 0
-296 -417 293 0
-293 -418 297 0
-293 -297 418 0
-297 -418 293 0
-293 -419 298 0
-293 -298 419 0
-298 -419 293 0
-293 -420 299 0
-293 -299 420 0
-299 -420 293 0
-294 -421 295 0
-294 -295 421 0
-295 -421 294 0
-294 -422 296 0
-294 -296 422 0
-296 -422 294 0
-294 -423 297 0
-294 -297 423 0
-297 -423 294 0
-294 -424 298 0
-294 -298 424 0
-298 -424 294 0
-294 -425 299 0
-294 -299 425 0
-299 -425 294 0
-295 -426 296 0
-295 -296 426 0
-296 -426 295 0
-295 -427 297 0
-295 -297 427 0
-297 -427 295 0
-295 -428 298 0
-295 -298 428 0
-298 -428 295 0
-295 -429 299 0
-295 -299 429 0
-299 -429 295 0
-296 -430 297 0
-296 -297 430 0
-297 -430 296 0
-296 -431 298 0
-296 -298 431 0
-298 -431 296 0
-296 -432 299 0
-296 -299 432 0
-299 -432 296 0
-297 -433 298 0
-297 -298 433 0
-298 -433 297 0
-297 -434 299 0
-297 -299 434 0
-299 -434 297 0
-298 -435 299 0
-298 -299 435 0
-299 -435 298 0
-300 -316 301 0
-300 -301 316 0
-301 -316 300 0
-300 -317 302 0
-300 -302 317 0
-302 -317 300 0
-300 -318 303 0
-300 -303 318 0
-303 -318 300 0
-300 -319 304 0
-300 -304 319 0
-304 -319 300 0
-300 -320 305 0
-300 -305 320 0
-305 -320 300 0
-300 -321 306 0
-300 -306 321 0
-306 -321 300 0
-300 -322 307 0
-300 -307 322 0
-307 -322 300 0
-300 -323 308 0
-300 -308 323 0
-308 -323 300 0
-300 -324 309 0
-300 -309 324 0
-309 -324 300 0
-300 -325 310 0
-300 -310 325 0
-310 -325 300 0
-300 -326 311 0
-300 -311 326 0
-311 -326 300 0
-300 -327 312 0
-300 -312 327 0
-312 -327 300 0
-300 -328 313 0
-300 -313 328 0
-313 -328 300 0
-300 -329 314 0
-300 -314 329 0
-314 -329 300 0
-300 -330 315 0
-300 -315 330 0
-315 -330 300 0
-301 -331 302 0
-301 -302 331 0
-302 -331 301 0
-301 -332 303 0
-301 -303 332 0
-303 -332 301 0
-301 -333 304 0
-301 -304 333 0
-304 -333 301 0
-301 -334 305 0
-301 -305 334 0
-305 -334 301 0
-301 -335 306 0
-301 -306 335 0
-306 -335 301 0
-301 -336 307 0
-301 -307 336 0
-307 -336 301 0
-301 -337 308 0
-301 -308 337 0
-308 -337 301 0
-301 -338 309 0
-301 -309 338 0
-309 -338 301 0
-301 -339 310 0
-301 -310 339 0
-310 -339 301 0
-301 -340 311 0
-301 -311 340 0
-311 -340 301 0
-301 -341 312 0
-301 -312 341 0
-312 -341 301 0
-301 -342 313 0
-301 -313 342 0
-313 -342 301 0
-301 -343 314 0
-301 -314 343 0
-314 -343 301 0
-301 -344 315 0
-301 -315 344 0
-315 -344 301 0
-302 -345 303 0
-302 -303 345 0
-303 -345 302 0
-302 -346 304 0
-302 -304 346 0
-304 -346 302 0
-302 -347 305 0
-302 -305 347 0
-305 -347 302 0
-302 -348 306 0
-302 -306 348 0
-306 -348 302 0
-302 -349 307 0
-302 -307 349 0
-307 -349 302 0
-302 -350 308 0
-302 -308 350 0
-308 -350 302 0
-302 -351 309 0
-302 -309 351 0
-309 -351 302 0
-302 -352 310 0
-302 -310 352 0
-310 -352 302 0
-302 -353 311 0
-302 -311 353 0
-311 -353 302 0
-302 -354 312 0
-302 -312 354 0
-312 -354 302 0
-302 -355 313 0
-302 -313 355 0
-313 -355 302 0
-302 -356 314 0
-302 -314 356 0
-314 -356 302 0
-302 -357 315 0
-302 -315 357 0
-315 -357 302 0
-303 -358 304 0
-303 -304 358 0
-304 -358 303 0
-303 -359 305 0
-303 -305 359 0
-305 -359 303 0
-303 -360 306 0
-303 -306 360 0
-306 -360 303 0
-303 -361 307 0
-303 -307 361 0
-307 -361 303 0
-303 -362 308 0
-303 -308 362 0
-308 -362 303 0
-303 -363 309 0
-303 -309 363 0
-309 -363 303 0
-303 -364 310 0
-303 -310 364 0
-310 -364 303 0
-303 -365 311 0
-303 -311 365 0
-311 -365 303 0
-303 -366 312 0
-303 -312 366 0
-312 -366 303 0
-303 -367 313 0
-303 -313 367 0
-313 -367 303 0
-303 -368 314 0
-303 -314 368 0
-314 -368 303 0
-303 -369 315 0
-303 -315 369 0
-315 -369 303 0
-304 -370 305 0
-304 -305 370 0
-305 -370 304 0
-304 -371 306 0
-304 -306 371 0
-306 -371 304 0
-304 -372 307 0
-304 -307 372 0
-307 -372 304 0
-304 -373 308 0
-304 -308 373 0
-308 -373 304 0
-304 -374 309 0
-304 -309 374 0
-309 -374 304 0
-304 -375 310 0
-304 -310 375 0
-310 -375 304 0
-304 -376 311 0
-304 -311 376 0
-311 -376 304 0
-304 -377 312 0
-304 -312 377 0
-312 -377 304 0
-304 -378 313 0
-304 -313 378 0
-313 -378 304 0
-304 -379 314 0
-304 -314 379 0
-314 -379 304 0
-304 -380 315 0
-304 -315 380 0
-315 -380 304 0
-305 -381 306 0
-305 -306 381 0
-306 -381 305 0
-305 -382 307 0
-305 -307 382 0
-307 -382 305 0
-305 -383 308 0
-305 -308 383 0
-308 -383 305 0
-305 -384 309 0
-305 -309 384 0
-309 -384 305 0
-305 -385 310 0
-305 -310 385 0
-310 -385 305 0
-305 -386 311 0
-305 -311 386 0
-311 -386 305 0
-305 -387 312 0
-305 -312 387 0
-312 -387 305 0
-305 -388 313 0
-305 -313 388 0
-313 -388 305 0
-305 -389 314 0
-305 -314 389 0
-314 -389 305 0
-305 -390 315 0
-305 -315 390 0
-315 -390 305 0
-306 -391 307 0
-306 -307 391 0
-307 -391 306 0
-306 -392 308 0
-306 -308 392 0
-308 -392 306 0
-306 -393 309 0
-306 -309 393 0
-309 -393 306 0
-306 -394 310 0
-306 -310 394 0
-310 -394 306 0
-306 -395 311 0
-306 -311 395 0
-311 -395 306 0
-306 -396 312 0
-306 -312 396 0
-312 -396 306 0
-306 -397 313 0
-306 -313 397 0
-313 -397 306 0
-306 -398 314 0
-306 -314 398 0
-314 -398 306 0
-306 -399 315 0
-306 -315 399 0
-315 -399 306 0
-307 -400 308 0
-307 -308 400 0
-308 -400 307 0
-307 -401 309 0
-307 -309 401 0
-309 -401 307 0
-307 -402 310 0
-307 -310 402 0
-310 -402 307 0
-307 -403 311 0
-307 -311 403 0
-311 -403 307 0
-307 -404 312 0
-307 -312 404 0
-312 -404 307 0
-307 -405 313 0
-307 -313 405 0
-313 -405 307 0
-307 -406 314 0
-307 -314 406 0
-314 -406 307 0
-307 -407 315 0
-307 -315 407 0
-315 -407 307 0
-308 -408 309 0
-308 -309 408 0
-309 -408 308 0
-308 -409 310 0
-308 -310 409 0
-310 -409 308 0
-308 -410 311 0
-308 -311 410 0
-311 -410 308 0
-308 -411 312 0
-308 -312 411 0
-312 -411 308 0
-308 -412 313 0
-308 -313 412 0
-313 -412 308 0
-308 -413 314 0
-308 -314 413 0
-314 -413 308 0
-308 -414 315 0
-308 -315 414 0
-315 -414 308 0
-309 -415 310 0
-309 -310 415 0
-310 -415 309 0
-309 -416 311 0
-309 -311 416 0
-311 -416 309 0
-309 -417 312 0
-309 -312 417 0
-312 -417 309 0
-309 -418 313 0
-309 -313 418 0
-313 -418 309 0
-309 -419 314 0
-309 -314 419 0
-314 -419 309 0
-309 -420 315 0
-309 -315 420 0
-315 -420 309 0
-310 -421 311 0
-310 -311 421 0
-311 -421 310 0
-310 -422 312 0
-310 -312 422 0
-312 -422 310 0
-310 -423 313 0
-310 -313 423 0
-313 -423 310 0
-310 -424 314 0
-310 -314 424 0
-314 -424 310 0
-310 -425 315 0
-310 -315 425 0
-315 -425 310 0
-311 -426 312 0
-311 -312 426 0
-312 -426 311 0
-311 -427 313 0
-311 -313 427 0
-313 -427 311 0
-311 -428 314 0
-311 -314 428 0
-314 -428 311 0
-311 -429 315 0
-311 -315 429 0
-315 -429 311 0
-312 -430 313 0
-312 -313 430 0
-313 -430 312 0
-312 -431 314 0
-312 -314 431 0
-314 -431 312 0
-312 -432 315 0
-312 -315 432 0
-315 -432 312 0
-313 -433 314 0
-313 -314 433 0
-314 -433 313 0
-313 -434 315 0
-313 -315 434 0
-315 -434 313 0
-314 -435 315 0
-314 -315 435 0
-315 -435 314 0
-316 -331 317 0
-316 -317 331 0
-317 -331 316 0
-316 -332 318 0
-316 -318 332 0
-318 -332 316 0
-316 -333 319 0
-316 -319 333 0
-319 -333 316 0
-316 -334 320 0
-316 -320 334 0
-320 -334 316 0
-316 -335 321 0
-316 -321 335 0
-321 -335 316 0
-316 -336 322 0
-316 -322 336 0
-322 -336 316 0
-316 -337 323 0
-316 -323 337 0
-323 -337 316 0
-316 -338 324 0
-316 -324 338 0
-324 -338 316 0
-316 -339 325 0
-316 -325 339 0
-325 -339 316 0
-316 -340 326 0
-316 -326 340 0
-326 -340 316 0
-316 -341 327 0
-316 -327 341 0
-327 -341 316 0
-316 -342 328 0
-316 -328 342 0
-328 -342 316 0
-316 -343 329 0
-316 -329 343 0
-329 -343 316 0
-316 -344 330 0
-316 -330 344 0
-330 -344 316 0
-317 -345 318 0
-317 -318 345 0
-318 -345 317 0
-317 -346 319 0
-317 -319 346 0
-319 -346 317 0
-317 -347 320 0
-317 -320 347 0
-320 -347 317 0
-317 -348 321 0
-317 -321 348 0
-321 -348 317 0
-317 -349 322 0
-317 -322 349 0
-322 -349 317 0
-317 -350 323 0
-317 -323 350 0
-323 -350 317 0
-317 -351 324 0
-317 -324 351 0
-324 -351 317 0
-317 -352 325 0
-317 -325 352 0
-325 -352 317 0
-317 -353 326 0
-317 -326 353 0
-326 -353 317 0
-317 -354 327 0
-317 -327 354 0
-327 -354 317 0
-317 -355 328 0
-317 -328 355 0
-328 -355 317 0
-317 -356 329 0
-317 -329 356 0
-329 -356 317 0
-317 -357 330 0
-317 -330 357 0
-330 -357 317 0
-318 -358 319 0
-318 -319 358 0
-319 -358 318 0
-318 -359 320 0
-318 -320 359 0
-320 -359 318 0
-318 -360 321 0
-318 -321 360 0
-321 -360 318 0
-318 -361 322 0
-318 -322 361 0
-322 -361 318 0
-318 -362 323 0
-318 -323 362 0
-323 -362 318 0
-318 -363 324 0
-318 -324 363 0
-324 -363 318 0
-318 -364 325 0
-318 -325 364 0
-325 -364 318 0
-318 -365 326 0
-318 -326 365 0
-326 -365 318 0
-318 -366 327 0
-318 -327 366 0
-327 -366 318 0
-318 -367 328 0
-318 -328 367 0
-328 -367 318 0
-318 -368 329 0
-318 -329 368 0
-329 -368 318 0
-318 -369 330 0
-318 -330 369 0
-330 -369 318 0
-319 -370 320 0
-319 -320 370 0
-320 -370 319 0
-319 -371 321 0
-319 -321 371 0
-321 -371 319 0
-319 -372 322 0
-319 -322 372 0
-322 -372 319 0
-319 -373 323 0
-319 -323 373 0
-323 -373 319 0
-319 -374 324 0
-319 -324 374 0
-324 -374 319 0
-319 -375 325 0
-319 -325 375 0
-325 -375 319 0
-319 -376 326 0
-319 -326 376 0
-326 -376 319 0
-319 -377 327 0
-319 -327 377 0
-327 -377 319 0
-319 -378 328 0
-319 -328 378 0
-328 -378 319 0
-319 -379 329 0
-319 -329 379 0
-329 -379 319 0
-319 -380 330 0
-319 -330 380 0
-330 -380 319 0
-320 -381 321 0
-320 -321 381 0
-321 -381 320 0
-320 -382 322 0
-320 -322 382 0
-322 -382 320 0
-320 -383 323 0
-320 -323 383 0
-323 -383 320 0
-320 -384 324 0
-320 -324 384 0
-324 -384 320 0
-320 -385 325 0
-320 -325 385 0
-325 -385 320 0
-320 -386 326 0
-320 -326 386 0
-326 -386 320 0
-320 -387 327 0
-320 -327 387 0
-327 -387 320 0
-320 -388 328 0
-320 -328 388 0
-328 -388 320 0
-320 -389 329 0
-320 -329 389 0
-329 -389 320 0
-320 -390 330 0
-320 -330 390 0
-330 -390 320 0
-321 -391 322 0
-321 -322 391 0
-322 -391 321 0
-321 -392 323 0
-321 -323 392 0
-323 -392 321 0
-321 -393 324 0
-321 -324 393 0
-324 -393 321 0
-321 -394 325 0
-321 -325 394 0
-325 -394 321 0
-321 -395 326 0
-321 -326 395 0
-326 -395 321 0
-321 -396 327 0
-321 -327 396 0
-327 -396 321 0
-321 -397 328 0
-321 -328 397 0
-328 -397 321 0
-321 -398 329 0
-321 -329 398 0
-329 -398 321 0
-321 -399 330 0
-321 -330 399 0
-330 -399 321 0
-322 -400 323 0
-322 -323 400 0
-323 -400 322 0
-322 -401 324 0
-322 -324 401 0
-324 -401 322 0
-322 -402 325 0
-322 -325 402 0
-325 -402 322 0
-322 -403 326 0
-322 -326 403 0
-326 -403 322 0
-322 -404 327 0
-322 -327 404 0
-327 -404 322 0
-322 -405 328 0
-322 -328 405 0
-328 -405 322 0
-322 -406 329 0
-322 -329 406 0
-329 -406 322 0
-322 -407 330 0
-322 -330 407 0
-330 -407 322 0
-323 -408 324 0
-323 -324 408 0
-324 -408 323 0
-323 -409 325 0
-323 -325 409 0
-325 -409 323 0
-323 -410 326 0
-323 -326 410 0
-326 -410 323 0
-323 -411 327 0
-323 -327 411 0
-327 -411 323 0
-323 -412 328 0
-323 -328 412 0
-328 -412 323 0
-323 -413 329 0
-323 -329 413 0
-329 -413 323 0
-323 -414 330 0
-323 -330 414 0
-330 -414 323 0
-324 -415 325 0
-324 -325 415 0
-325 -415 324 0
-324 -416 326 0
-324 -326 416 0
-326 -416 324 0
-324 -417 327 0
-324 -327 417 0
-327 -417 324 0
-324 -418 328 0
-324 -328 418 0
-328 -418 324 0
-324 -419 329 0
-324 -329 419 0
-329 -419 324 0
-324 -420 330 0
-324 -330 420 0
-330 -420 324 0
-325 -421 326 0
-325 -326 421 0
-326 -421 325 0
-325 -422 327 0
-325 -327 422 0
-327 -422 325 0
-325 -423 328 0
-325 -328 423 0
-328 -423 325 0
-325 -424 329 0
-325 -329 424 0
-329 -424 325 0
-325 -425 330 0
-325 -330 425 0
-330 -425 325 0
-326 -426 327 0
-326 -327 426 0
-327 -426 326 0
-326 -427 328 0
-326 -328 427 0
-328 -427 326 0
-326 -428 329 0
-326 -329 428 0
-329 -428 326 0
-326 -429 330 0
-326 -330 429 0
-330 -429 326 0
-327 -430 328 0
-327 -328 430 0
-328 -430 327 0
-327 -431 329 0
-327 -329 431 0
-329 -431 327 0
-327 -432 330 0
-327 -330 432 0
-330 -432 327 0
-328 -433 329 0
-328 -329 433 0
-329 -433 328 0
-328 -434 330 0
-328 -330 434 0
-330 -434 328 0
-329 -435 330 0
-329 -330 435 0
-330 -435 329 0
-331 -345 332 0
-331 -332 345 0
-332 -345 331 0
-331 -346 333 0
-331 -333 346 0
-333 -346 331 0
-331 -347 334 0
-331 -334 347 0
-334 -347 331 0
-331 -348 335 0
-331 -335 348 0
-335 -348 331 0
-331 -349 336 0
-331 -336 349 0
-336 -349 331 0
-331 -350 337 0
-331 -337 350 0
-337 -350 331 0
-331 -351 338 0
-331 -338 351 0
-338 -351 331 0
-331 -352 339 0
-331 -339 352 0
-339 -352 331 0
-331 -353 340 0
-331 -340 353 0
-340 -353 331 0
-331 -354 341 0
-331 -341 354 0
-341 -354 331 0
-331 -355 342 0
-331 -342 355 0
-342 -355 331 0
-331 -356 343 0
-331 -343 356 0
-343 -356 331 0
-331 -357 344 0
-331 -344 357 0
-344 -357 331 0
-332 -358 333 0
-332 -333 358 0
-333 -358 332 0
-332 -359 334 0
-332 -334 359 0
-334 -359 332 0
-332 -360 335 0
-332 -335 360 0
-335 -360 332 0
-332 -361 336 0
-332 -336 361 0
-336 -361 332 0
-332 -362 337 0
-332 -337 362 0
-337 -362 332 0
-332 -363 338 0
-332 -338 363 0
-338 -363 332 0
-332 -364 339 0
-332 -339 364 0
-339 -364 332 0
-332 -365 340 0
-332 -340 365 0
-340 -365 332 0
-332 -366 341 0
-332 -341 366 0
-341 -366 332 0
-332 -367 342 0
-332 -342 367 0
-342 -367 332 0
-332 -368 343 0
-332 -343 368 0
-343 -368 332 0
-332 -369 344 0
-332 -344 369 0
-344 -369 332 0
-333 -370 334 0
-333 -334 370 0
-334 -370 333 0
-333 -371 335 0
-333 -335 371 0
-335 -371 333 0
-333 -372 336 0
-333 -336 372 0
-336 -372 333 0
-333 -373 337 0
-333 -337 373 0
-337 -373 333 0
-333 -374 338 0
-333 -338 374 0
-338 -374 333 0
-333 -375 339 0
-333 -339 375 0
-339 -375 333 0
-333 -376 340 0
-333 -340 376 0
-340 -376 333 0
-333 -377 341 0
-333 -341 377 0
-341 -377 333 0
-333 -378 342 0
-333 -342 378 0
-342 -378 333 0
-333 -379 343 0
-333 -343 379 0
-343 -379 333 0
-333 -380 344 0
-333 -344 380 0
-344 -380 333 0
-334 -381 335 0
-334 -335 381 0
-335 -381 334 0
-334 -382 336 0
-334 -336 382 0
-336 -382 334 0
-334 -383 337 0
-334 -337 383 0
-337 -383 334 0
-334 -384 338 0
-334 -338 384 0
-338 -384 334 0
-334 -385 339 0
-334 -339 385 0
-339 -385 334 0
-334 -386 340 0
-334 -340 386 0
-340 -386 334 0
-334 -387 341 0
-334 -341 387 0
-341 -387 334 0
-334 -388 342 0
-334 -342 388 0
-342 -388 334 0
-334 -389 343 0
-334 -343 389 0
-343 -389 334 0
-334 -390 344 0
-334 -344 390 0
-344 -390 334 0
-335 -391 336 0
-335 -336 391 0
-336 -391 335 0
-335 -392 337 0
-335 -337 392 0
-337 -392 335 0
-335 -393 338 0
-335 -338 393 0
-338 -393 335 0
-335 -394 339 0
-335 -339 394 0
-339 -394 335 0
-335 -395 340 0
-335 -340 395 0
-340 -395 335 0
-335 -396 341 0
-335 -341 396 0
-341 -396 335 0
-335 -397 342 0
-335 -342 397 0
-342 -397 335 0
-335 -398 343 0
-335 -343 398 0
-343 -398 335 0
-335 -399 344 0
-335 -344 399 0
-344 -399 335 0
-336 -400 337 0
-336 -337 400 0
-337 -400 336 0
-336 -401 338 0
-336 -338 401 0
-338 -401 336 0
-336 -402 339 0
-336 -339 402 0
-339 -402 336 0
-336 -403 340 0
-336 -340 403 0
-340 -403 336 0
-336 -404 341 0
-336 -341 404 0
-341 -404 336 0
-336 -405 342 0
-336 -342 405 0
-342 -405 336 0
-336 -406 343 0
-336 -343 406 0
-343 -406 336 0
-336 -407 344 0
-336 -344 407 0
-344 -407 336 0
-337 -408 338 0
-337 -338 408 0
-338 -408 337 0
-337 -409 339 0
-337 -339 409 0
-339 -409 337 0
-337 -410 340 0
-337 -340 410 0
-340 -410 337 0
-337 -411 341 0
-337 -341 411 0
-341 -411 337 0
-337 -412 342 0
-337 -342 412 0
-342 -412 337 0
-337 -413 343 0
-337 -343 413 0
-343 -413 337 0
-337 -414 344 0
-337 -344 414 0
-344 -414 337 0
-338 -415 339 0
-338 -339 415 0
-339 -415 338 0
-338 -416 340 0
-338 -340 416 0
-340 -416 338 0
-338 -417 341 0
-338 -341 417 0
-341 -417 338 0
-338 -418 342 0
-338 -342 418 0
-342 -418 338 0
-338 -419 343 0
-338 -343 419 0
-343 -419 338 0
-338 -420 344 0
-338 -344 420 0
-344 -420 338 0
-339 -421 340 0
-339 -340 421 0
-340 -421 339 0
-339 -422 341 0
-339 -341 422 0
-341 -422 339 0
-339 -423 342 0
-339 -342 423 0
-342 -423 339 0
-339 -424 343 0
-339 -343 424 0
-343 -424 339 0
-339 -425 344 0
-339 -344 425 0
-344 -425 339 0
-340 -426 341 0
-340 -341 426 0
-341 -426 340 0
-340 -427 342 0
-340 -342 427 0
-342 -427 340 0
-340 -428 343 0
-340 -343 428 0
-343 -428 340 0
-340 -429 344 0
-340 -344 429 0
-344 -429 340 0
-341 -430 342 0
-341 -342 430 0
-342 -430 341 0
-341 -431 343 0
-341 -343 431 0
-343 -431 341 0
-341 -432 344 0
-341 -344 432 0
-344 -432 341 0
-342 -433 343 0
-342 -343 433 0
-343 -433 342 0
-342 -434 344 0
-342 -344 434 0
-344 -434 342 0
-343 -435 344 0
-343 -344 435 0
-344 -435 343 0
-345 -358 346 0
-345 -346 358 0
-346 -358 345 0
-345 -359 347 0
-345 -347 359 0
-347 -359 345 0
-345 -360 348 0
-345 -348 360 0
-348 -360 345 0
-345 -361 349 0
-345 -349 361 0
-349 -361 345 0
-345 -362 350 0
-345 -350 362 0
-350 -362 345 0
-345 -363 351 0
-345 -351 363 0
-351 -363 345 0
-345 -364 352 0
-345 -352 364 0
-352 -364 345 0
-345 -365 353 0
-345 -353 365 0
-353 -365 345 0
-345 -366 354 0
-345 -354 366 0
-354 -366 345 0
-345 -367 355 0
-345 -355 367 0
-355 -367 345 0
-345 -368 356 0
-345 -356 368 0
-356 -368 345 0
-345 -369 357 0
-345 -357 369 0
-357 -369 345 0
-346 -370 347 0
-346 -347 370 0
-347 -370 346 0
-346 -371 348 0
-346 -348 371 0
-348 -371 346 0
-346 -372 349 0
-346 -349 372 0
-349 -372 346 0
-346 -373 350 0
-346 -350 373 0
-350 -373 346 0
-346 -374 351 0
-346 -351 374 0
-351 -374 346 0
-346 -375 352 0
-346 -352 375 0
-352 -375 346 0
-346 -376 353 0
-346 -353 376 0
-353 -376 346 0
-346 -377 354 0
-346 -354 377 0
-354 -377 346 0
-346 -378 355 0
-346 -355 378 0
-355 -378 346 0
-346 -379 356 0
-346 -356 379 0
-356 -379 346 0
-346 -380 357 0
-346 -357 380 0
-357 -380 346 0
-347 -381 348 0
-347 -348 381 0
-348 -381 347 0
-347 -382 349 0
-347 -349 382 0
-349 -382 347 0
-347 -383 350 0
-347 -350 383 0
-350 -383 347 0
-347 -384 351 0
-347 -351 384 0
-351 -384 347 0
-347 -385 352 0
-347 -352 385 0
-352 -385 347 0
-347 -386 353 0
-347 -353 386 0
-353 -386 347 0
-347 -387 354 0
-347 -354 387 0
-354 -387 347 0
-347 -388 355 0
-347 -355 388 0
-355 -388 347 0
-347 -389 356 0
-347 -356 389 0
-356 -389 347 0
-347 -390 357 0
-347 -357 390 0
-357 -390 347 0
-348 -391 349 0
-348 -349 391 0
-349 -391 348 0
-348 -392 350 0
-348 -350 392 0
-350 -392 348 0
-348 -393 351 0
-348 -351 393 0
-351 -393 348 0
-348 -394 352 0
-348 -352 394 0
-352 -394 348 0
-348 -395 353 0
-348 -353 395 0
-353 -395 348 0
-348 -396 354 0
-348 -354 396 0
-354 -396 348 0
-348 -397 355 0
-348 -355 397 0
-355 -397 348 0
-348 -398 356 0
-348 -356 398 0
-356 -398 348 0
-348 -399 357 0
-348 -357 399 0
-357 -399 348 0
-349 -400 350 0
-349 -350 400 0
-350 -400 349 0
-349 -401 351 0
-349 -351 401 0
-351 -401 349 0
-349 -402 352 0
-349 -352 402 0
-352 -402 349 0
-349 -403 353 0
-349 -353 403 0
-353 -403 349 0
-349 -404 354 0
-349 -354 404 0
-354 -404 349 0
-349 -405 355 0
-349 -355 405 0
-355 -405 349 0
-349 -406 356 0
-349 -356 406 0
-356 -406 349 0
-349 -407 357 0
-349 -357 407 0
-357 -407 349 0
-350 -408 351 0
-350 -351 408 0
-351 -408 350 0
-350 -409 352 0
-350 -352 409 0
-352 -409 350 0
-350 -410 353 0
-350 -353 410 0
-353 -410 350 0
-350 -411 354 0
-350 -354 411 0
-354 -411 350 0
-350 -412 355 0
-350 -355 412 0
-355 -412 350 0
-350 -413 356 0
-350 -356 413 0
-356 -413 350 0
-350 -414 357 0
-350 -357 414 0
-357 -414 350 0
-351 -415 352 0
-351 -352 415 0
-352 -415 351 0
-351 -416 353 0
-351 -353 416 0
-353 -416 351 0
-351 -417 354 0
-351 -354 417 0
-354 -417 351 0
-351 -418 355 0
-351 -355 418 0
-355 -418 351 0
-351 -419 356 0
-351 -356 419 0
-356 -419 351 0
-351 -420 357 0
-351 -357 420 0
-357 -420 351 0
-352 -421 353 0
-352 -353 421 0
-353 -421 352 0
-352 -422 354 0
-352 -354 422 0
-354 -422 352 0
-352 -423 355 0
-352 -355 423 0
-355 -423 352 0
-352 -424 356 0
-352 -356 424 0
-356 -424 352 0
-352 -425 357 0
-352 -357 425 0
-357 -425 352 0
-353 -426 354 0
-353 -354 426 0
-354 -426 353 0
-353 -427 355 0
-353 -355 427 0
-355 -427 353 0
-353 -428 356 0
-353 -356 428 0
-356 -428 353 0
-353 -429 357 0
-353 -357 429 0
-357 -429 353 0
-354 -430 355 0
-354 -355 430 0
-355 -430 354 0
-354 -431 356 0
-354 -356 431 0
-356 -431 354 0
-354 -432 357 0
-354 -357 432 0
-357 -432 354 0
-355 -433 356 0
-355 -356 433 0
-356 -433 355 0
-355 -434 357 0
-355 -357 434 0
-357 -434 355 0
-356 -435 357 0
-356 -357 435 0
-357 -435 356 0
-358 -370 359 0
-358 -359 370 0
-359 -370 358 0
-358 -371 360 0
-358 -360 371 0
-360 -371 358 0
-358 -372 361 0
-358 -361 372 0
-361 -372 358 0
-358 -373 362 0
-358 -362 373 0
-362 -373 358 0
-358 -374 363 0
-358 -363 374 0
-363 -374 358 0
-358 -375 364 0
-358 -364 375 0
-364 -375 358 0
-358 -376 365 0
-358 -365 376 0
-365 -376 358 0
-358 -377 366 0
-358 -366 377 0
-366 -377 358 0
-358 -378 367 0
-358 -367 378 0
-367 -378 358 0
-358 -379 368 0
-358 -368 379 0
-368 -379 358 0
-358 -380 369 0
-358 -369 380 0
-369 -380 358 0
-359 -381 360 0
-359 -360 381 0
-360 -381 359 0
-359 -382 361 0
-359 -361 382 0
-361 -382 359 0
-359 -383 362 0
-359 -362 383 0
-362 -383 359 0
-359 -384 363 0
-359 -363 384 0
-363 -384 359 0
-359 -385 364 0
-359 -364 385 0
-364 -385 359 0
-359 -386 365 0
-359 -365 386 0
-365 -386 359 0
-359 -387 366 0
-359 -366 387 0
-366 -387 359 0
-359 -388 367 0
-359 -367 388 0
-367 -388 359 0
-359 -389 368 0
-359 -368 389 0
-368 -389 359 0
-359 -390 369 0
-359 -369 390 0
-369 -390 359 0
-360 -391 361 0
-360 -361 391 0
-361 -391 360 0
-360 -392 362 0
-360 -362 392 0
-362 -392 360 0
-360 -393 363 0
-360 -363 393 0
-363 -393 360 0
-360 -394 364 0
-360 -364 394 0
-364 -394 360 0
-360 -395 365 0
-360 -365 395 0
-365 -395 360 0
-360 -396 366 0
-360 -366 396 0
-366 -396 360 0
-360 -397 367 0
-360 -367 397 0
-367 -397 360 0
-360 -398 368 0
-360 -368 398 0
-368 -398 360 0
-360 -399 369 0
-360 -369 399 0
-369 -399 360 0
-361 -400 362 0
-361 -362 400 0
-362 -400 361 0
-361 -401 363 0
-361 -363 401 0
-363 -401 361 0
-361 -402 364 0
-361 -364 402 0
-364 -402 361 0
-361 -403 365 0
-361 -365 403 0
-365 -403 361 0
-361 -404 366 0
-361 -366 404 0
-366 -404 361 0
-361 -405 367 0
-361 -367 405 0
-367 -405 361 0
-361 -406 368 0
-361 -368 406 0
-368 -406 361 0
-361 -407 369 0
-361 -369 407 0
-369 -407 361 0
-362 -408 363 0
-362 -363 408 0
-363 -408 362 0
-362 -409 364 0
-362 -364 409 0
-364 -409 362 0
-362 -410 365 0
-362 -365 410 0
-365 -410 362 0
-362 -411 366 0
-362 -366 411 0
-366 -411 362 0
-362 -412 367 0
-362 -367 412 0
-367 -412 362 0
-362 -413 368 0
-362 -368 413 0
-368 -413 362 0
-362 -414 369 0
-362 -369 414 0
-369 -414 362 0
-363 -415 364 0
-363 -364 415 0
-364 -415 363 0
-363 -416 365 0
-363 -365 416 0
-365 -416 363 0
-363 -417 366 0
-363 -366 417 0
-366 -417 363 0
-363 -418 367 0
-363 -367 418 0
-367 -418 363 0
-363 -419 368 0
-363 -368 419 0
-368 -419 363 0
-363 -420 369 0
-363 -369 420 0
-369 -420 363 0
-364 -421 365 0
-364 -365 421 0
-365 -421 364 0
-364 -422 366 0
-364 -366 422 0
-366 -422 364 0
-364 -423 367 0
-364 -367 423 0
-367 -423 364 0
-364 -424 368 0
-364 -368 424 0
-368 -424 364 0
-364 -425 369 0
-364 -369 425 0
-369 -425 364 0
-365 -426 366 0
-365 -366 426 0
-366 -426 365 0
-365 -427 367 0
-365 -367 427 0
-367 -427 365 0
-365 -428 368 0
-365 -368 428 0
-368 -428 365 0
-365 -429 369 0
-365 -369 429 0
-369 -429 365 0
-366 -430 367 0
-366 -367 430 0
-367 -430 366 0
-366 -431 368 0
-366 -368 431 0
-368 -431 366 0
-366 -432 369 0
-366 -369 432 0
-369 -432 366 0
-367 -433 368 0
-367 -368 433 0
-368 -433 367 0
-367 -434 369 0
-367 -369 434 0
-369 -434 367 0
-368 -435 369 0
-368 -369 435 0
-369 -435 368 0
-370 -381 371 0
-370 -371 381 0
-371 -381 370 0
-370 -382 372 0
-370 -372 382 0
-372 -382 370 0
-370 -383 373 0
-370 -373 383 0
-373 -383 370 0
-370 -384 374 0
-370 -374 384 0
-374 -384 370 0
-370 -385 375 0
-370 -375 385 0
-375 -385 370 0
-370 -386 376 0
-370 -376 386 0
-376 -386 370 0
-370 -387 377 0
-370 -377 387 0
-377 -387 370 0
-370 -388 378 0
-370 -378 388 0
-378 -388 370 0
-370 -389 379 0
-370 -379 389 0
-379 -389 370 0
-370 -390 380 0
-370 -380 390 0
-380 -390 370 0
-371 -391 372 0
-371 -372 391 0
-372 -391 371 0
-371 -392 373 0
-371 -373 392 0
-373 -392 371 0
-371 -393 374 0
-371 -374 393 0
-374 -393 371 0
-371 -394 375 0
-371 -375 394 0
-375 -394 371 0
-371 -395 376 0
-371 -376 395 0
-376 -395 371 0
-371 -396 377 0
-371 -377 396 0
-377 -396 371 0
-371 -397 378 0
-371 -378 397 0
-378 -397 371 0
-371 -398 379 0
-371 -379 398 0
-379 -398 371 0
-371 -399 380 0
-371 -380 399 0
-380 -399 371 0
-372 -400 373 0
-372 -373 400 0
-373 -400 372 0
-372 -401 374 0
-372 -374 401 0
-374 -401 372 0
-372 -402 375 0
-372 -375 402 0
-375 -402 372 0
-372 -403 376 0
-372 -376 403 0
-376 -403 372 0
-372 -404 377 0
-372 -377 404 0
-377 -404 372 0
-372 -405 378 0
-372 -378 405 0
-378 -405 372 0
-372 -406 379 0
-372 -379 406 0
-379 -406 372 0
-372 -407 380 0
-372 -380 407 0
-380 -407 372 0
-373 -408 374 0
-373 -374 408 0
-374 -408 373 0
-373 -409 375 0
-373 -375 409 0
-375 -409 373 0
-373 -410 376 0
-373 -376 410 0
-376 -410 373 0
-373 -411 377 0
-373 -377 411 0
-377 -411 373 0
-373 -412 378 0
-373 -378 412 0
-378 -412 373 0
-373 -413 379 0
-373 -379 413 0
-379 -413 373 0
-373 -414 380 0
-373 -380 414 0
-380 -414 373 0
-374 -415 375 0
-374 -375 415 0
-375 -415 374 0
-374 -416 376 0
-374 -376 416 0
-376 -416 374 0
-374 -417 377 0
-374 -377 417 0
-377 -417 374 0
-374 -418 378 0
-374 -378 418 0
-378 -418 374 0
-374 -419 379 0
-374 -379 419 0
-379 -419 374 0
-374 -420 380 0
-374 -380 420 0
-380 -420 374 0
-375 -421 376 0
-375 -376 421 0
-376 -421 375 0
-375 -422 377 0
-375 -377 422 0
-377 -422 375 0
-375 -423 378 0
-375 -378 423 0
-378 -423 375 0
-375 -424 379 0
-375 -379 424 0
-379 -424 375 0
-375 -425 380 0
-375 -380 425 0
-380 -425 375 0
-376 -426 377 0
-376 -377 426 0
-377 -426 376 0
-376 -427 378 0
-376 -378 427 0
-378 -427 376 0
-376 -428 379 0
-376 -379 428 0
-379 -428 376 0
-376 -429 380 0
-376 -380 429 0
-380 -429 376 0
-377 -430 378 0
-377 -378 430 0
-378 -430 377 0
-377 -431 379 0
-377 -379 431 0
-379 -431 377 0
-377 -432 380 0
-377 -380 432 0
-380 -432 377 0
-378 -433 379 0
-378 -379 433 0
-379 -433 378 0
-378 -434 380 0
-378 -380 434 0
-380 -434 378 0
-379 -435 380 0
-379 -380 435 0
-380 -435 379 0
-381 -391 382 0
-381 -382 391 0
-382 -391 381 0
-381 -392 383 0
-381 -383 392 0
-383 -392 381 0
-381 -393 384 0
-381 -384 393 0
-384 -393 381 0
-381 -394 385 0
-381 -385 394 0
-385 -394 381 0
-381 -395 386 0
-381 -386 395 0
-386 -395 381 0
-381 -396 387 0
-381 -387 396 0
-387 -396 381 0
-381 -397 388 0
-381 -388 397 0
-388 -397 381 0
-381 -398 389 0
-381 -389 398 0
-389 -398 381 0
-381 -399 390 0
-381 -390 399 0
-390 -399 381 0
-382 -400 383 0
-382 -383 400 0
-383 -400 382 0
-382 -401 384 0
-382 -384 401 0
-384 -401 382 0
-382 -402 385 0
-382 -385 402 0
-385 -402 382 0
-382 -403 386 0
-382 -386 403 0
-386 -403 382 0
-382 -404 387 0
-382 -387 404 0
-387 -404 382 0
-382 -405 388 0
-382 -388 405 0
-388 -405 382 0
-382 -406 389 0
-382 -389 406 0
-389 -406 382 0
-382 -407 390 0
-382 -390 407 0
-390 -407 382 0
-383 -408 384 0
-383 -384 408 0
-384 -408 383 0
-383 -409 385 0
-383 -385 409 0
-385 -409 383 0
-383 -410 386 0
-383 -386 410 0
-386 -410 383 0
-383 -411 387 0
-383 -387 411 0
-387 -411 383 0
-383 -412 388 0
-383 -388 412 0
-388 -412 383 0
-383 -413 389 0
-383 -389 413 0
-389 -413 383 0
-383 -414 390 0
-383 -390 414 0
-390 -414 383 0
-384 -415 385 0
-384 -385 415 0
-385 -415 384 0
-384 -416 386 0
-384 -386 416 0
-386 -416 384 0
-384 -417 387 0
-384 -387 417 0
-387 -417 384 0
-384 -418 388 0
-384 -388 418 0
-388 -418 384 0
-384 -419 389 0
-384 -389 419 0
-389 -419 384 0
-384 -420 390 0
-384 -390 420 0
-390 -420 384 0
-385 -421 386 0
-385 -386 421 0
-386 -421 385 0
-385 -422 387 0
-385 -387 422 0
-387 -422 385 0
-385 -423 388 0
-385 -388 423 0
-388 -423 385 0
-385 -424 389 0
-385 -389 424 0
-389 -424 385 0
-385 -425 390 0
-385 -390 425 0
-390 -425 385 0
-386 -426 387 0
-386 -387 426 0
-387 -426 386 0
-386 -427 388 0
-386 -388 427 0
-388 -427 386 0
-386 -428 389 0
-386 -389 428 0
-389 -428 386 0
-386 -429 390 0
-386 -390 429 0
-390 -429 386 0
-387 -430 388 0
-387 -388 430 0
-388 -430 387 0
-387 -431 389 0
-387 -389 431 0
-389 -431 387 0
-387 -432 390 0
-387 -390 432 0
-390 -432 387 0
-388 -433 389 0
-388 -389 433 0
-389 -433 388 0
-388 -434 390 0
-388 -390 434 0
-390 -434 388 0
-389 -435 390 0
-389 -390 435 0
-390 -435 389 0
-391 -400 392 0
-391 -392 400 0
-392 -400 391 0
-391 -401 393 0
-391 -393 401 0
-393 -401 391 0
-391 -402 394 0
-391 -394 402 0
-394 -402 391 0
-391 -403 395 0
-391 -395 403 0
-395 -403 391 0
-391 -404 396 0
-391 -396 404 0
-396 -404 391 0
-391 -405 397 0
-391 -397 405 0
-397 -405 391 0
-391 -406 398 0
-391 -398 406 0
-398 -406 391 0
-391 -407 399 0
-391 -399 407 0
-399 -407 391 0
-392 -408 393 0
-392 -393 408 0
-393 -408 392 0
-392 -409 394 0
-392 -394 409 0
-394 -409 392 0
-392 -410 395 0
-392 -395 410 0
-395 -410 392 0
-392 -411 396 0
-392 -396 411 0
-396 -411 392 0
-392 -412 397 0
-392 -397 412 0
-397 -412 392 0
-392 -413 398 0
-392 -398 413 0
-398 -413 392 0
-392 -414 399 0
-392 -399 414 0
-399 -414 392 0
-393 -415 394 0
-393 -394 415 0
-394 -415 393 0
-393 -416 395 0
-393 -395 416 0
-395 -416 393 0
-393 -417 396 0
-393 -396 417 0
-396 -417 393 0
-393 -418 397 0
-393 -397 418 0
-397 -418 393 0
-393 -419 398 0
-393 -398 419 0
-398 -419 393 0
-393 -420 399 0
-393 -399 420 0
-399 -420 393 0
-394 -421 395 0
-394 -395 421 0
-395 -421 394 0
-394 -422 396 0
-394 -396 422 0
-396 -422 394 0
-394 -423 397 0
-394 -397 423 0
-397 -423 394 0
-394 -424 398 0
-394 -398 424 0
-398 -424 394 0
-394 -425 399 0
-394 -399 425 0
-399 -425 394 0
-395 -426 396 0
-395 -396 426 0
-396 -426 395 0
-395 -427 397 0
-395 -397 427 0
-397 -427 395 0
-395 -428 398 0
-395 -398 428 0
-398 -428 395 0
-395 -429 399 0
-395 -399 429 0
-399 -429 395 0
-396 -430 397 0
-396 -397 430 0
-397 -430 396 0
-396 -431 398 0
-396 -398 431 0
-398 -431 396 0
-396 -432 399 0
-396 -399 432 0
-399 -432 396 0
-397 -433 398 0
-397 -398 433 0
-398 -433 397 0
-397 -434 399 0
-397 -399 434 0
-399 -434 397 0
-398 -435 399 0
-398 -399 435 0
-399 -435 398 0
-400 -408 401 0
-400 -401 408 0
-401 -408 400 0
-400 -409 402 0
-400 -402 409 0
-402 -409 400 0
-400 -410 403 0
-400 -403 410 0
-403 -410 400 0
-400 -411 404 0
-400 -404 411 0
-404 -411 400 0
-400 -412 405 0
-400 -405 412 0
-405 -412 400 0
-400 -413 406 0
-400 -406 413 0
-406 -413 400 0
-400 -414 407 0
-400 -407 414 0
-407 -414 400 0
-401 -415 402 0
-401 -402 415 0
-402 -415 401 0
-401 -416 403 0
-401 -403 416 0
-403 -416 401 0
-401 -417 404 0
-401 -404 417 0
-404 -417 401 0
-401 -418 405 0
-401 -405 418 0
-405 -418 401 0
-401 -419 406 0
-401 -406 419 0
-406 -419 401 0
-401 -420 407 0
-401 -407 420 0
-407 -420 401 0
-402 -421 403 0
-402 -403 421 0
-403 -421 402 0
-402 -422 404 0
-402 -404 422 0
-404 -422 402 0
-402 -423 405 0
-402 -405 423 0
-405 -423 402 0
-402 -424 406 0
-402 -406 424 0
-406 -424 402 0
-402 -425 407 0
-402 -407 425 0
-407 -425 402 0
-403 -426 404 0
-403 -404 426 0
-404 -426 403 0
-403 -427 405 0
-403 -405 427 0
-405 -427 403 0
-403 -428 406 0
-403 -406 428 0
-406 -428 403 0
-403 -429 407 0
-403 -407 429 0
-407 -429 403 0
-404 -430 405 0
-404 -405 430 0
-405 -430 404 0
-404 -431 406 0
-404 -406 431 0
-406 -431 404 0
-404 -432 407 0
-404 -407 432 0
-407 -432 404 0
-405 -433 406 0
-405 -406 433 0
-406 -433 405 0
-405 -434 407 0
-405 -407 434 0
-407 -434 405 0
-406 -435 407 0
-406 -407 435 0
-407 -435 406 0
-408 -415 409 0
-408 -409 415 0
-409 -415 408 0
-408 -416 410 0
-408 -410 416 0
-410 -416 408 0
-408 -417 411 0
-408 -411 417 0
-411 -417 408 0
-408 -418 412 0
-408 -412 418 0
-412 -418 408 0
-408 -419 413 0
-408 -413 419 0
-413 -419 408 0
-408 -420 414 0
-408 -414 420 0
-414 -420 408 0
-409 -421 410 0
-409 -410 421 0
-410 -421 409 0
-409 -422 411 0
-409 -411 422 0
-411 -422 409 0
-409 -423 412 0
-409 -412 423 0
-412 -423 409 0
-409 -424 413 0
-409 -413 424 0
-413 -424 409 0
-409 -425 414 0
-409 -414 425 0
-414 -425 409 0
-410 -426 411 0
-410 -411 426 0
-411 -426 410 0
-410 -427 412 0
-410 -412 427 0
-412 -427 410 0
-410 -428 413 0
-410 -413 428 0
-413 -428 410 0
-410 -429 414 0
-410 -414 429 0
-414 -429 410 0
-411 -430 412 0
-411 -412 430 0
-412 -430 411 0
-411 -431 413 0
-411 -413 431 0
-413 -431 411 0
-411 -432 414 0
-411 -414 432 0
-414 -432 411 0
-412 -433 413 0
-412 -413 433 0
-413 -433 412 0
-412 -434 414 0
-412 -414 434 0
-414 -434 412 0
-413 -435 414 0
-413 -414 435 0
-414 -435 413 0
-415 -421 416 0
-415 -416 421 0
-416 -421 415 0
-415 -422 417 0
-415 -417 422 0
-417 -422 415 0
-415 -423 418 0
-415 -418 423 0
-418 -423 415 0
-415 -424 419 0
-415 -419 424 0
-419 -424 415 0
-415 -425 420 0
-415 -420 425 0
-420 -425 415 0
-416 -426 417 0
-416 -417 426 0
-417 -426 416 0
-416 -427 418 0
-416 -418 427 0
-418 -427 416 0
-416 -428 419 0
-416 -419 428 0
-419 -428 416 0
-416 -429 420 0
-416 -420 429 0
-420 -429 416 0
-417 -430 418 0
-417 -418 430 0
-418 -430 417 0
-417 -431 419 0
-417 -419 431 0
-419 -431 417 0
-417 -432 420 0
-417 -420 432 0
-420 -432 417 0
-418 -433 419 0
-418 -419 433 0
-419 -433 418 0
-418 -434 420 0
-418 -420 434 0
-420 -434 418 0
-419 -435 420 0
-419 -420 435 0
-420 -435 419 0
-421 -426 422 0
-421 -422 426 0
-422 -426 421 0
-421 -427 423 0
-421 -423 427 0
-423 -427 421 0
-421 -428 424 0
-421 -424 428 0
-424 -428 421 0
-421 -429 425 0
-421 -425 429 0
-425 -429 421 0
-422 -430 423 0
-422 -423 430 0
-423 -430 422 0
-422 -431 424 0
-422 -424 431 0
-424 -431 422 0
-422 -432 425 0
-422 -425 432 0
-425 -432 422 0
-423 -433 424 0
-423 -424 433 0
-424 -433 423 0
-423 -434 425 0
-423 -425 434 0
-425 -434 423 0
-424 -435 425 0
-424 -425 435 0
-425 -435 424 0
-426 -430 427 0
-426 -427 430 0
-427 -430 426 0
-426 -431 428 0
-426 -428 431 0
-428 -431 426 0
-426 -432 429 0
-426 -429 432 0
-429 -432 426 0
-427 -433 428 0
-427 -428 433 0
-428 -433 427 0
-427 -434 429 0
-427 -429 434 0
-429 -434 427 0
-428 -435 429 0
-428 -429 435 0
-429 -435 428 0
-430 -433 431 0
-430 -431 433 0
-431 -433 430 0
-430 -434 432 0
-430 -432 434 0
-432 -434 430 0
-431 -435 432 0
-431 -432 435 0
-432 -435 431 0
-433 -435 434 0
-433 -434 435 0
-434 -435 433 0
-1 0
-2 0
-30 0
-160 0
-161 0
-162 0
-183 0
-184 0
-205 0
436 437 438 439 0
-436 -437 0
-436 -438 0
-436 -439 0
-437 -438 0
-437 -439 0
-438 -439 0
440 441 442 443 0
-440 -441 0
-440 -442 0
-440 -443 0
-441 -442 0
-441 -443 0
-442 -443 0
444 445 446 447 0
-444 -445 0
-444 -446 0
-444 -447 0
-445 -446 0
-445 -447 0
-446 -447 0
448 449 450 451 0
-448 -449 0
-448 -450 0
-448 -451 0
-449 -450 0
-449 -451 0
-450 -451 0
-436 -440 0
-444 -448 0
-437 -441 0
-445 -449 0
-438 -442 0
-446 -450 0
-439 -443 0
-447 -451 0
460 461 0
-460 -461 0
-60 0
-460 -436 -136 0
-460 -436 -61 0
-461 -440 -136 0
-461 -440 -61 0
-460 -437 -137 0
-460 -437 -62 0
-461 -441 -137 0
-461 -441 -62 0
-460 -438 -138 0
-460 -438 -63 0
-461 -442 -138 0
-461 -442 -63 0
-460 -439 -139 0
-460 -439 -64 0
-461 -443 -139 0
-461 -443 -64 0
-246 0
-247 0
-248 0
-265 0
-266 0
-283 0
-316 0
-317 0
-318 0
-331 0
-332 0
-345 0
-140 0
-141 0
-142 0
-143 0
-69 0
-70 0
-71 0
-72 0
-460 -436 -163 0
-460 -436 -164 0
-460 -436 -165 0
-460 -436 -166 0
-460 -436 -167 0
-460 -436 -168 0
-460 -436 -169 0
-460 -436 -170 0
-461 -440 -163 0
-461 -440 -164 0
-461 -440 -165 0
-461 -440 -166 0
-461 -440 -167 0
-461 -440 -168 0
-461 -440 -169 0
-461 -440 -170 0
-460 -437 -185 0
-460 -437 -186 0
-460 -437 -187 0
-460 -437 -188 0
-460 -437 -189 0
-460 -437 -190 0
-460 -437 -191 0
-460 -437 -192 0
-461 -441 -185 0
-461 -441 -186 0
-461 -441 -187 0
-461 -441 -188 0
-461 -441 -189 0
-461 -441 -190 0
-461 -441 -191 0
-461 -441 -192 0
-460 -438 -206 0
-460 -438 -207 0
-460 -438 -208 0
-460 -438 -209 0
-460 -438 -210 0
-460 -438 -211 0
-460 -438 -212 0
-460 -438 -213 0
-461 -442 -206 0
-461 -442 -207 0
-461 -442 -208 0
-461 -442 -209 0
-461 -442 -210 0
-461 -442 -211 0
-461 -442 -212 0
-461 -442 -213 0
-460 -439 -226 0
-460 -439 -227 0
-460 -439 -228 0
-460 -439 -229 0
-460 -439 -230 0
-460 -439 -231 0
-460 -439 -232 0
-460 -439 -233 0
-461 -443 -226 0
-461 -443 -227 0
-461 -443 -228 0
-461 -443 -229 0
-461 -443 -230 0
-461 -443 -231 0
-461 -443 -232 0
-461 -443 -233 0
-249 -250 -251 0
-249 -250 -252 0
-249 -250 -267 0
-249 -250 -268 0
-249 -250 -269 0
-249 -250 -270 0
-249 -250 -284 0
-249 -250 -285 0
-249 -250 -286 0
-249 -250 -287 0
-249 -250 -300 0
-249 -250 -301 0
-249 -250 -302 0
-249 -250 -303 0
-249 -251 -252 0
-249 -251 -267 0
-249 -251 -268 0
-249 -251 -269 0
-249 -251 -270 0
-249 -251 -284 0
-249 -251 -285 0
-249 -251 -286 0
-249 -251 -287 0
-249 -251 -300 0
-249 -251 -301 0
-249 -251 -302 0
-249 -251 -303 0
-249 -252 -267 0
-249 -252 -268 0
-249 -252 -269 0
-249 -252 -270 0
-249 -252 -284 0
-249 -252 -285 0
-249 -252 -286 0
-249 -252 -287 0
-249 -252 -300 0
-249 -252 -301 0
-249 -252 -302 0
-249 -252 -303 0
-249 -267 -268 0
-249 -267 -269 0
-249 -267 -270 0
-249 -267 -284 0
-249 -267 -285 0
-249 -267 -286 0
-249 -267 -287 0
-249 -267 -300 0
-249 -267 -301 0
-249 -267 -302 0
-249 -267 -303 0
-249 -268 -269 0
-249 -268 -270 0
-249 -268 -284 0
-249 -268 -285 0
-249 -268 -286 0
-249 -268 -287 0
-249 -268 -300 0
-249 -268 -301 0
-249 -268 -302 0
-249 -268 -303 0
-249 -269 -270 0
-249 -269 -284 0
-249 -269 -285 0
-249 -269 -286 0
-249 -269 -287 0
-249 -269 -300 0
-249 -269 -301 0
-249 -269 -302 0
-249 -269 -303 0
-249 -270 -284 0
-249 -270 -285 0
-249 -270 -286 0
-249 -270 -287 0
-249 -270 -300 0
-249 -270 -301 0
-249 -270 -302 0
-249 -270 -303 0
-249 -284 -285 0
-249 -284 -286 0
-249 -284 -287 0
-249 -284 -300 0
-249 -284 -301 0
-249 -284 -302 0
-249 -284 -303 0
-249 -285 -286 0
-249 -285 -287 0
-249 -285 -300 0
-249 -285 -301 0
-249 -285 -302 0
-249 -285 -303 0
-249 -286 -287 0
-249 -286 -300 0
-249 -286 -301 0
-249 -286 -302 0
-249 -286 -303 0
-249 -287 -300 0
-249 -287 -301 0
-249 -287 -302 0
-249 -287 -303 0
-249 -300 -301 0
-249 -300 -302 0
-249 -300 -303 0
-249 -301 -302 0
-249 -301 -303 0
-249 -302 -303 0
-250 -251 -252 0
-250 -251 -267 0
-250 -251 -268 0
-250 -251 -269 0
-250 -251 -270 0
-250 -251 -284 0
-250 -251 -285 0
-250 -251 -286 0
-250 -251 -287 0
-250 -251 -300 0
-250 -251 -301 0
-250 -251 -302 0
-250 -251 -303 0
-250 -252 -267 0
-250 -252 -268 0
-250 -252 -269 0
-250 -252 -270 0
-250 -252 -284 0
-250 -252 -285 0
-250 -252 -286 0
-250 -252 -287 0
-250 -252 -300 0
-250 -252 -301 0
-250 -252 -302 0
-250 -252 -303 0
-250 -267 -268 0
-250 -267 -269 0
-250 -267 -270 0
-250 -267 -284 0
-250 -267 -285 0
-250 -267 -286 0
-250 -267 -287 0
-250 -267 -300 0
-250 -267 -301 0
-250 -267 -302 0
-250 -267 -303 0
-250 -268 -269 0
-250 -268 -270 0
-250 -268 -284 0
-250 -268 -285 0
-250 -268 -286 0
-250 -268 -287 0
-250 -268 -300 0
-250 -268 -301 0
-250 -268 -302 0
-250 -268 -303 0
-250 -269 -270 0
-250 -269 -284 0
-250 -269 -285 0
-250 -269 -286 0
-250 -269 -287 0
-250 -269 -300 0
-250 -269 -301 0
-250 -269 -302 0
-250 -269 -303 0
-250 -270 -284 0
-250 -270 -285 0
-250 -270 -286 0
-250 -270 -287 0
-250 -270 -300 0
-250 -270 -301 0
-250 -270 -302 0
-250 -270 -303 0
-250 -284 -285 0
-250 -284 -286 0
-250 -284 -287 0
-250 -284 -300 0
-250 -284 -301 0
-250 -284 -302 0
-250 -284 -303 0
-250 -285 -286 0
-250 -285 -287 0
-250 -285 -300 0
-250 -285 -301 0
-250 -285 -302 0
-250 -285 -303 0
-250 -286 -287 0
-250 -286 -300 0
-250 -286 -301 0
-250 -286 -302 0
-250 -286 -303 0
-250 -287 -300 0
-250 -287 -301 0
-250 -287 -302 0
-250 -287 -303 0
-250 -300 -301 0
-250 -300 -302 0
-250 -300 -303 0
-250 -301 -302 0
-250 -301 -303 0
-250 -302 -303 0
-251 -252 -267 0
-251 -252 -268 0
-251 -252 -269 0
-251 -252 -270 0
-251 -252 -284 0
-251 -252 -285 0
-251 -252 -286 0
-251 -252 -287 0
-251 -252 -300 0
-251 -252 -301 0
-251 -252 -302 0
-251 -252 -303 0
-251 -267 -268 0
-251 -267 -269 0
-251 -267 -270 0
-251 -267 -284 0
-251 -267 -285 0
-251 -267 -286 0
-251 -267 -287 0
-251 -267 -300 0
-251 -267 -301 0
-251 -267 -302 0
-251 -267 -303 0
-251 -268 -269 0
-251 -268 -270 0
-251 -268 -284 0
-251 -268 -285 0
-251 -268 -286 0
-251 -268 -287 0
-251 -268 -300 0
-251 -268 -301 0
-251 -268 -302 0
-251 -268 -303 0
-251 -269 -270 0
-251 -269 -284 0
-251 -269 -285 0
-251 -269 -286 0
-251 -269 -287 0
-251 -269 -300 0
-251 -269 -301 0
-251 -269 -302 0
-251 -269 -303 0
-251 -270 -284 0
-251 -270 -285 0
-251 -270 -286 0
-251 -270 -287 0
-251 -270 -300 0
-251 -270 -301 0
-251 -270 -302 0
-251 -270 -303 0
-251 -284 -285 0
-251 -284 -286 0
-251 -284 -287 0
-251 -284 -300 0
-251 -284 -301 0
-251 -284 -302 0
-251 -284 -303 0
-251 -285 -286 0
-251 -285 -287 0
-251 -285 -300 0
-251 -285 -301 0
-251 -285 -302 0
-251 -285 -303 0
-251 -286 -287 0
-251 -286 -300 0
-251 -286 -301 0
-251 -286 -302 0
-251 -286 -303 0
-251 -287 -300 0
-251 -287 -301 0
-251 -287 -302 0
-251 -287 -303 0
-251 -300 -301 0
-251 -300 -302 0
-251 -300 -303 0
-251 -301 -302 0
-251 -301 -303 0
-251 -302 -303 0
-252 -267 -268 0
-252 -267 -269 0
-252 -267 -270 0
-252 -267 -284 0
-252 -267 -285 0
-252 -267 -286 0
-252 -267 -287 0
-252 -267 -300 0
-252 -267 -301 0
-252 -267 -302 0
-252 -267 -303 0
-252 -268 -269 0
-252 -268 -270 0
-252 -268 -284 0
-252 -268 -285 0
-252 -268 -286 0
-252 -268 -287 0
-252 -268 -300 0
-252 -268 -301 0
-252 -268 -302 0
-252 -268 -303 0
-252 -269 -270 0
-252 -269 -284 0
-252 -269 -285 0
-252 -269 -286 0
-252 -269 -287 0
-252 -269 -300 0
-252 -269 -301 0
-252 -269 -302 0
-252 -269 -303 0
-252 -270 -284 0
-252 -270 -285 0
-252 -270 -286 0
-252 -270 -287 0
-252 -270 -300 0
-252 -270 -301 0
-252 -270 -302 0
-252 -270 -303 0
-252 -284 -285 0
-252 -284 -286 0
-252 -284 -287 0
-252 -284 -300 0
-252 -284 -301 0
-252 -284 -302 0
-252 -284 -303 0
-252 -285 -286 0
-252 -285 -287 0
-252 -285 -300 0
-252 -285 -301 0
-252 -285 -302 0
-252 -285 -303 0
-252 -286 -287 0
-252 -286 -300 0
-252 -286 -301 0
-252 -286 -302 0
-252 -286 -303 0
-252 -287 -300 0
-252 -287 -301 0
-252 -287 -302 0
-252 -287 -303 0
-252 -300 -301 0
-252 -300 -302 0
-252 -300 -303 0
-252 -301 -302 0
-252 -301 -303 0
-252 -302 -303 0
-267 -268 -269 0
-267 -268 -270 0
-267 -268 -284 0
-267 -268 -285 0
-267 -268 -286 0
-267 -268 -287 0
-267 -268 -300 0
-267 -268 -301 0
-267 -268 -302 0
-267 -268 -303 0
-267 -269 -270 0
-267 -269 -284 0
-267 -269 -285 0
-267 -269 -286 0
-267 -269 -287 0
-267 -269 -300 0
-267 -269 -301 0
-267 -269 -302 0
-267 -269 -303 0
-267 -270 -284 0
-267 -270 -285 0
-267 -270 -286 0
-267 -270 -287 0
-267 -270 -300 0
-267 -270 -301 0
-267 -270 -302 0
-267 -270 -303 0
-267 -284 -285 0
-267 -284 -286 0
-267 -284 -287 0
-267 -284 -300 0
-267 -284 -301 0
-267 -284 -302 0
-267 -284 -303 0
-267 -285 -286 0
-267 -285 -287 0
-267 -285 -300 0
-267 -285 -301 0
-267 -285 -302 0
-267 -285 -303 0
-267 -286 -287 0
-267 -286 -300 0
-267 -286 -301 0
-267 -286 -302 0
-267 -286 -303 0
-267 -287 -300 0
-267 -287 -301 0
-267 -287 -302 0
-267 -287 -303 0
-267 -300 -301 0
-267 -300 -302 0
-267 -300 -303 0
-267 -301 -302 0
-267 -301 -303 0
-267 -302 -303 0
-268 -269 -270 0
-268 -269 -284 0
-268 -269 -285 0
-268 -269 -286 0
-268 -269 -287 0
-268 -269 -300 0
-268 -269 -301 0
-268 -269 -302 0
-268 -269 -303 0
-268 -270 -284 0
-268 -270 -285 0
-268 -270 -286 0
-268 -270 -287 0
-268 -270 -300 0
-268 -270 -301 0
-268 -270 -302 0
-268 -270 -303 0
-268 -284 -285 0
-268 -284 -286 0
-268 -284 -287 0
-268 -284 -300 0
-268 -284 -301 0
-268 -284 -302 0
-268 -284 -303 0
-268 -285 -286 0
-268 -285 -287 0
-268 -285 -300 0
-268 -285 -301 0
-268 -285 -302 0
-268 -285 -303 0
-268 -286 -287 0
-268 -286 -300 0
-268 -286 -301 0
-268 -286 -302 0
-268 -286 -303 0
-268 -287 -300 0
-268 -287 -301 0
-268 -287 -302 0
-268 -287 -303 0
-268 -300 -301 0
-268 -300 -302 0
-268 -300 -303 0
-268 -301 -302 0
-268 -301 -303 0
-268 -302 -303 0
-269 -270 -284 0
-269 -270 -285 0
-269 -270 -286 0
-269 -270 -287 0
-269 -270 -300 0
-269 -270 -301 0
-269 -270 -302 0
-269 -270 -303 0
-269 -284 -285 0
-269 -284 -286 0
-269 -284 -287 0
-269 -284 -300 0
-269 -284 -301 0
-269 -284 -302 0
-269 -284 -303 0
-269 -285 -286 0
-269 -285 -287 0
-269 -285 -300 0
-269 -285 -301 0
-269 -285 -302 0
-269 -285 -303 0
-269 -286 -287 0
-269 -286 -300 0
-269 -286 -301 0
-269 -286 -302 0
-269 -286 -303 0
-269 -287 -300 0
-269 -287 -301 0
-269 -287 -302 0
-269 -287 -303 0
-269 -300 -301 0
-269 -300 -302 0
-269 -300 -303 0
-269 -301 -302 0
-269 -301 -303 0
-269 -302 -303 0
-270 -284 -285 0
-270 -284 -286 0
-270 -284 -287 0
-270 -284 -300 0
-270 -284 -301 0
-270 -284 -302 0
-270 -284 -303 0
-270 -285 -286 0
-270 -285 -287 0
-270 -285 -300 0
-270 -285 -301 0
-270 -285 -302 0
-270 -285 -303 0
-270 -286 -287 0
-270 -286 -300 0
-270 -286 -301 0
-270 -286 -302 0
-270 -286 -303 0
-270 -287 -300 0
-270 -287 -301 0
-270 -287 -302 0
-270 -287 -303 0
-270 -300 -301 0
-270 -300 -302 0
-270 -300 -303 0
-270 -301 -302 0
-270 -301 -303 0
-270 -302 -303 0
-284 -285 -286 0
-284 -285 -287 0
-284 -285 -300 0
-284 -285 -301 0
-284 -285 -302 0
-284 -285 -303 0
-284 -286 -287 0
-284 -286 -300 0
-284 -286 -301 0
-284 -286 -302 0
-284 -286 -303 0
-284 -287 -300 0
-284 -287 -301 0
-284 -287 -302 0
-284 -287 -303 0
-284 -300 -301 0
-284 -300 -302 0
-284 -300 -303 0
-284 -301 -302 0
-284 -301 -303 0
-284 -302 -303 0
-285 -286 -287 0
-285 -286 -300 0
-285 -286 -301 0
-285 -286 -302 0
-285 -286 -303 0
-285 -287 -300 0
-285 -287 -301 0
-285 -287 -302 0
-285 -287 -303 0
-285 -300 -301 0
-285 -300 -302 0
-285 -300 -303 0
-285 -301 -302 0
-285 -301 -303 0
-285 -302 -303 0
-286 -287 -300 0
-286 -287 -301 0
-286 -287 -302 0
-286 -287 -303 0
-286 -300 -301 0
-286 -300 -302 0
-286 -300 -303 0
-286 -301 -302 0
-286 -301 -303 0
-286 -302 -303 0
-287 -300 -301 0
-287 -300 -302 0
-287 -300 -303 0
-287 -301 -302 0
-287 -301 -303 0
-287 -302 -303 0
-300 -301 -302 0
-300 -301 -303 0
-300 -302 -303 0
-301 -302 -303 0
-370 0
-371 0
-372 0
-381 0
-382 0
-391 0
-408 0
-409 0
-410 0
-415 0
-416 0
-421 0
-373 0
-374 0
-375 0
-376 0
-383 0
-384 0
-385 0
-386 0
-392 0
-393 0
-394 0
-395 0
-400 0
-401 0
-402 0
-403 0
466 467 468 0
466 467 469 0
466 468 469 0
467 468 469 0
470 471 472 0
470 471 473 0
470 472 473 0
471 472 473 0
-462 -463 -464 0
-462 -463 -465 0
-462 -464 -465 0
-463 -464 -465 0
395 0
