p cnf 172 625
-13 12 0
-14 13 0
-15 14 0
-16 15 0
-17 16 0
-18 17 0
-19 18 0
-20 19 0
-21 20 0
-22 21 0
-23 22 0
-24 23 0
-25 24 0
-26 25 0
-27 26 0
21 0
-7 6 0
-8 7 0
-9 8 0
-10 9 0
-11 10 0
10 0
-11 0
1 0
2 0
3 0
4 0
5 0
28 0
33 0
-38 0
39 0
-38 28 0
-38 33 0
-39 29 0
-39 34 0
-40 30 0
-40 35 0
-41 31 0
-41 36 0
-42 32 0
-42 37 0
-30 0
-36 0
163 0
-78 43 0
-78 50 0
-43 -50 78 0
-79 44 0
-79 51 0
-44 -51 79 0
-80 45 0
-80 52 0
-45 -52 80 0
-81 46 0
-81 53 0
-46 -53 81 0
-82 47 0
-82 54 0
-47 -54 82 0
-83 48 0
-83 55 0
-48 -55 83 0
-84 49 0
-84 56 0
-49 -56 84 0
-85 43 0
-85 57 0
-43 -57 85 0
-86 44 0
-86 58 0
-44 -58 86 0
-87 45 0
-87 59 0
-45 -59 87 0
-88 46 0
-88 60 0
-46 -60 88 0
-89 47 0
-89 61 0
-47 -61 89 0
-90 48 0
-90 62 0
-48 -62 90 0
-91 49 0
-91 63 0
-49 -63 91 0
-92 43 0
-92 64 0
-43 -64 92 0
-93 44 0
-93 65 0
-44 -65 93 0
-94 45 0
-94 66 0
-45 -66 94 0
-95 46 0
-95 67 0
-46 -67 95 0
-96 47 0
-96 68 0
-47 -68 96 0
-97 48 0
-97 69 0
-48 -69 97 0
-98 49 0
-98 70 0
-49 -70 98 0
-99 43 0
-99 71 0
-43 -71 99 0
-100 44 0
-100 72 0
-44 -72 100 0
-101 45 0
-101 73 0
-45 -73 101 0
-102 46 0
-102 74 0
-46 -74 102 0
-103 47 0
-103 75 0
-47 -75 103 0
-104 48 0
-104 76 0
-48 -76 104 0
-105 49 0
-105 77 0
-49 -77 105 0
-106 50 0
-106 57 0
-50 -57 106 0
-107 51 0
-107 58 0
-51 -58 107 0
-108 52 0
-108 59 0
-52 -59 108 0
-109 53 0
-109 60 0
-53 -60 109 0
-110 54 0
-110 61 0
-54 -61 110 0
-111 55 0
-111 62 0
-55 -62 111 0
-112 56 0
-112 63 0
-56 -63 112 0
-113 50 0
-113 64 0
-50 -64 113 0
-114 51 0
-114 65 0
-51 -65 114 0
-115 52 0
-115 66 0
-52 -66 115 0
-116 53 0
-116 67 0
-53 -67 116 0
-117 54 0
-117 68 0
-54 -68 117 0
-118 55 0
-118 69 0
-55 -69 118 0
-119 56 0
-119 70 0
-56 -70 119 0
-120 50 0
-120 71 0
-50 -71 120 0
-121 51 0
-121 72 0
-51 -72 121 0
-122 52 0
-122 73 0
-52 -73 122 0
-123 53 0
-123 74 0
-53 -74 123 0
-124 54 0
-124 75 0
-54 -75 124 0
-125 55 0
-125 76 0
-55 -76 125 0
-126 56 0
-126 77 0
-56 -77 126 0
-127 57 0
-127 64 0
-57 -64 127 0
-128 58 0
-128 65 0
-58 -65 128 0
-129 59 0
-129 66 0
-59 -66 129 0
-130 60 0
-130 67 0
-60 -67 130 0
-131 61 0
-131 68 0
-61 -68 131 0
-132 62 0
-132 69 0
-62 -69 132 0
-133 63 0
-133 70 0
-63 -70 133 0
-134 57 0
-134 71 0
-57 -71 134 0
-135 58 0
-135 72 0
-58 -72 135 0
-136 59 0
-136 73 0
-59 -73 136 0
-137 60 0
-137 74 0
-60 -74 137 0
-138 61 0
-138 75 0
-61 -75 138 0
-139 62 0
-139 76 0
-62 -76 139 0
-140 63 0
-140 77 0
-63 -77 140 0
-141 64 0
-141 71 0
-64 -71 141 0
-142 65 0
-142 72 0
-65 -72 142 0
-143 66 0
-143 73 0
-66 -73 143 0
-144 67 0
-144 74 0
-67 -74 144 0
-145 68 0
-145 75 0
-68 -75 145 0
-146 69 0
-146 76 0
-69 -76 146 0
-147 70 0
-147 77 0
-70 -77 147 0
-148 -78 -79 -80 0
-148 -78 -79 -81 0
-148 -78 -79 -82 0
-148 -78 -79 -83 0
-148 -78 -79 -84 0
-148 -78 -80 -81 0
-148 -78 -80 -82 0
-148 -78 -80 -83 0
-148 -78 -80 -84 0
-148 -78 -81 -82 0
-148 -78 -81 -83 0
-148 -78 -81 -84 0
-148 -78 -82 -83 0
-148 -78 -82 -84 0
-148 -78 -83 -84 0
-148 -79 -80 -81 0
-148 -79 -80 -82 0
-148 -79 -80 -83 0
-148 -79 -80 -84 0
-148 -79 -81 -82 0
-148 -79 -81 -83 0
-148 -79 -81 -84 0
-148 -79 -82 -83 0
-148 -79 -82 -84 0
-148 -79 -83 -84 0
-148 -80 -81 -82 0
-148 -80 -81 -83 0
-148 -80 -81 -84 0
-148 -80 -82 -83 0
-148 -80 -82 -84 0
-148 -80 -83 -84 0
-148 -81 -82 -83 0
-148 -81 -82 -84 0
-148 -81 -83 -84 0
-148 -82 -83 -84 0
-149 -85 -86 -87 0
-149 -85 -86 -88 0
-149 -85 -86 -89 0
-149 -85 -86 -90 0
-149 -85 -86 -91 0
-149 -85 -87 -88 0
-149 -85 -87 -89 0
-149 -85 -87 -90 0
-149 -85 -87 -91 0
-149 -85 -88 -89 0
-149 -85 -88 -90 0
-149 -85 -88 -91 0
-149 -85 -89 -90 0
-149 -85 -89 -91 0
-149 -85 -90 -91 0
-149 -86 -87 -88 0
-149 -86 -87 -89 0
-149 -86 -87 -90 0
-149 -86 -87 -91 0
-149 -86 -88 -89 0
-149 -86 -88 -90 0
-149 -86 -88 -91 0
-149 -86 -89 -90 0
-149 -86 -89 -91 0
-149 -86 -90 -91 0
-149 -87 -88 -89 0
-149 -87 -88 -90 0
-149 -87 -88 -91 0
-149 -87 -89 -90 0
-149 -87 -89 -91 0
-149 -87 -90 -91 0
-149 -88 -89 -90 0
-149 -88 -89 -91 0
-149 -88 -90 -91 0
-149 -89 -90 -91 0
-150 -92 -93 -94 0
-150 -92 -93 -95 0
-150 -92 -93 -96 0
-150 -92 -93 -97 0
-150 -92 -93 -98 0
-150 -92 -94 -95 0
-150 -92 -94 -96 0
-150 -92 -94 -97 0
-150 -92 -94 -98 0
-150 -92 -95 -96 0
-150 -92 -95 -97 0
-150 -92 -95 -98 0
-150 -92 -96 -97 0
-150 -92 -96 -98 0
-150 -92 -97 -98 0
-150 -93 -94 -95 0
-150 -93 -94 -96 0
-150 -93 -94 -97 0
-150 -93 -94 -98 0
-150 -93 -95 -96 0
-150 -93 -95 -97 0
-150 -93 -95 -98 0
-150 -93 -96 -97 0
-150 -93 -96 -98 0
-150 -93 -97 -98 0
-150 -94 -95 -96 0
-150 -94 -95 -97 0
-150 -94 -95 -98 0
-150 -94 -96 -97 0
-150 -94 -96 -98 0
-150 -94 -97 -98 0
-150 -95 -96 -97 0
-150 -95 -96 -98 0
-150 -95 -97 -98 0
-150 -96 -97 -98 0
-151 -99 -100 -101 0
-151 -99 -100 -102 0
-151 -99 -100 -103 0
-151 -99 -100 -104 0
-151 -99 -100 -105 0
-151 -99 -101 -102 0
-151 -99 -101 -103 0
-151 -99 -101 -104 0
-151 -99 -101 -105 0
-151 -99 -102 -103 0
-151 -99 -102 -104 0
-151 -99 -102 -105 0
-151 -99 -103 -104 0
-151 -99 -103 -105 0
-151 -99 -104 -105 0
-151 -100 -101 -102 0
-151 -100 -101 -103 0
-151 -100 -101 -104 0
-151 -100 -101 -105 0
-151 -100 -102 -103 0
-151 -100 -102 -104 0
-151 -100 -102 -105 0
-151 -100 -103 -104 0
-151 -100 -103 -105 0
-151 -100 -104 -105 0
-151 -101 -102 -103 0
-151 -101 -102 -104 0
-151 -101 -102 -105 0
-151 -101 -103 -104 0
-151 -101 -103 -105 0
-151 -101 -104 -105 0
-151 -102 -103 -104 0
-151 -102 -103 -105 0
-151 -102 -104 -105 0
-151 -103 -104 -105 0
-153 -106 -107 -108 0
-153 -106 -107 -109 0
-153 -106 -107 -110 0
-153 -106 -107 -111 0
-153 -106 -107 -112 0
-153 -106 -108 -109 0
-153 -106 -108 -110 0
-153 -106 -108 -111 0
-153 -106 -108 -112 0
-153 -106 -109 -110 0
-153 -106 -109 -111 0
-153 -106 -109 -112 0
-153 -106 -110 -111 0
-153 -106 -110 -112 0
-153 -106 -111 -112 0
-153 -107 -108 -109 0
-153 -107 -108 -110 0
-153 -107 -108 -111 0
-153 -107 -108 -112 0
-153 -107 -109 -110 0
-153 -107 -109 -111 0
-153 -107 -109 -112 0
-153 -107 -110 -111 0
-153 -107 -110 -112 0
-153 -107 -111 -112 0
-153 -108 -109 -110 0
-153 -108 -109 -111 0
-153 -108 -109 -112 0
-153 -108 -110 -111 0
-153 -108 -110 -112 0
-153 -108 -111 -112 0
-153 -109 -110 -111 0
-153 -109 -110 -112 0
-153 -109 -111 -112 0
-153 -110 -111 -112 0
-154 -113 -114 -115 0
-154 -113 -114 -116 0
-154 -113 -114 -117 0
-154 -113 -114 -118 0
-154 -113 -114 -119 0
-154 -113 -115 -116 0
-154 -113 -115 -117 0
-154 -113 -115 -118 0
-154 -113 -115 -119 0
-154 -113 -116 -117 0
-154 -113 -116 -118 0
-154 -113 -116 -119 0
-154 -113 -117 -118 0
-154 -113 -117 -119 0
-154 -113 -118 -119 0
-154 -114 -115 -116 0
-154 -114 -115 -117 0
-154 -114 -115 -118 0
-154 -114 -115 -119 0
-154 -114 -116 -117 0
-154 -114 -116 -118 0
-154 -114 -116 -119 0
-154 -114 -117 -118 0
-154 -114 -117 -119 0
-154 -114 -118 -119 0
-154 -115 -116 -117 0
-154 -115 -116 -118 0
-154 -115 -116 -119 0
-154 -115 -117 -118 0
-154 -115 -117 -119 0
-154 -115 -118 -119 0
-154 -116 -117 -118 0
-154 -116 -117 -119 0
-154 -116 -118 -119 0
-154 -117 -118 -119 0
-155 -120 -121 -122 0
-155 -120 -121 -123 0
-155 -120 -121 -124 0
-155 -120 -121 -125 0
-155 -120 -121 -126 0
-155 -120 -122 -123 0
-155 -120 -122 -124 0
-155 -120 -122 -125 0
-155 -120 -122 -126 0
-155 -120 -123 -124 0
-155 -120 -123 -125 0
-155 -120 -123 -126 0
-155 -120 -124 -125 0
-155 -120 -124 -126 0
-155 -120 -125 -126 0
-155 -121 -122 -123 0
-155 -121 -122 -124 0
-155 -121 -122 -125 0
-155 -121 -122 -126 0
-155 -121 -123 -124 0
-155 -121 -123 -125 0
-155 -121 -123 -126 0
-155 -121 -124 -125 0
-155 -121 -124 -126 0
-155 -121 -125 -126 0
-155 -122 -123 -124 0
-155 -122 -123 -125 0
-155 -122 -123 -126 0
-155 -122 -124 -125 0
-155 -122 -124 -126 0
-155 -122 -125 -126 0
-155 -123 -124 -125 0
-155 -123 -124 -126 0
-155 -123 -125 -126 0
-155 -124 -125 -126 0
-157 -127 -128 -129 0
-157 -127 -128 -130 0
-157 -127 -128 -131 0
-157 -127 -128 -132 0
-157 -127 -128 -133 0
-157 -127 -129 -130 0
-157 -127 -129 -131 0
-157 -127 -129 -132 0
-157 -127 -129 -133 0
-157 -127 -130 -131 0
-157 -127 -130 -132 0
-157 -127 -130 -133 0
-157 -127 -131 -132 0
-157 -127 -131 -133 0
-157 -127 -132 -133 0
-157 -128 -129 -130 0
-157 -128 -129 -131 0
-157 -128 -129 -132 0
-157 -128 -129 -133 0
-157 -128 -130 -131 0
-157 -128 -130 -132 0
-157 -128 -130 -133 0
-157 -128 -131 -132 0
-157 -128 -131 -133 0
-157 -128 -132 -133 0
-157 -129 -130 -131 0
-157 -129 -130 -132 0
-157 -129 -130 -133 0
-157 -129 -131 -132 0
-157 -129 -131 -133 0
-157 -129 -132 -133 0
-157 -130 -131 -132 0
-157 -130 -131 -133 0
-157 -130 -132 -133 0
-157 -131 -132 -133 0
-158 -134 -135 -136 0
-158 -134 -135 -137 0
-158 -134 -135 -138 0
-158 -134 -135 -139 0
-158 -134 -135 -140 0
-158 -134 -136 -137 0
-158 -134 -136 -138 0
-158 -134 -136 -139 0
-158 -134 -136 -140 0
-158 -134 -137 -138 0
-158 -134 -137 -139 0
-158 -134 -137 -140 0
-158 -134 -138 -139 0
-158 -134 -138 -140 0
-158 -134 -139 -140 0
-158 -135 -136 -137 0
-158 -135 -136 -138 0
-158 -135 -136 -139 0
-158 -135 -136 -140 0
-158 -135 -137 -138 0
-158 -135 -137 -139 0
-158 -135 -137 -140 0
-158 -135 -138 -139 0
-158 -135 -138 -140 0
-158 -135 -139 -140 0
-158 -136 -137 -138 0
-158 -136 -137 -139 0
-158 -136 -137 -140 0
-158 -136 -138 -139 0
-158 -136 -138 -140 0
-158 -136 -139 -140 0
-158 -137 -138 -139 0
-158 -137 -138 -140 0
-158 -137 -139 -140 0
-158 -138 -139 -140 0
-160 -141 -142 -143 0
-160 -141 -142 -144 0
-160 -141 -142 -145 0
-160 -141 -142 -146 0
-160 -141 -142 -147 0
-160 -141 -143 -144 0
-160 -141 -143 -145 0
-160 -141 -143 -146 0
-160 -141 -143 -147 0
-160 -141 -144 -145 0
-160 -141 -144 -146 0
-160 -141 -144 -147 0
-160 -141 -145 -146 0
-160 -141 -145 -147 0
-160 -141 -146 -147 0
-160 -142 -143 -144 0
-160 -142 -143 -145 0
-160 -142 -143 -146 0
-160 -142 -143 -147 0
-160 -142 -144 -145 0
-160 -142 -144 -146 0
-160 -142 -144 -147 0
-160 -142 -145 -146 0
-160 -142 -145 -147 0
-160 -142 -146 -147 0
-160 -143 -144 -145 0
-160 -143 -144 -146 0
-160 -143 -144 -147 0
-160 -143 -145 -146 0
-160 -143 -145 -147 0
-160 -143 -146 -147 0
-160 -144 -145 -146 0
-160 -144 -145 -147 0
-160 -144 -146 -147 0
-160 -145 -146 -147 0
-148 -151 -155 -163 -164 -165 0
-148 -152 -156 -163 -164 -166 0
-151 -152 -162 -163 -165 -166 0
-155 -156 -162 -164 -165 -166 0
148 0
149 0
150 0
153 0
154 0
157 0
31 0
-43 0
44 0
45 0
46 0
47 0
-50 0
-51 0
65 0
-64 0
