p cnf 616 4778
-157 -156 165 0
-160 -156 168 0
-156 -161 169 0
156 -169 -161 0
-156 -163 171 0
-156 -172 164 0
-175 -157 160 0
-160 -175 157 0
-157 -176 161 0
-157 -161 176 0
-176 -161 157 0
-177 -157 162 0
-157 -162 177 0
-163 -178 157 0
-179 157 -164 0
-160 -158 181 0
-160 -181 158 0
-182 -161 158 0
-162 -158 183 0
-159 -161 187 0
-160 -191 161 0
-160 -161 191 0
-191 -161 160 0
-160 -163 193 0
-160 194 -164 0
-194 160 -164 0
-195 -161 162 0
-162 -161 195 0
-196 -161 163 0
-163 -161 196 0
-197 -161 164 0
-161 197 -164 0
-197 161 -164 0
-175 -165 168 0
-168 -165 175 0
-168 -175 165 0
-176 -165 169 0
-169 -165 176 0
-169 -176 165 0
-170 -165 177 0
-168 -166 181 0
-168 -181 166 0
-166 -182 169 0
-169 -166 182 0
-169 -182 166 0
-187 -167 169 0
-169 -167 187 0
-191 -168 169 0
-169 -168 191 0
-169 -191 168 0
-168 -193 171 0
-168 172 -194 0
-168 -172 194 0
-194 -172 168 0
-195 170 -169 0
-169 -196 171 0
-169 -172 197 0
-197 -172 169 0
-174 -180 173 0
-175 -173 181 0
-176 -173 182 0
-176 -182 173 0
-184 -173 178 0
-191 -175 176 0
-175 -176 191 0
-191 -176 175 0
-175 -193 178 0
-195 -176 177 0
-177 -176 195 0
-176 -196 178 0
-177 -178 198 0
-187 -180 182 0
-187 -182 180 0
-191 -181 182 0
-191 -182 181 0
-181 -194 185 0
-185 -194 181 0
-196 -182 184 0
-184 -196 182 0
-197 -182 185 0
-183 -184 198 0
-191 -196 193 0
-191 -193 196 0
-191 -197 194 0
-205 -213 201 0
-201 -214 206 0
-206 -214 201 0
-207 -201 215 0
-215 -207 201 0
-201 -217 209 0
-201 -209 217 0
-222 -202 207 0
-207 -202 222 0
-207 -222 202 0
202 -223 -208 0
-206 -203 227 0
-207 -203 228 0
-207 -228 203 0
-230 -203 209 0
-205 -236 206 0
-205 -206 236 0
-206 -236 205 0
-240 -206 207 0
-207 -206 240 0
-240 -207 206 0
-241 -208 206 0
-206 -242 209 0
-207 -243 208 0
-244 -209 207 0
-214 -211 227 0
-228 -211 215 0
-215 -211 228 0
-215 -228 211 0
-216 -211 229 0
-211 -230 217 0
-211 -217 230 0
-230 -217 211 0
-240 -214 215 0
-215 -240 214 0
-214 -241 216 0
-214 -217 242 0
-215 -243 216 0
-215 -216 243 0
-215 -244 217 0
-225 -218 219 0
-226 -218 220 0
-220 -226 218 0
-227 -218 221 0
-221 -218 227 0
-228 -218 222 0
-222 -218 228 0
-222 -228 218 0
-223 -218 229 0
-230 224 -218 0
-236 -220 221 0
-236 -221 220 0
-240 222 -221 0
-222 -221 240 0
-240 -222 221 0
-241 223 -221 0
-223 -221 241 0
-241 -223 221 0
-242 224 -221 0
-224 -221 242 0
-244 -224 222 0
-236 -226 227 0
-226 -227 236 0
-236 -227 226 0
-226 -229 238 0
-229 -238 226 0
-240 -227 228 0
-228 -227 240 0
-240 -228 227 0
-241 -227 229 0
-229 -227 241 0
-229 -241 227 0
-242 -227 230 0
-230 -242 227 0
-229 -243 228 0
-228 -244 230 0
-230 -244 228 0
-236 -241 238 0
-236 -242 239 0
-240 -243 241 0
-240 -241 243 0
-240 -244 242 0
-242 -244 240 0
-255 -247 246 0
248 -246 -256 0
-259 -251 246 0
-252 -246 260 0
-252 -260 246 0
-265 -247 250 0
-250 -247 265 0
-250 -265 247 0
-266 -247 251 0
-251 -247 266 0
-247 -267 252 0
-252 -247 267 0
-252 -267 247 0
-269 -247 254 0
-271 -248 250 0
-271 248 -250 0
-272 -248 251 0
248 -251 -272 0
-281 -250 251 0
-250 -251 281 0
-281 -251 250 0
-252 -251 285 0
-285 -252 251 0
-251 -287 254 0
-288 -252 253 0
263 -255 -256 0
-258 -255 265 0
-255 -266 259 0
-255 -259 266 0
-266 -259 255 0
-255 260 -267 0
-255 -260 267 0
-268 -255 261 0
-261 -255 268 0
-269 -255 262 0
-271 256 -258 0
-272 -256 259 0
256 -259 -272 0
-274 -256 261 0
256 -274 -261 0
-275 -256 262 0
-257 -259 277 0
-281 -258 259 0
-258 -259 281 0
-281 -259 258 0
-283 -261 258 0
284 -258 -262 0
-284 -262 258 0
-286 -259 261 0
-259 -262 287 0
-287 -262 259 0
-274 -263 268 0
-275 -263 269 0
-281 -265 266 0
-265 -266 281 0
-281 -266 265 0
-284 -265 269 0
-269 284 -265 0
-266 -285 267 0
-285 -267 266 0
-286 -266 268 0
-266 -287 269 0
-269 -266 287 0
-269 -267 289 0
-277 -272 270 0
-281 -271 272 0
-271 -272 281 0
-281 -272 271 0
-271 -283 274 0
-271 -274 283 0
-271 -284 275 0
-271 284 -275 0
-284 -275 271 0
273 -285 -272 0
-272 -273 285 0
-285 272 -273 0
-286 -272 274 0
-274 -272 286 0
-286 -274 272 0
-287 275 -272 0
-272 -275 287 0
-287 272 -275 0
-274 -273 288 0
-275 -273 289 0
-289 273 -275 0
-281 -286 283 0
-281 -283 286 0
-281 284 -287 0
-281 -284 287 0
-286 -285 288 0
-288 -286 285 0
-336 -337 345 0
-345 -337 336 0
-336 -346 338 0
-336 -347 339 0
-336 -339 347 0
-339 -347 336 0
-336 -348 340 0
-340 -336 348 0
-336 -341 349 0
-341 -349 336 0
-336 -350 342 0
-336 -342 350 0
-350 -342 336 0
-336 -343 351 0
-343 -351 336 0
-336 -344 352 0
-344 -352 336 0
-337 -353 338 0
-338 -337 353 0
-338 -353 337 0
-337 -354 339 0
-339 -337 354 0
-339 -354 337 0
-337 340 -355 0
-340 -337 355 0
-340 -355 337 0
-337 -356 341 0
-341 -337 356 0
-341 -356 337 0
-357 -337 342 0
-337 -342 357 0
-357 -342 337 0
-343 -337 358 0
-344 -337 359 0
-338 -360 339 0
-338 -339 360 0
-339 -360 338 0
-338 -340 361 0
-362 -341 338 0
-338 -363 342 0
-363 -342 338 0
-338 -343 364 0
-339 -367 341 0
-341 -339 367 0
-339 368 -342 0
-339 -370 344 0
-344 -339 370 0
-344 -370 339 0
-340 -371 341 0
-340 -341 371 0
-341 340 -371 0
-340 -344 374 0
-344 -374 340 0
-341 -375 342 0
-341 -342 375 0
-342 -375 341 0
-341 -376 343 0
-341 -343 376 0
-343 -376 341 0
-341 -377 344 0
-344 -377 341 0
-343 -342 378 0
-378 -343 342 0
-342 -379 344 0
-344 -342 379 0
-345 -354 347 0
-345 -347 354 0
-347 -354 345 0
-345 -355 348 0
-348 -355 345 0
-345 -356 349 0
-357 -345 350 0
-345 -350 357 0
-357 -350 345 0
-352 -345 359 0
-361 -348 346 0
-362 -349 346 0
-350 -363 346 0
-349 -367 347 0
-350 -368 347 0
-352 -370 347 0
-348 -371 349 0
-348 -349 371 0
-349 -371 348 0
-349 350 -375 0
-350 -375 349 0
-349 -377 352 0
-352 -377 349 0
-351 -350 378 0
-360 -353 354 0
-353 -356 362 0
-367 -356 354 0
-354 -370 359 0
-359 -354 370 0
-359 -370 354 0
-355 -371 356 0
-356 -371 355 0
-374 -355 359 0
-375 -356 357 0
-357 -356 375 0
-377 -356 359 0
-359 -356 377 0
-359 -377 356 0
-360 -370 365 0
-361 -371 362 0
-363 -375 362 0
-362 -377 365 0
-378 -363 364 0
368 -367 -375 0
-377 -367 370 0
-370 -367 377 0
-377 367 -370 0
-373 -371 376 0
-373 -376 371 0
374 -377 -371 0
-374 -371 377 0
-374 -377 371 0
-378 -375 376 0
-379 -375 377 0
-377 -375 379 0
-379 -377 375 0
-390 -382 381 0
-381 -385 393 0
-393 -385 381 0
-394 -386 381 0
-387 -395 381 0
-388 -396 381 0
-382 -399 384 0
-382 -384 399 0
-382 -385 400 0
-400 -385 382 0
-386 -401 382 0
-382 -402 387 0
-387 -382 402 0
-387 -402 382 0
-383 -405 384 0
-383 -385 406 0
-385 -406 383 0
-383 -407 386 0
-383 -386 407 0
-386 -407 383 0
-383 -408 387 0
-387 -408 383 0
-383 -409 388 0
-383 -388 409 0
-383 -410 389 0
-384 -411 385 0
-385 -384 411 0
-385 -411 384 0
-384 -412 386 0
-386 -384 412 0
-413 -384 387 0
-387 -413 384 0
-389 -384 415 0
-387 417 -385 0
-385 -418 388 0
-388 -385 418 0
-389 -385 419 0
-386 -420 387 0
-387 -386 420 0
-387 -420 386 0
-421 -386 388 0
-388 -386 421 0
-389 -386 422 0
-389 -422 386 0
-387 -423 388 0
-387 -388 423 0
-387 -424 389 0
-387 -389 424 0
-390 -399 392 0
-390 -392 399 0
-390 -400 393 0
-393 -390 400 0
-390 -394 401 0
-394 -401 390 0
-390 -402 395 0
-390 -395 402 0
-402 -395 390 0
-390 -396 403 0
-390 -397 404 0
-405 -392 391 0
-393 -406 391 0
-394 -407 391 0
-395 -408 391 0
-411 -392 393 0
-393 -411 392 0
-394 -412 392 0
-392 -395 413 0
-393 417 -395 0
-394 -420 395 0
-394 -395 420 0
-395 -420 394 0
-394 -421 396 0
-394 -396 421 0
-394 -422 397 0
-394 -397 422 0
-395 -396 423 0
-397 -395 424 0
-399 -411 400 0
-400 -411 399 0
-401 -420 402 0
-421 -401 403 0
-405 -406 411 0
-410 -407 422 0
-421 -420 423 0
-427 -426 435 0
-436 -426 428 0
-428 -436 426 0
-437 -426 429 0
-429 -426 437 0
-437 -429 426 0
-426 -438 430 0
-426 -430 438 0
-438 -430 426 0
-426 -440 432 0
-432 -426 440 0
-432 -440 426 0
-426 -441 433 0
-426 -433 441 0
-426 -442 434 0
-442 -434 426 0
-428 -427 443 0
-444 -427 429 0
-429 -427 444 0
-444 -429 427 0
-447 -427 432 0
-432 -447 427 0
-428 -450 429 0
-428 -429 450 0
-429 -450 428 0
-428 -430 451 0
-428 -431 452 0
-453 -432 428 0
-428 -433 454 0
-429 456 -430 0
-458 -429 432 0
-458 -432 429 0
-429 -434 460 0
-432 -462 430 0
-432 -468 433 0
-432 -433 468 0
-432 -469 434 0
-432 -434 469 0
-437 -435 444 0
-435 -438 445 0
-446 -435 439 0
-447 -435 440 0
-435 -440 447 0
-447 -440 435 0
-435 -442 449 0
-442 -449 435 0
-437 -450 436 0
-436 -451 438 0
-438 -451 436 0
-439 -436 452 0
-453 -440 436 0
-437 -457 439 0
-439 -457 437 0
-458 -440 437 0
-437 -442 460 0
-442 -460 437 0
-438 462 -440 0
-468 -440 441 0
-441 -440 468 0
-442 -440 469 0
-442 440 -469 0
-443 -450 444 0
-444 -443 450 0
-444 -450 443 0
-447 -443 453 0
-453 -447 443 0
-444 -456 445 0
-444 -457 446 0
-444 -447 458 0
-458 -447 444 0
-445 -447 462 0
-447 -468 448 0
-447 -448 468 0
-447 -449 469 0
-456 -450 451 0
-450 456 -451 0
-453 -450 458 0
-450 -455 460 0
-453 -469 455 0
-458 -462 456 0
-458 -460 469 0
-483 -475 471 0
472 -475 -490 0
491 -476 -472 0
474 -495 -473 0
495 -474 -473 0
473 -474 -495 0
475 -496 -473 0
496 -475 -473 0
476 -497 -473 0
-476 497 -473 0
-476 473 -497 0
477 -473 -498 0
-477 498 -473 0
478 -499 -473 0
-478 499 -473 0
-473 -500 479 0
501 -474 -475 0
-502 -476 474 0
505 -482 -487 0
-507 483 -485 0
501 -489 -490 0
501 -496 -495 0
502 -497 -495 0
-503 498 -495 0
503 -495 -498 0
-507 498 -496 0
-510 497 -498 0
-546 -534 535 0
-540 -550 545 0
-546 -550 554 0
-570 562 -561 0
-562 570 -561 0
-570 -562 561 0
-571 563 -561 0
-563 571 -561 0
-571 -563 561 0
572 -564 -561 0
-572 -564 561 0
-565 573 -561 0
-575 -567 561 0
-568 576 -561 0
-562 -578 563 0
-562 -563 578 0
-578 -563 562 0
-579 -562 564 0
-562 579 -564 0
-579 -564 562 0
-580 -562 565 0
-582 -562 567 0
-582 -567 562 0
-585 -563 564 0
-585 -564 563 0
-586 -565 563 0
-563 -566 587 0
-563 -567 588 0
-591 -564 565 0
-592 566 -564 0
592 -566 -564 0
-593 567 -564 0
593 -567 -564 0
-579 -570 572 0
-579 -572 570 0
-580 -570 573 0
-570 -582 575 0
-575 -570 582 0
-575 -582 570 0
-571 -585 572 0
-572 -571 585 0
-575 -588 571 0
-571 -589 576 0
-591 -572 573 0
-573 -591 572 0
-592 -572 574 0
-593 -572 575 0
-575 -574 600 0
-575 -600 574 0
-576 -603 575 0
-585 -578 579 0
-579 -578 585 0
-579 -585 578 0
-581 -578 587 0
-588 -578 582 0
-582 -578 588 0
-588 -582 578 0
583 -578 -589 0
-579 -591 580 0
-579 -580 591 0
-592 -579 581 0
-579 -581 592 0
-579 -593 582 0
-579 -582 593 0
-593 -582 579 0
-579 -594 583 0
-579 -583 594 0
-579 584 -595 0
-579 -584 595 0
-597 -582 580 0
-581 -582 600 0
-582 -600 581 0
-583 -603 582 0
-604 -582 584 0
-604 -584 582 0
-591 -585 586 0
-586 -585 591 0
-587 -585 592 0
-593 -585 588 0
-588 -585 593 0
-594 -585 589 0
-585 590 -595 0
-590 -595 585 0
-588 -597 586 0
-588 -587 600 0
-588 -600 587 0
-588 589 -603 0
-588 -589 603 0
-588 -604 590 0
-588 -590 604 0
-590 -604 588 0
-593 -591 597 0
-593 -597 591 0
-593 592 -600 0
-592 -595 602 0
-593 -603 594 0
-593 -604 595 0
156 -12 -11 0
157 -13 -11 0
158 -14 -11 0
-15 159 -11 0
-16 160 -11 0
-17 161 -11 0
-19 163 -11 0
164 -11 -20 0
-12 -13 165 0
-12 -15 167 0
-12 -16 168 0
-12 -17 169 0
172 -12 -20 0
-14 -13 173 0
-13 -15 174 0
-13 -16 175 0
-13 -17 176 0
179 -13 -20 0
-16 -17 191 0
-19 -16 193 0
194 -16 -20 0
-19 -17 196 0
-17 197 -20 0
202 -21 -23 0
-21 203 -24 0
-21 -26 205 0
-21 -27 206 0
-21 -28 207 0
-21 -29 208 0
-21 -30 209 0
-22 211 -24 0
-22 -26 213 0
-22 -27 214 0
-22 -28 215 0
-22 -30 217 0
-23 -24 218 0
-23 -26 220 0
-23 -27 221 0
-23 -28 222 0
223 -29 -23 0
224 -30 -23 0
226 -26 -24 0
227 -27 -24 0
-28 -24 228 0
-29 -24 229 0
230 -30 -24 0
-27 -26 236 0
-29 -26 238 0
239 -30 -26 0
-28 -27 240 0
-27 -29 241 0
-30 -27 242 0
-29 -28 243 0
-30 -28 244 0
39 31 40 34 36 32 35 0
-32 -31 246 0
-31 -33 247 0
248 -34 -31 0
-31 -35 249 0
-31 -36 250 0
251 -31 -37 0
-31 -38 252 0
-31 -39 253 0
-40 -31 254 0
256 -32 -34 0
-32 259 -37 0
-32 260 -38 0
-32 -39 261 0
263 -34 -33 0
-36 -33 265 0
-37 -33 266 0
-38 -33 267 0
-33 -39 268 0
270 -35 -34 0
271 -36 -34 0
272 -34 -37 0
273 -34 -38 0
-34 -39 274 0
275 -40 -34 0
-37 -36 281 0
-36 -39 283 0
-38 -37 285 0
-37 -39 286 0
-37 -40 287 0
-38 -39 288 0
-51 -52 336 0
-51 -53 337 0
-51 -54 338 0
-51 -55 339 0
-51 340 -56 0
-51 -57 341 0
-51 -58 342 0
-59 -51 343 0
-51 -60 344 0
-53 -52 345 0
-52 -54 346 0
-52 -55 347 0
-52 348 -56 0
-52 -57 349 0
-52 -58 350 0
-52 -59 351 0
-54 -53 353 0
-55 -53 354 0
-53 -56 355 0
-53 -57 356 0
-53 -58 357 0
-53 -59 358 0
-54 -55 360 0
361 -56 -54 0
362 -57 -54 0
-54 -58 363 0
-59 -54 364 0
-54 -60 365 0
367 -55 -57 0
368 -58 -55 0
369 -59 -55 0
-56 -57 371 0
-56 -59 373 0
374 -60 -56 0
-58 -57 375 0
-57 -59 376 0
-60 -57 377 0
-58 -59 378 0
-60 -58 379 0
68 63 66 65 69 62 70 0
68 66 67 62 70 63 69 0
66 67 62 64 70 65 69 0
68 66 62 67 64 70 69 0
-62 -61 381 0
-61 -63 382 0
-61 -64 383 0
-61 -65 384 0
-66 -61 385 0
-61 -67 386 0
-61 -68 387 0
-69 -61 388 0
-61 -70 389 0
-62 -63 390 0
-62 -64 391 0
-65 -62 392 0
-62 -66 393 0
-62 -67 394 0
-62 -68 395 0
-62 -69 396 0
-70 -62 397 0
-64 -63 398 0
-65 -63 399 0
-66 -63 400 0
-67 -63 401 0
-68 402 -63 0
-69 -63 403 0
-70 -63 404 0
-64 -65 405 0
-66 -64 406 0
-64 -67 407 0
-64 -68 408 0
-69 -64 409 0
-67 412 -65 0
414 -65 -69 0
-70 -65 415 0
417 -66 -68 0
-67 -68 420 0
-69 -67 421 0
-67 -70 422 0
-68 -70 424 0
77 76 75 74 73 80 79 0
-72 -71 426 0
-73 -71 427 0
-74 -71 428 0
-75 -71 429 0
-71 -76 430 0
-78 -71 432 0
-79 -71 433 0
-80 -71 434 0
-72 -73 435 0
-72 -74 436 0
-72 -75 437 0
-72 -76 438 0
-72 -77 439 0
-78 -72 440 0
-72 -79 441 0
-80 -72 442 0
-74 -73 443 0
-75 -73 444 0
-76 -73 445 0
-73 -77 446 0
-73 -79 448 0
-80 -73 449 0
-74 -75 450 0
-74 -76 451 0
452 -74 -77 0
-78 -74 453 0
-74 -79 454 0
-80 -74 455 0
-76 -75 456 0
457 -75 -77 0
-78 -75 458 0
459 -75 -79 0
-80 -75 460 0
468 -79 -78 0
469 -78 -80 0
474 -85 -81 0
475 -81 -86 0
477 -81 -88 0
505 -85 -90 0
101 104 109 107 102 106 110 0
104 106 107 102 109 103 110 0
108 106 109 107 110 102 103 0
106 104 107 109 102 110 108 0
104 108 106 109 110 103 107 0
561 -101 -102 0
562 -103 -101 0
-104 563 -101 0
-105 564 -101 0
-106 565 -101 0
-107 566 -101 0
-108 567 -101 0
-103 570 -102 0
-104 571 -102 0
-105 572 -102 0
-106 573 -102 0
-107 574 -102 0
-108 575 -102 0
-109 576 -102 0
578 -103 -104 0
-103 -105 579 0
-103 -106 580 0
-107 -103 581 0
-108 -103 582 0
583 -109 -103 0
584 -110 -103 0
-104 -105 585 0
-104 -106 586 0
-107 -104 587 0
-104 -108 588 0
-104 -109 589 0
590 -110 -104 0
-105 591 -106 0
592 -105 -107 0
593 -108 -105 0
-109 -105 594 0
595 -105 -110 0
-108 597 -106 0
-108 -107 600 0
-108 -109 603 0
-110 -108 604 0
-21 -22 111 -11 -12 0
-23 -12 255 -13 -22 0
-22 -26 390 -16 -12 0
-22 -17 435 -27 -12 0
-29 -19 525 -22 -12 0
-22 570 -20 -30 -12 0
-13 -36 -32 -16 391 0
-32 -13 -37 -17 436 0
-19 -39 526 -13 -32 0
-40 -13 -20 -32 571 0
-23 -33 165 -32 -22 0
-23 -33 443 -37 -27 0
-29 -33 533 -39 -23 0
-51 -15 114 -11 -52 0
-55 -54 -35 -34 315 0
-62 -16 213 -12 -63 0
-16 -67 439 -17 -62 0
-70 -62 -16 -20 574 0
-64 -63 -26 -23 265 0
-64 -63 -36 -33 220 0
-65 -36 -34 -64 316 0
-36 -67 452 -37 -64 0
-72 -71 -11 -17 116 0
304 -17 -75 -72 -14 0
-72 -77 -17 -16 394 0
-72 -79 -19 -17 530 0
-72 -17 575 -80 -20 0
-74 -71 -37 -31 131 0
-37 -74 221 -73 -33 0
-36 -37 -77 -74 407 0
-78 -74 -38 498 -37 0
-57 -51 -71 -76 142 0
507 -58 -78 -76 -57 0
-28 -24 -83 -85 312 0
217 -103 -102 -20 -12 0
-13 -104 -102 -20 262 0
127 -30 -103 -101 -21 0
-22 -30 -103 -102 172 0
-30 -23 -103 -104 269 0
-30 -27 -108 -103 449 0
494 -30 -109 -28 -103 0
134 -31 -104 -101 -40 0
-40 -103 -104 -33 224 0
-40 -107 -104 -36 410 0
-40 -37 -108 -104 455 0
-71 -108 152 -80 -101 0
-108 197 -102 -72 -80 0
-108 242 -80 -73 -103 0
-122 -167 0
-169 -124 0
-127 -172 0
-129 -174 0
-131 -176 0
-135 -180 0
-137 -182 0
-134 -224 0
-135 -225 0
-242 -152 0
-135 -270 0
-152 -287 0
-111 -345 0
-120 -353 0
-121 -354 0
-111 -390 0
-114 -393 0
-122 -400 0
-129 -406 0
-135 -411 0
-422 -152 0
-114 -438 0
-120 -443 0
-121 -444 0
-445 -122 0
-129 -451 0
-456 -135 0
-116 -485 0
-122 -490 0
-128 -495 0
-129 -496 0
-501 -135 0
-535 -122 0
-546 -135 0
-111 -570 0
-573 -114 0
-576 -117 0
-120 -578 0
-121 -579 0
-580 -122 0
-582 -124 0
-128 -585 0
-129 -586 0
-588 -131 0
-135 -591 0
-593 -137 0
-157 -202 0
-203 -158 0
-204 -159 0
-160 -205 0
-206 -161 0
-207 -162 0
-163 -208 0
-209 -164 0
-173 -218 0
-220 -175 0
-176 -221 0
-222 -177 0
-178 -223 0
-179 -224 0
-226 -181 0
-182 -227 0
-229 -184 0
-230 -185 0
-191 -236 0
-193 -238 0
-194 -239 0
-240 -195 0
-196 -241 0
-197 -242 0
-158 -248 0
-159 -249 0
-160 -250 0
-161 -251 0
-162 -252 0
-163 -253 0
-254 -164 0
-271 -181 0
-182 -272 0
-183 -273 0
-184 -274 0
-185 -275 0
-187 -277 0
-281 -191 0
-193 -283 0
-194 -284 0
-195 -285 0
-196 -286 0
-197 -287 0
-198 -288 0
-160 -295 0
-340 -160 0
-341 -161 0
-162 -342 0
-163 -343 0
-344 -164 0
-165 -353 0
-166 -354 0
-173 -360 0
-191 -371 0
-193 -373 0
-194 -374 0
-195 -375 0
-196 -376 0
-197 -377 0
-161 -386 0
-387 -162 0
-163 -388 0
-389 -164 0
-398 -165 0
-400 -167 0
-173 -405 0
-174 -406 0
-180 -411 0
-195 -420 0
-196 -421 0
-197 -422 0
-424 -199 0
-432 -162 0
-163 -433 0
-434 -164 0
-443 -165 0
-445 -167 0
-446 -168 0
-450 -173 0
-175 -452 0
-456 -180 0
-181 -457 0
-198 -468 0
-478 -163 0
-479 -164 0
-166 -489 0
-168 -491 0
-169 -492 0
-173 -495 0
-174 -496 0
-175 -497 0
-176 -498 0
-503 -182 0
-195 -558 0
-578 -165 0
-579 -166 0
-580 -167 0
-581 -168 0
-169 -582 0
-583 -170 0
-171 -584 0
-585 -173 0
-587 -175 0
-588 -176 0
-177 -589 0
-590 -178 0
-591 -180 0
-593 -182 0
-594 -183 0
-184 -595 0
-597 -187 0
-191 -600 0
-193 -602 0
-195 -603 0
-604 -196 0
-201 -246 0
-203 -248 0
-205 -250 0
-206 -251 0
-207 -252 0
-253 -208 0
-254 -209 0
-211 -256 0
-213 -258 0
-214 -259 0
-215 -260 0
-216 -261 0
-217 -262 0
-271 -226 0
-272 -227 0
-228 -273 0
-229 -274 0
-230 -275 0
-281 -236 0
-238 -283 0
-239 -284 0
-240 -285 0
-241 -286 0
-242 -287 0
-288 -243 0
-289 -244 0
-214 -304 0
-201 -336 0
-340 -205 0
-206 -341 0
-207 -342 0
-343 -208 0
-344 -209 0
-213 -348 0
-214 -349 0
-215 -350 0
-216 -351 0
-217 -352 0
-360 -218 0
-236 -371 0
-238 -373 0
-239 -374 0
-240 -375 0
-241 -376 0
-242 -377 0
-378 -243 0
-244 -379 0
-206 -386 0
-207 -387 0
-388 -208 0
-389 -209 0
-214 -394 0
-215 -395 0
-216 -396 0
-217 -397 0
-405 -218 0
-219 -406 0
-240 -420 0
-241 -421 0
-242 -422 0
-243 -423 0
-424 -244 0
-426 -201 0
-432 -207 0
-208 -433 0
-209 -434 0
-215 -440 0
-441 -216 0
-217 -442 0
-450 -218 0
-226 -457 0
-243 -468 0
-244 -469 0
-201 -471 0
-478 -208 0
-479 -209 0
-216 -486 0
-217 -487 0
-218 -495 0
-219 -496 0
-220 -497 0
-221 -498 0
-501 -225 0
-503 -227 0
-540 -218 0
-222 -544 0
-201 -561 0
-585 -218 0
-587 -220 0
-588 -221 0
-222 -589 0
-590 -223 0
-591 -225 0
-592 -226 0
-593 -227 0
-594 -228 0
-229 -595 0
-597 -232 0
-236 -600 0
-238 -602 0
-240 -603 0
-604 -241 0
-250 -295 0
-268 -313 0
-336 -246 0
-337 -247 0
-340 -250 0
-341 -251 0
-252 -342 0
-253 -343 0
-254 -344 0
-345 -255 0
-258 -348 0
-349 -259 0
-350 -260 0
-351 -261 0
-352 -262 0
-265 -355 0
-266 -356 0
-357 -267 0
-358 -268 0
-269 -359 0
-281 -371 0
-283 -373 0
-284 -374 0
-285 -375 0
-286 -376 0
-287 -377 0
-378 -288 0
-289 -379 0
-382 -247 0
-386 -251 0
-387 -252 0
-388 -253 0
-389 -254 0
-390 -255 0
-394 -259 0
-395 -260 0
-261 -396 0
-397 -262 0
-401 -266 0
-402 -267 0
-268 -403 0
-411 -270 0
-285 -420 0
-421 -286 0
-422 -287 0
-288 -423 0
-426 -246 0
-427 -247 0
-432 -252 0
-253 -433 0
-254 -434 0
-435 -255 0
-440 -260 0
-441 -261 0
-442 -262 0
-447 -267 0
-448 -268 0
-269 -449 0
-456 -270 0
-271 -457 0
-288 -468 0
-246 -471 0
-261 -486 0
-268 -493 0
-501 -270 0
-502 -271 0
-503 -272 0
-510 -281 0
-525 -255 0
-546 -270 0
-246 -561 0
-562 -247 0
-570 -255 0
-591 -270 0
-592 -271 0
-593 -272 0
-594 -273 0
-274 -595 0
-597 -277 0
-281 -600 0
-285 -603 0
-604 -286 0
-358 -313 0
-361 -316 0
-394 -304 0
-403 -313 0
-447 -312 0
-448 -313 0
-313 -493 0
-336 -381 0
-382 -337 0
-338 -383 0
-339 -384 0
-341 -386 0
-387 -342 0
-388 -343 0
-389 -344 0
-390 -345 0
-391 -346 0
-347 -392 0
-394 -349 0
-350 -395 0
-397 -352 0
-398 -353 0
-399 -354 0
-401 -356 0
-357 -402 0
-358 -403 0
-404 -359 0
-360 -405 0
-362 -407 0
-363 -408 0
-410 -365 0
-412 -367 0
-413 -368 0
-369 -414 0
-415 -370 0
-420 -375 0
-422 -377 0
-424 -379 0
-426 -336 0
-427 -337 0
-428 -338 0
-429 -339 0
-432 -342 0
-343 -433 0
-344 -434 0
-435 -345 0
-436 -346 0
-437 -347 0
-440 -350 0
-441 -351 0
-442 -352 0
-443 -353 0
-444 -354 0
-447 -357 0
-358 -448 0
-359 -449 0
-450 -360 0
-453 -363 0
-455 -365 0
-458 -368 0
-369 -459 0
-460 -370 0
-378 -468 0
-379 -469 0
-336 -471 0
-337 -472 0
-338 -473 0
-339 -474 0
-347 -482 0
-354 -489 0
-358 -493 0
-360 -495 0
-370 -505 0
-510 -371 0
-345 -525 0
-346 -526 0
-550 -370 0
-555 -371 0
-336 -561 0
-562 -337 0
-338 -563 0
-339 -564 0
-570 -345 0
-571 -346 0
-572 -347 0
-578 -353 0
-579 -354 0
-585 -360 0
-600 -371 0
-603 -375 0
-604 -376 0
-426 -381 0
-427 -382 0
-428 -383 0
-429 -384 0
-385 -430 0
-432 -387 0
-388 -433 0
-389 -434 0
-435 -390 0
-437 -392 0
-393 -438 0
-440 -395 0
-441 -396 0
-397 -442 0
-443 -398 0
-444 -399 0
-447 -402 0
-448 -403 0
-450 -405 0
-406 -451 0
-453 -408 0
-455 -410 0
-456 -411 0
-458 -413 0
-459 -414 0
-415 -460 0
-417 -462 0
-468 -423 0
-424 -469 0
-381 -471 0
-382 -472 0
-383 -473 0
-384 -474 0
-385 -475 0
-479 -389 0
-392 -482 0
-393 -483 0
-396 -486 0
-399 -489 0
-400 -490 0
-403 -493 0
-405 -495 0
-406 -496 0
-415 -505 0
-534 -399 0
-550 -415 0
-554 -419 0
-381 -561 0
-562 -382 0
-383 -563 0
-384 -564 0
-565 -385 0
-570 -390 0
-391 -571 0
-572 -392 0
-573 -393 0
-398 -578 0
-579 -399 0
-580 -400 0
-585 -405 0
-586 -406 0
-591 -411 0
-603 -420 0
-604 -421 0
-426 -471 0
-427 -472 0
-428 -473 0
-430 -475 0
-431 -476 0
-437 -482 0
-438 -483 0
-439 -484 0
-441 -486 0
-444 -489 0
-450 -495 0
-451 -496 0
-497 -452 0
-533 -443 0
-546 -456 0
-550 -460 0
-426 -561 0
-427 -562 0
-428 -563 0
-429 -564 0
-565 -430 0
-566 -431 0
-435 -570 0
-436 -571 0
-437 -572 0
-573 -438 0
-439 -574 0
-443 -578 0
-444 -579 0
-445 -580 0
-446 -581 0
-450 -585 0
-586 -451 0
-456 -591 0
-592 -457 0
-530 -485 0
-540 -495 0
-550 -505 0
-471 -561 0
-562 -472 0
-563 -473 0
-564 -474 0
-565 -475 0
-566 -476 0
-567 -477 0
-572 -482 0
-573 -483 0
-574 -484 0
-575 -485 0
-579 -489 0
-580 -490 0
-582 -492 0
-585 -495 0
-586 -496 0
-587 -497 0
-588 -498 0
-503 -593 0
-507 -597 0
-570 -525 0
-575 -530 0
-533 -578 0
-534 -579 0
-537 -582 0
-540 -585 0
-546 -591 0
-606 0
-13 -63 -104 -105 -12 -65 0
-13 -104 -85 -105 -12 -83 0
-12 -13 -106 -83 -86 -104 0
-107 -23 -108 -27 -16 -13 0
-13 -108 -104 -12 -83 -88 0
-23 -28 -108 -109 -13 -17 0
-29 -17 -24 -108 -110 -14 0
-26 -29 -110 -16 -108 -17 0
-36 -16 -39 -17 -110 -108 0
-24 -34 -110 -108 -27 -39 0
-26 -39 -108 -110 -36 -27 0
-19 -27 -104 -110 -17 -23 0
-17 -24 -105 -108 -16 -26 0
-16 -24 -105 -26 -19 -110 0
-104 -105 -77 -75 -16 -13 0
-34 -36 -110 -105 -19 -16 0
-19 -37 -110 -105 -17 -34 0
-29 -37 -110 -105 -34 -27 0
-29 -34 -110 -28 -38 -105 0
-28 -57 -108 -110 -58 -29 0
-27 -108 -103 -53 -51 -21 0
-29 -51 -103 -53 -110 -21 0
-37 -36 -16 -63 -12 -67 0
-36 -16 -39 -69 -12 -63 0
-22 -33 -108 -103 -32 -27 0
-12 -67 -57 -63 -56 -16 0
-12 -60 -70 -56 -16 -63 0
-67 -34 -57 -65 -36 -56 0
-62 -72 -33 -37 -67 -73 0
-60 -70 -103 -62 -53 -102 0
-72 -53 -102 -60 -80 -103 0
-22 -14 -32 -17 -34 -27 0
-22 -19 -17 -29 -37 -32 0
-22 -29 -16 -56 -52 -19 0
-29 -17 -57 -52 -19 -22 0
-29 -19 -67 -17 -62 -22 0
-19 -32 -67 -62 -17 -39 0
-29 -33 -53 -26 -56 -39 0
-33 -39 -57 -27 -29 -53 0
-67 -63 -38 -28 -33 -27 0
-104 -108 -102 -16 -13 -27 -26 0
-12 -16 -105 -85 -107 -83 -20 0
-108 -105 -83 -85 -17 -12 -20 0
-13 -12 -11 0
-14 -13 -11 0
-21 -23 -24 0
-22 -23 -24 0
-32 -34 -31 0
-33 -32 -34 0
-2 -1 0
-3 -1 0
-4 -1 0
-3 -2 0
-2 -4 0
-3 -4 0
-56 -55 -57 0
-55 -58 -57 0
-66 -67 -65 0
-67 -65 -68 0
-67 -66 -68 0
-85 -86 0
-87 -85 0
-85 -88 0
-88 -86 0
-87 -88 0
-17 -30 -68 -67 -20 -28 0
-29 -28 -17 -67 -19 -68 0
-28 -17 -57 -58 -29 -19 0
-16 -57 -37 -39 -56 -19 0
-30 -16 -20 -27 -56 -57 0
-36 -27 -20 -16 -37 -30 0
-29 -19 -37 -36 -27 -16 0
-103 -65 -102 -63 -52 -55 0
-73 -65 -101 -103 -61 -75 0
-72 -55 -102 -101 -51 -75 0
-65 -55 -101 -102 -51 -62 0
-58 -67 -38 -69 -57 -39 0
-29 -69 -57 -58 -67 -28 0
-60 -56 -20 -17 -37 -36 0
-19 -34 -39 -17 -24 -27 0
1 2 3 4 0
49 0
-29 -24 -43 534 0
-65 -43 -63 -105 -110 0
-29 -27 -43 -53 -57 0
-29 -28 -43 -53 -58 0
-29 -27 -43 -63 -67 0
-29 -28 -43 -63 -68 0
-29 -28 -43 -73 -78 0
87 83 85 86 88 0
34 31 35 36 39 40 255 0
50 0
-60 53 54 58 336 374 377 0
40 35 36 38 39 0
-78 -58 -59 -80 0
-209 -208 0
-110 -105 550 0
-30 -29 0
-27 -30 -67 -69 0
-30 -27 -57 -59 0
-224 -223 0
-172 -171 0
-59 -16 -20 -56 0
-17 -20 -57 -59 0
-59 -60 0
-30 -28 -58 -59 0
-358 -359 0
-344 -343 0
-39 -40 0
-275 -274 0
-284 -283 0
-268 -269 0
-253 -254 0
-103 -43 -72 -80 -102 0
579 -24 -30 -43 0
-422 -421 0
-389 -388 0
-103 -43 -105 230 0
-216 -217 0
-243 -244 0
-230 -229 0
-370 -369 0
-376 -377 0
-196 -197 0
-193 -194 0
-164 -163 0
66 61 63 64 65 67 0
66 61 63 64 67 68 0
165 11 14 15 19 20 195 0
-43 313 0
-494 -313 0
-359 -313 0
-313 -269 0
-449 -313 0
-103 -24 -30 -105 313 0
-404 -313 0
-398 -390 0
-578 -570 0
60 51 52 54 59 0
32 33 34 35 37 38 0
-600 -597 0
70 61 62 63 69 0
63 62 65 68 69 386 389 422 0
53 52 54 59 60 0
-191 -187 0
-353 -345 0
-281 -277 0
272 -34 35 38 -281 0
31 32 34 35 37 38 0
38 32 35 37 250 -313 0
72 73 74 79 80 0
33 32 35 36 251 252 285 0
390 61 64 69 70 0
58 54 55 59 60 345 371 0
74 71 72 73 0
56 55 57 58 0
-69 35 36 38 -67 0
68 62 63 67 69 410 411 0
74 71 73 79 80 0
64 62 63 66 67 68 0
19 11 12 16 20 180 195 0
400 -63 -313 381 398 399 420 0
-266 35 36 38 -313 0
69 62 63 65 68 406 422 0
63 62 64 65 67 68 0
79 73 75 76 77 80 428 0
287 34 35 36 247 260 286 0
58 51 53 54 55 56 0
78 72 73 76 79 80 457 0
80 71 72 74 79 0
67 62 64 68 -313 411 0
57 54 56 58 336 354 0
68 61 62 67 398 411 0
36 35 38 -57 -59 0
32 34 35 38 39 247 287 0
-73 -53 -54 -72 0
281 35 38 39 40 0
268 34 35 38 -39 246 286 0
-497 35 38 39 -64 -67 -70 0
64 -37 -40 61 63 -67 0
261 35 38 253 268 281 284 287 0
-382 62 63 64 -313 0
-30 -28 71 72 74 -78 0
-75 -12 -13 -73 -85 0
383 62 63 69 70 0
406 62 63 69 70 387 405 0
413 61 62 66 67 398 0
386 62 64 68 69 70 411 0
423 62 64 66 67 70 399 0
52 53 54 56 57 58 0
37 35 38 -56 -59 0
-364 61 62 63 83 471 0
232 21 22 26 28 218 0
289 31 34 35 39 255 281 0
273 35 -40 252 255 284 287 0
66 61 -63 392 398 402 421 422 0
62 65 66 69 70 398 420 0
56 52 55 58 59 60 353 0
364 52 53 60 338 343 0
420 63 66 69 70 381 405 0
406 63 69 70 381 387 391 405 0
384 63 69 70 381 386 387 391 0
56 51 55 58 59 60 0
59 51 54 60 345 0
469 72 73 75 76 452 468 0
390 61 64 67 68 411 0
70 61 69 390 391 398 0
352 54 -60 342 354 374 377 0
336 54 55 56 58 59 60 0
393 64 69 70 381 382 399 420 0
343 -51 337 342 344 346 347 360 371 0
359 -60 340 346 347 360 377 379 0
353 55 58 59 60 336 371 0
71 72 74 -313 0
-313 61 62 405 406 420 0
58 52 56 353 354 360 371 376 377 0
74 73 433 434 437 439 440 0
-427 72 73 74 -313 0
450 72 73 433 434 451 452 0
387 62 67 -68 69 70 399 406 0
411 62 63 67 68 383 0
60 51 52 59 353 0
66 62 64 65 387 398 421 422 0
-353 54 59 60 -471 0
59 52 60 340 353 354 360 375 0
354 58 59 60 336 338 346 371 0
271 33 35 37 38 246 0
33 31 32 35 38 -67 -69 0
253 35 38 40 250 259 266 283 0
258 38 39 40 247 271 277 0
373 58 -59 347 354 360 376 0
53 51 55 58 -59 346 0
344 52 54 58 59 354 371 0
342 52 53 56 57 360 0
375 54 55 56 59 60 336 0
590 105 106 107 108 109 570 0
79 73 74 80 426 0
108 101 106 107 109 110 0
65 62 63 66 67 387 0
-163 -31 35 62 63 64 252 281 0
63 62 67 387 405 406 411 0
80 72 73 75 79 430 452 0
72 73 79 80 428 0
-281 -34 35 38 -135 0
-62 61 63 65 391 393 420 0
362 -54 55 56 -375 0
73 79 80 426 428 436 0
442 73 74 79 426 434 0
-69 -68 71 73 74 -78 0
70 64 65 67 68 69 390 0
-81 -55 -61 -63 -85 0
57 58 59 60 340 354 360 0
57 54 56 58 59 60 336 0
437 74 -75 -313 -426 0
70 63 69 381 383 391 0
352 -60 339 342 359 365 371 0
350 59 60 337 338 339 341 345 346 353 0
80 71 73 436 441 454 0
35 34 38 246 265 266 281 0
424 -70 389 393 399 410 422 0
78 74 75 76 77 0
89 81 83 90 0
-19 14 15 16 -22 -29 178 195 525 0
-166 -12 15 181 182 183 0
75 72 74 76 77 -313 0
267 31 34 -38 -255 0
57 52 54 55 58 -313 0
74 72 73 79 -101 -108 152 0
-52 342 345 346 347 349 351 352 0
-343 -11 15 -16 17 72 73 74 162 0
-362 -34 -37 -74 -75 0
-34 37 -56 -59 270 273 0
-34 270 273 274 281 284 287 0
272 -34 35 38 250 258 -313 0
-56 340 346 355 373 374 0
-375 -58 341 346 356 376 377 0
388 -66 389 393 400 406 0
-67 -57 -63 -70 338 349 0
-340 33 -36 38 271 -336 0
-72 -43 73 -102 -103 426 436 441 0
62 64 66 -313 384 420 0
-56 340 348 355 373 374 0
103 102 106 108 109 110 587 0
-161 15 16 -17 162 163 164 0
253 -31 35 37 38 254 0
409 61 62 63 405 422 424 0
-27 201 221 227 240 241 242 0
38 31 35 39 40 258 266 0
-74 428 451 452 453 454 455 0
56 53 57 58 59 342 352 360 0
-313 61 62 64 0
-78 -28 -29 -43 72 432 469 0
61 67 68 390 391 398 411 0
458 71 72 74 76 446 0
255 31 34 35 38 -57 -59 0
286 35 38 250 255 271 277 287 0
255 31 34 -36 38 -56 -59 0
268 31 32 34 38 40 0
258 31 -36 -255 271 0
259 31 33 36 38 270 0
338 -51 58 60 336 337 339 0
375 51 52 55 60 353 0
379 51 52 53 56 59 377 0
358 51 52 56 57 58 359 0
-338 -51 52 54 58 354 364 365 371 0
-68 -58 -70 342 345 363 0
-251 31 34 -37 246 247 0
-78 432 435 441 442 448 449 453 0
-40 -36 52 -56 57 58 338 354 360 0
-55 60 339 345 360 369 0
65 62 63 67 387 406 0
379 51 53 55 56 59 346 0
375 51 55 56 345 346 353 0
352 51 53 54 59 0
168 11 14 15 -16 -165 0
72 -313 433 434 443 445 446 450 452 453 458 0
-40 -38 71 72 74 -78 0
-60 55 374 377 379 0
252 34 35 36 -38 255 286 287 0
35 34 36 -38 246 247 255 286 287 0
-474 54 -55 354 -471 0
437 73 -75 433 434 451 452 453 454 455 0
449 72 -73 427 443 448 0
364 -54 -73 -74 338 365 0
63 64 66 381 384 392 420 0
449 -72 73 426 -435 448 0
439 -72 426 435 436 437 438 0
447 -58 -59 -78 432 436 0
-75 71 73 437 450 0
-400 63 64 -66 381 403 404 0
-52 54 336 345 351 352 0
407 -64 66 68 405 0
385 63 64 65 67 68 0
252 32 34 36 -38 -247 0
-486 -382 -388 0
-48 0
-71 73 75 430 431 432 0
34 31 35 36 39 255 284 287 0
31 34 35 37 38 255 0
-421 -39 253 261 268 288 0
31 32 33 34 0
265 31 32 34 -36 0
364 -59 343 351 354 375 0
-253 52 53 58 72 73 74 342 360 371 0
286 31 34 35 36 40 255 0
286 31 35 36 40 255 273 277 0
225 26 -28 -78 -79 207 215 240 0
378 53 54 55 60 336 0
110 104 105 106 107 109 570 0
107 102 103 105 106 109 604 0
68 62 65 66 -313 386 0
62 64 66 -313 384 387 0
62 64 67 -313 384 387 0
-30 -28 61 -68 395 398 0
-420 62 63 383 391 411 421 422 0
-70 389 390 391 398 411 422 424 0
107 105 106 108 571 576 578 584 0
-80 434 442 449 455 0
-78 -68 -69 71 74 440 0
63 -62 64 67 68 69 389 411 0
-34 270 271 273 286 287 0
-51 56 57 59 342 344 345 353 360 0
447 -28 -30 -78 432 440 0
347 54 58 59 60 345 354 371 0
342 55 59 60 341 345 346 353 0
400 61 64 68 69 70 399 0
370 -60 344 352 353 377 379 0
604 101 105 106 107 109 0
-52 59 341 347 348 350 352 0
37 35 38 250 261 262 -313 0
342 -58 59 60 350 357 0
-74 -62 -66 83 -313 428 450 452 0
-31 35 250 252 286 287 0
80 79 426 427 428 435 436 443 0
76 73 74 78 426 457 0
64 62 -313 382 384 386 387 0
71 73 74 437 438 440 0
-342 51 -58 336 337 338 0
-240 15 16 20 -243 0
35 34 37 38 39 254 262 0
-61 68 381 382 383 384 386 0
62 61 64 68 399 400 0
-73 427 435 448 449 450 451 452 0
-78 -28 -30 72 73 432 0
-72 436 437 438 439 440 0
54 58 59 336 337 345 365 374 377 0
363 51 55 56 -313 349 -375 0
56 51 55 -313 346 375 0
-27 206 215 220 227 232 241 242 0
-51 336 337 338 339 340 341 0
-27 206 214 227 240 241 242 0
57 52 54 56 -58 59 344 354 0
79 73 74 76 80 432 457 0
427 -71 72 74 77 78 456 0
404 -63 385 390 398 399 402 403 0
-459 -489 -493 0
-459 -495 -499 0
-369 -495 -499 0
401 -63 -313 387 390 398 400 0
64 61 -62 63 68 411 421 422 0
-62 64 381 390 395 411 421 422 0
110 104 106 107 108 109 570 0
101 104 106 109 110 570 600 0
110 -104 105 106 109 -471 562 570 600 0
107 103 104 105 106 110 603 0
107 101 103 109 110 571 597 0
51 53 60 346 351 353 358 364 0
-73 -27 -29 72 -103 -108 242 427 443 537 0
-582 -103 107 108 109 593 597 604 0
-52 336 347 349 350 351 352 0
-27 -12 -17 23 24 28 206 435 0
-108 -16 -17 -34 35 38 -105 0
107 104 105 106 570 603 604 0
286 35 36 38 40 0
-61 68 384 385 386 0
51 60 345 346 351 353 358 364 0
-60 344 352 359 360 374 375 0
64 62 -313 384 385 420 0
72 73 -104 -108 287 428 433 434 449 454 0
-31 34 35 246 247 250 285 0
-61 384 386 387 393 400 406 0
-40 -38 52 53 54 -58 0
267 32 34 -38 252 0
410 62 -70 381 389 390 391 404 0
77 72 75 76 78 0
-52 59 336 345 346 347 374 375 0
-78 71 72 80 451 452 458 468 0
-51 52 55 -313 338 341 342 0
-53 -313 337 345 353 0
90 56 57 58 -59 81 83 354 0
-72 -43 -102 -103 426 435 436 441 0
-80 -58 -78 342 350 353 0
-57 -37 -40 341 349 356 0
-398 61 63 -64 -313 391 0
65 62 64 67 68 -313 386 0
61 62 -313 391 400 405 407 408 420 0
106 101 109 110 570 587 588 600 0
-104 105 109 563 586 587 604 0
-68 62 387 398 423 424 0
79 72 73 427 428 434 449 455 0
357 51 52 56 57 353 360 0
355 51 52 54 356 357 0
356 -27 -30 51 52 -57 0
377 51 55 56 58 59 0
-81 -55 -63 -64 -65 0
400 -63 67 68 -103 -105 0
260 34 35 39 40 252 281 0
-60 344 352 354 359 360 374 379 0
-38 -31 -33 62 64 411 421 422 0
-428 -426 -472 0
-60 58 370 374 377 0
-40 31 36 262 269 270 273 0
-24 -103 -105 225 226 227 229 313 0
30 26 28 29 232 0
-70 389 391 404 411 422 424 0
68 63 64 65 66 381 0
-67 64 381 401 421 422 0
396 -43 -62 -102 -103 381 391 0
424 62 63 69 383 411 422 0
413 62 63 64 66 67 0
403 63 -64 382 -398 404 0
415 62 63 64 387 388 422 0
409 61 62 398 403 404 410 0
384 62 64 -65 399 0
-411 -61 62 64 382 384 420 0
70 62 64 65 68 69 400 0
70 62 64 69 382 0
348 -52 336 345 346 347 350 0
58 55 59 60 371 -471 0
-52 -16 -17 -22 -27 55 58 349 0
-228 -34 -240 270 271 0
68 62 64 67 388 389 399 0
-52 340 349 350 351 352 354 360 0
357 52 56 57 59 60 360 0
250 32 33 34 35 285 0
-214 -52 55 56 -240 0
346 53 55 56 57 59 60 0
-30 -27 61 63 64 -67 0
-62 386 387 390 391 392 393 420 0
-62 381 390 392 394 395 406 0
-63 66 69 387 390 399 401 404 0
-11 -19 83 90 -102 -110 -471 0
-63 65 66 382 390 398 420 0
446 -73 75 78 443 445 0
409 61 63 391 396 411 422 424 0
453 73 -74 75 76 452 0
457 71 73 76 78 450 452 0
448 71 72 74 80 0
106 107 109 -471 562 570 585 604 0
-78 -58 -59 73 432 436 0
-52 56 58 59 345 346 347 377 0
-104 563 585 586 587 589 604 0
364 56 57 58 336 337 345 353 365 0
70 67 68 69 381 398 411 0
67 61 65 66 69 70 0
-51 336 337 340 341 342 364 365 0
-39 34 253 261 268 0
109 102 103 105 106 110 600 0
-105 562 563 591 592 593 594 595 0
-26 -12 -16 21 23 28 226 390 0
469 71 -80 442 449 451 457 0
-62 68 381 392 393 398 421 422 0
-69 388 396 398 399 405 421 423 0
33 31 34 35 38 258 0
80 71 75 76 79 436 446 0
-37 31 34 38 -255 259 0
-103 105 580 581 582 583 584 0
-67 -27 -30 61 62 398 0
-298 0
-64 383 391 398 409 410 0
-72 -62 -67 191 437 438 440 0
-215 61 -62 63 64 65 -240 0
-486 -268 473 0
52 51 57 58 -313 360 0
-351 61 -62 63 83 471 0
43 83 473 0
67 61 62 -63 68 411 471 0
-487 -89 0
-442 -90 0
-397 -90 0
-352 -90 0
-262 -90 0
-441 -89 0
-396 -89 0
-351 -89 0
-261 -89 0
-54 -51 -55 62 66 -313 391 420 0
-63 61 66 -313 391 399 420 0
58 52 56 57 347 354 364 365 0
60 53 56 57 58 59 346 0
-262 53 56 57 58 81 83 342 354 360 0
36 32 35 38 251 -313 0
36 35 38 251 261 262 277 -313 0
-441 -32 81 83 257 258 285 0
22 23 24 26 28 232 0
-62 381 390 391 392 393 420 0
30 26 29 207 215 222 232 0
353 55 58 59 336 371 374 377 0
411 386 387 389 390 391 396 398 403 409 422 424 0
-101 105 108 110 565 568 574 578 0
33 32 34 35 36 252 0
-59 336 358 364 373 376 378 0
352 53 54 -60 -336 0
-65 61 -313 392 405 0
-59 343 351 358 364 0
-76 -52 -57 187 430 445 451 0
255 31 34 38 -67 -69 0
-65 64 384 392 414 415 0
56 -51 53 55 59 342 346 352 365 0
-269 -90 471 0
-78 73 74 426 468 469 0
-31 34 246 247 249 250 286 287 0
260 34 -38 252 -255 0
-57 51 -345 356 362 0
354 51 54 -55 -345 0
65 62 66 70 383 391 420 421 423 0
-350 31 34 -38 -345 0
-495 -55 -345 -471 -473 0
399 -63 66 67 68 0
175 11 14 -16 -165 0
358 51 52 54 359 0
-43 51 52 56 58 353 360 0
-62 386 387 390 391 392 396 397 0
-342 -51 336 337 338 378 379 0
-59 -57 64 -67 381 401 0
-267 31 32 33 36 -38 268 269 270 0
-59 32 34 35 -37 -57 247 281 0
582 -103 -108 0
-395 31 34 -38 -390 0
409 62 63 66 67 68 389 0
407 61 62 66 68 -313 0
391 61 63 65 66 68 0
391 61 65 66 68 -313 0
65 61 64 67 68 -313 0
358 52 54 56 57 58 359 0
-55 51 59 346 354 370 0
-370 -60 339 347 354 360 0
-40 -36 55 57 58 338 345 0
-354 51 53 -55 346 358 359 0
-55 339 347 358 359 360 0
-73 72 -313 427 445 446 450 0
74 72 -313 427 433 434 0
340 -51 336 339 341 343 353 379 0
102 104 106 107 109 562 604 0
86 85 87 88 0
241 -26 27 28 -236 242 0
36 35 37 -58 -59 0
-19 -17 -37 -39 0
252 34 -38 -247 260 0
-342 23 26 27 -28 225 -336 0
54 55 336 337 345 371 374 375 0
57 51 54 56 58 -313 0
35 -16 -17 -20 38 39 0
-35 -16 -17 -20 0
-78 -28 -29 -43 80 432 436 0
38 -16 -17 -20 35 -108 -110 286 0
51 56 57 58 -313 346 0
62 382 383 387 398 402 409 410 411 421 422 0
-37 -23 -27 34 35 250 259 285 443 0
433 72 73 434 450 452 462 0
258 -32 35 259 260 0
421 -63 65 66 68 -403 0
409 62 63 65 67 68 70 0
386 62 63 64 387 411 0
422 61 62 65 -67 68 69 406 0
385 62 64 65 67 68 0
382 62 64 65 66 68 0
400 62 65 67 387 398 406 0
358 -59 343 346 347 360 378 0
359 52 54 55 58 59 345 371 0
358 52 56 57 58 359 360 0
338 52 59 60 340 353 354 375 0
403 64 66 67 68 384 404 0
-68 61 395 398 423 424 0
-68 62 -64 383 398 423 424 0
58 -16 -20 51 57 354 360 0
-259 -52 55 56 -285 0
-396 -32 33 -34 35 36 38 81 83 0
61 -313 391 392 393 405 406 420 0
-259 -37 38 258 261 262 277 0
286 32 33 34 35 36 40 0
337 54 55 56 58 336 345 0
351 53 54 55 56 58 60 0
-70 61 -83 -90 0
491 -83 86 88 489 0
421 61 63 64 65 66 422 0
454 -74 428 436 443 455 0
421 61 64 65 66 68 422 0
421 61 64 66 68 399 422 0
400 61 65 67 68 406 0
439 -72 76 78 437 0
469 72 73 76 432 434 436 441 454 457 0
110 101 105 106 107 109 0
-63 -83 -103 -104 382 472 0
37 35 38 39 284 0
-78 73 74 432 440 0
72 73 74 -313 433 434 0
-343 -11 15 -31 35 38 161 162 250 0
-585 104 -105 106 107 109 579 588 590 0
-63 -33 -36 220 382 390 403 404 0
-344 -11 15 -16 -31 35 38 162 191 0
-40 -37 51 54 -57 345 0
-53 55 57 355 357 0
571 101 103 106 109 600 602 604 0
61 390 391 396 399 401 403 406 409 411 422 424 0
61 -36 -37 62 -313 408 411 452 471 0
-62 -16 -17 392 393 395 439 0
-390 -62 63 -313 381 0
-63 -28 -29 -43 399 400 401 0
61 51 -52 -62 63 64 83 345 346 471 0
64 62 68 -313 386 411 0
-251 -51 55 58 -281 0
-22 -16 -17 -27 -52 55 -240 0
364 51 55 -56 -59 345 0
391 -28 -30 61 63 -68 0
-336 -313 -338 0
40 34 38 39 246 247 255 0
60 -28 -29 -43 51 59 346 354 371 0
-59 52 57 343 354 363 373 0
-57 59 341 346 354 371 375 377 0
-52 338 345 347 349 350 351 352 0
-68 64 71 72 74 -78 387 390 424 0
68 63 65 67 381 405 406 0
55 51 56 57 59 374 377 379 0
269 -33 35 38 268 281 0
-70 51 54 -57 -67 345 0
421 62 63 -104 -105 -106 387 422 0
362 -51 -52 53 54 -338 347 363 0
63 -61 381 386 388 389 405 408 0
-60 52 344 359 365 0
-61 381 382 383 389 411 421 423 0
-88 -73 -74 -78 -375 0
-56 -16 -20 52 -55 58 338 354 360 0
-51 336 341 342 343 344 353 354 360 0
-252 31 34 -38 246 247 0
-65 -313 384 392 405 0
379 51 59 350 352 353 354 360 371 0
365 51 53 59 346 352 0
-474 73 74 -75 -471 0
61 51 52 53 62 63 83 471 0
-447 -73 74 432 435 468 469 0
228 26 29 30 201 -218 232 0
-63 62 -313 381 387 398 400 401 0
-216 35 37 38 83 250 -313 473 0
-31 35 38 251 253 284 0
-348 31 33 35 38 255 270 -371 0
-68 -28 -30 63 387 391 0
-78 -28 -29 -43 426 453 468 469 0
63 62 69 70 384 385 389 420 0
266 32 -34 251 270 271 273 0
379 -28 -29 -43 -58 342 363 0
-351 35 37 38 83 250 -313 473 0
-20 -16 -17 52 -55 58 338 354 360 0
-62 -313 381 391 394 395 411 0
-355 34 -36 38 250 -345 0
-592 11 13 15 -16 -579 0
-90 34 35 39 -40 252 255 281 471 0
106 104 105 107 109 561 604 0
-285 35 37 -38 39 281 287 0
-60 352 359 365 374 377 379 0
398 -17 -20 61 62 -67 0
338 53 55 57 58 336 346 0
388 62 67 68 389 398 411 0
-71 72 73 75 77 79 430 434 0
-495 -55 -353 -471 -473 0
-61 381 382 383 388 389 0
402 -63 399 400 -420 0
-80 51 54 -58 -78 345 0
354 52 56 57 342 360 0
571 101 103 106 107 110 603 0
339 -51 58 336 337 338 340 0
-169 -83 87 -182 471 490 0
271 31 32 33 -36 0
-267 -63 65 -285 400 0
-67 -17 -20 62 386 401 0
-59 -28 -30 343 351 373 376 0
-105 109 570 585 591 592 593 595 0
-42 0
-13 15 16 178 179 195 0
-78 -28 -30 72 73 74 0
-20 -17 51 55 56 -57 58 0
-39 35 38 283 286 0
-52 336 345 346 347 349 352 0
68 67 384 385 390 391 398 411 0
-40 -34 -103 -105 -313 0
61 62 -313 398 407 408 411 0
-102 -14 -20 -105 0
68 43 63 67 381 411 0
58 51 52 55 57 0
-345 43 -54 0
56 43 53 55 58 349 365 0
58 43 52 53 55 371 0
66 61 62 63 65 420 0
65 62 66 386 387 420 0
-64 -38 -39 43 -68 0
-54 43 -55 -105 -110 0
-74 43 -75 -105 -110 0
-40 -34 43 585 0
-54 -36 -39 43 -56 0
-57 -37 -39 43 -54 0
-360 -34 35 36 38 43 0
-39 -34 43 540 0
43 -104 -105 275 0
-70 43 -63 -103 -104 0
-90 -83 -103 -104 0
-70 43 -62 -102 -104 0
-80 43 -73 -103 -104 0
68 43 67 69 381 383 404 411 0
-423 -68 69 387 395 0
68 43 67 381 382 390 395 411 0
-398 -63 64 383 0
-405 -34 35 38 43 281 0
254 -40 43 262 269 585 0
-39 43 253 261 268 540 0
-72 43 -102 -104 426 435 441 0
-455 61 62 -70 0
-62 43 -102 -104 381 390 391 396 0
-360 -34 35 36 43 285 0
-20 -16 -17 43 51 58 270 345 0
281 -34 35 38 43 -173 0
281 -34 35 38 43 -495 0
-51 43 55 336 337 342 371 0
-64 -34 35 43 -65 285 316 0
-450 -34 35 38 43 281 0
271 -34 37 39 43 586 -591 0
-59 51 56 57 351 354 360 0
-89 -448 0
-359 -353 0
268 31 34 -39 261 0
349 -17 -20 -57 341 353 0
433 72 73 76 77 78 434 0
383 62 67 68 -313 398 411 0
43 -34 -40 83 -564 0
108 103 105 106 107 571 0
-64 62 383 400 405 409 410 420 0
51 43 57 -255 -258 350 353 354 0
-70 397 404 406 415 422 424 0
107 105 106 110 -471 603 0
-63 -27 -28 -29 -43 382 411 0
386 62 65 68 -313 406 411 0
-53 51 57 345 355 357 358 359 0
68 43 -53 -54 67 381 411 472 486 487 0
-30 -28 73 74 -78 426 0
-30 -28 51 53 -58 346 0
313 -23 -24 -33 -34 0
415 61 63 64 66 69 422 0
424 63 64 69 381 411 422 0
79 71 80 435 436 443 0
-247 52 54 55 -269 376 0
64 62 63 65 66 -313 386 0
69 62 63 67 383 389 410 0
-52 51 348 349 350 351 352 0
110 102 104 106 107 109 582 0
455 35 38 -104 -108 281 283 284 286 0
253 35 38 -64 -67 -70 261 286 -497 0
266 31 34 -37 259 0
73 -38 -40 74 76 77 426 432 0
338 -51 53 58 336 -360 377 0
-34 35 43 271 273 286 585 0
393 -62 -313 381 391 -411 420 0
-58 -62 -68 83 -313 342 0
-59 -58 63 -68 381 383 391 0
444 -73 426 443 445 446 468 469 0
-428 -426 493 494 0
-13 15 19 175 179 195 0
107 102 105 106 110 578 603 0
-27 21 26 -28 30 215 221 225 241 0
-30 -28 51 -58 345 346 353 0
258 31 34 -36 -255 0
-72 74 426 437 439 440 445 0
354 52 54 56 57 59 379 0
71 -62 64 -72 74 75 76 191 -313 381 411 0
374 35 37 38 52 -55 -56 354 360 0
370 51 52 54 58 59 371 0
80 72 74 76 77 79 429 0
-62 61 65 393 395 421 422 0
-252 35 -38 250 253 254 285 0
-351 31 34 -39 -345 0
-135 -34 38 39 40 0
68 -17 -20 61 64 65 -313 381 391 400 0
-66 61 393 400 406 0
61 62 63 69 410 0
43 52 55 56 58 356 0
405 62 66 67 -313 387 0
57 51 52 55 56 0
64 62 -313 382 388 389 0
53 55 56 59 60 346 375 0
-72 51 -53 59 -73 359 0
-30 -28 62 63 64 -68 0
-441 61 -62 63 83 471 0
-350 -52 342 345 346 378 379 0
-68 62 -313 387 408 0
77 71 72 75 76 0
344 51 -56 59 336 338 -340 0
376 51 54 56 58 345 377 0
359 51 -52 53 61 64 70 -345 346 381 0
56 51 52 55 58 0
-40 -34 -103 -105 585 0
-60 -53 -103 -104 0
-252 -51 52 55 56 -267 338 0
-68 -38 -40 63 381 383 391 0
-52 34 38 39 40 -53 -81 246 0
108 105 106 109 110 561 581 602 0
-7 0
54 -51 56 58 60 341 345 351 358 0
-67 -56 -57 -66 0
-64 -54 -56 -66 0
-4 -36 -37 -101 -105 -108 0
-106 -36 -37 -101 -108 0
-67 -1 -36 -37 -62 0
-67 -2 -36 -37 -63 0
-35 -36 0
-76 -77 0
-431 -430 0
-497 -496 0
-13 -15 -23 -26 0
-3 -23 -27 -106 -108 0
-62 -52 -56 -66 0
-315 -316 0
-4 -16 -19 -101 -105 -110 0
-108 -16 -17 -101 -106 0
-4 -14 -17 -107 -108 0
-3 -13 -17 -106 -108 0
-4 -14 -17 -106 -108 0
-108 -3 -15 -17 -101 -104 0
-108 -2 -16 -17 -101 -103 0
-15 -16 0
-1 -11 -16 381 0
-19 -2 -16 -101 -103 -110 0
-108 -3 -16 -17 -101 -104 0
-3 -16 -19 -101 -104 -110 0
-4 -16 -17 -101 -105 -108 0
-107 -12 -15 -103 0
-3 -13 -17 -107 -108 0
-63 -3 -12 -13 -66 0
-3 -12 -13 -103 -107 0
-12 -2 -17 -106 -108 0
-2 -12 -17 -107 -108 0
-107 -4 -24 -27 -108 0
-4 -36 -39 -101 -105 -110 0
-61 -66 340 0
-61 -2 -63 205 0
-107 -4 -34 -37 -108 0
-65 -4 -61 295 0
-64 -3 -61 250 0
-3 -31 -36 383 0
-21 -2 -26 382 0
-3 -51 -54 249 0
-76 -2 -75 -103 -105 0
-76 -2 -74 -103 -104 0
-76 -1 -75 -102 -105 0
-66 -1 -63 -102 -103 0
-65 -1 -66 -102 -105 0
-65 -3 -66 -104 -105 0
-53 -2 -35 -37 -57 0
-4 -24 -27 -106 -108 0
-1 -51 -52 159 0
-108 -4 -26 -27 -101 -105 0
-53 -2 -51 204 0
-66 -53 -56 -63 0
-70 -2 -56 -60 -63 0
-65 -2 -66 -103 -105 0
-65 -2 -66 -73 -75 0
-107 -106 0
-475 -476 0
-167 -168 0
-159 -160 0
-108 -15 -17 -107 0
73 -58 -59 71 74 75 0
78 -34 -35 72 73 74 0
266 38 39 40 246 270 271 0
-77 4 -73 -74 0
392 3 -62 135 381 391 395 421 422 0
255 34 38 39 246 247 287 0
39 -11 -16 34 38 40 255 0
78 72 73 433 434 450 0
-374 11 14 15 -16 -36 37 38 165 195 0
78 72 73 75 80 433 0
-581 3 4 -570 0
74 72 -313 429 432 0
69 -55 -56 -60 61 62 398 420 0
-57 -11 -16 34 38 -59 255 0
-31 251 252 253 254 0
-61 -4 67 68 295 340 0
269 31 34 37 38 39 0
65 -54 -56 61 62 67 -313 0
78 73 74 75 426 0
78 72 73 75 451 452 0
39 34 38 40 251 255 0
-56 31 34 -36 -59 255 0
80 -72 78 427 436 437 441 0
-19 -17 -26 -56 -59 0
254 33 35 -36 38 251 258 274 286 287 0
-59 -16 17 -56 0
39 38 40 251 -255 259 0
78 426 427 428 435 436 443 456 457 0
71 -73 -74 78 79 80 0
-69 -56 -59 63 381 383 391 414 420 0
-66 4 62 -63 -313 340 0
-59 -16 -56 -108 -110 0
-61 -3 250 340 381 387 399 421 422 0
-106 1 3 -103 -105 0
61 2 63 64 67 129 395 0
-59 23 24 -26 -56 201 0
-444 -86 -445 0
61 -34 -36 -54 -56 62 63 67 -313 0
64 62 -313 340 384 387 0
-56 -51 385 0
-63 -53 -56 399 401 402 0
255 31 38 270 271 273 286 287 0
76 72 74 -313 432 457 0
260 33 34 246 252 277 281 0
-476 2 4 -471 -473 0
33 34 37 38 246 0
39 -22 -23 -30 37 38 254 578 0
-66 -53 -63 354 356 357 0
-570 3 4 101 104 108 109 110 0
72 -1 83 -313 429 432 450 0
-63 3 4 61 -62 67 -313 399 0
73 74 426 432 440 456 457 0
-56 -16 51 54 191 345 374 0
39 31 38 40 255 272 0
-56 -16 53 191 340 346 374 0
-107 38 39 40 -108 0
-445 3 4 -435 0
266 -33 38 -313 0
-61 -4 295 340 386 387 0
64 -2 62 205 -313 388 389 0
-64 4 -63 -66 0
-62 2 3 43 381 390 394 395 0
-72 73 75 433 434 436 440 0
-68 -69 71 73 74 456 457 0
-71 426 427 428 430 432 457 0
-69 31 38 -67 -135 255 0
-374 -16 -26 27 191 0
-72 3 75 135 426 436 440 0
-74 426 443 450 453 454 455 0
-77 -34 40 -75 274 285 0
-266 34 37 38 246 286 287 0
578 3 104 107 108 109 110 561 562 0
437 -72 73 78 426 436 0
-72 3 4 427 429 436 440 441 442 0
71 -72 73 74 75 78 -313 0
-102 -103 -106 129 135 0
385 -51 339 341 342 0
78 -72 74 75 -313 426 0
74 72 75 -313 432 0
-64 -34 -36 -54 -56 407 408 0
39 -11 -16 -31 40 285 0
-63 -53 -56 64 382 390 401 402 0
-64 43 68 83 401 0
-73 -12 -15 432 435 444 0
-581 1 4 -578 0
255 -11 -16 -17 34 35 38 0
74 72 -313 432 456 457 0
-72 433 435 436 440 442 456 457 0
-72 -1 73 426 436 440 0
-56 -57 61 63 65 68 391 0
-61 62 63 340 383 386 387 0
64 62 -313 340 384 420 0
453 72 -313 428 429 432 450 0
78 -72 73 83 -262 429 471 0
-69 43 -68 72 73 75 428 0
-62 3 -313 381 391 392 394 395 0
68 -54 -56 62 63 67 340 405 407 0
266 -33 267 268 269 0
-71 75 79 80 426 427 432 0
385 -51 55 57 342 0
-135 -34 -57 -59 0
78 72 -313 428 456 457 0
69 -34 -36 -54 -56 62 63 67 -313 389 0
22 24 27 28 219 220 0
78 -2 -73 443 444 0
78 73 75 433 434 436 440 0
77 4 72 -73 75 79 80 432 0
339 43 -51 58 336 337 385 0
-72 -1 -313 429 432 436 458 0
-106 1 -12 -13 -103 -105 0
-129 3 112 120 128 0
-63 -28 -29 -43 62 -313 382 401 0
452 72 75 -313 432 451 0
453 72 -313 428 432 456 457 0
452 72 -313 432 443 450 451 456 457 0
453 72 -313 432 433 434 445 446 450 0
-66 -53 -54 -56 62 340 0
76 72 77 78 -313 428 0
79 71 72 73 460 469 0
600 104 105 -107 574 581 0
72 73 -339 -342 451 452 0
-1 -72 73 74 75 432 0
-570 3 4 101 -102 -103 105 109 604 0
78 71 72 75 0
-29 -28 -43 73 75 432 433 434 436 440 469 0
-72 426 435 436 440 456 457 0
-114 -73 75 -122 432 443 0
-114 1 4 111 112 124 0
78 -34 -35 71 -72 73 74 0
-102 4 -12 -13 -103 -106 0
-163 -31 72 74 251 252 262 -313 427 0
69 -56 -60 63 64 381 415 420 0
431 72 74 76 -313 432 0
78 -72 73 74 75 -313 -427 0
-72 78 83 -216 427 436 437 473 0
-271 -135 0
-114 -574 0
-497 -129 0
-497 83 484 0
-482 83 495 0
-281 -142 0
500 83 -487 0
485 83 -498 0
-64 -31 -36 -61 129 0
122 -2 0
83 -346 0
-67 -61 -71 -77 142 0
-592 -135 0
-439 -114 0
-446 -122 0
83 -391 0
-587 -129 0
-122 -581 0
-484 83 497 0
-112 83 0
-436 83 0
-526 83 0
-571 83 0
-496 83 483 0
482 83 -495 0
-483 83 496 0
499 83 -486 0
-114 -484 0
-135 -226 0
-129 -220 0
-236 -142 0
-457 -135 0
-142 -371 0
-129 -452 0
-491 -122 0
-502 -135 0
-191 -142 0
-135 -181 0
-175 -129 0
-168 -122 0
-142 -122 124 0
-124 122 -142 0
-142 -135 137 0
-122 121 -135 0
-129 112 -114 0
-114 111 -122 0
-66 83 400 -473 -496 0
-114 1 111 112 135 0
129 -3 0
-76 83 430 445 -496 0
-142 1 124 131 135 0
53 51 55 58 83 377 -471 0
-73 -78 -83 240 489 490 491 0
489 -12 -15 -17 -83 0
122 -11 -16 129 135 381 0
106 83 103 107 109 -471 604 0
-69 83 388 403 -486 0
-497 2 4 83 0
-439 4 129 -435 0
-393 3 4 -390 0
342 -51 56 57 83 -313 -471 0
-55 51 83 -313 -495 0
-67 -61 72 74 76 142 -313 430 458 0
-69 -34 -67 -135 0
-65 -55 83 384 -471 -473 -495 0
-75 83 444 -473 -495 0
492 -83 85 490 491 0
-65 83 399 -473 -495 0
-483 83 313 475 0
57 51 56 58 81 83 0
-65 -52 -55 83 -313 384 392 0
-586 1 135 -578 0
-73 -83 -404 427 443 472 0
-73 135 -313 427 435 450 0
135 1 101 -103 -104 105 109 604 0
-497 83 122 135 0
381 -11 -16 -31 -34 122 129 0
-217 53 54 55 56 83 375 471 0
-454 61 62 83 -313 398 471 0
-58 -38 -40 83 357 -471 0
-269 71 -73 74 -83 472 0
89 -83 472 487 0
203 -26 27 28 -29 216 223 0
236 -26 -56 -59 0
255 31 34 35 36 37 0
285 31 34 39 40 255 0
90 81 486 0
69 -54 -58 -60 62 -64 67 398 411 0
388 62 63 65 66 67 389 0
65 61 62 66 68 0
385 -61 384 386 387 0
-565 -51 -56 0
-12 -13 -83 86 87 -104 -105 -108 471 0
-107 -16 -104 -105 381 -578 0
-34 38 -103 104 -105 108 -135 274 563 0
-74 4 83 -103 -104 -313 432 443 450 0
1 4 101 -104 -105 108 109 110 561 -578 0
72 43 71 74 -103 -104 448 0
-107 1 -103 -105 129 0
35 34 36 38 246 269 286 0
-1 72 -73 75 -102 -103 432 0
-135 2 4 128 -482 0
61 62 65 -313 406 407 0
-73 -1 72 74 -102 -103 432 444 0
75 73 78 426 428 436 0
-73 426 428 436 444 445 446 448 449 0
110 106 107 109 -471 -485 588 0
-272 -105 106 109 -286 570 585 592 0
-52 -22 -29 51 -103 -110 -313 337 346 351 352 0
-483 2 4 83 0
110 103 105 106 107 571 603 0
68 61 65 -313 386 391 394 406 411 0
-72 -15 -17 73 349 432 436 441 442 457 0
-79 433 441 448 454 0
-33 -23 -28 -38 83 0
73 -28 -30 72 74 -313 440 454 456 457 469 0
61 65 83 -313 381 420 -496 0
72 -28 -30 74 -313 427 429 0
73 -34 -35 74 78 79 80 428 0
78 3 -72 135 -313 436 437 441 442 0
-46 0
-75 429 437 444 450 0
-59 55 351 358 364 376 0
-442 -62 81 381 390 391 0
-73 4 72 -74 75 432 0
-261 61 -62 63 83 471 0
-220 1 14 -16 135 160 0
-73 43 432 440 444 445 446 0
-73 -12 -15 427 435 444 445 0
102 101 104 106 107 109 563 604 0
-38 -15 20 37 -471 0
-85 4 43 101 -103 -105 106 107 109 -471 0
495 4 87 -103 106 -108 109 110 -471 496 0
109 4 87 -103 106 107 110 -471 476 496 604 0
-15 37 -471 0
-76 -51 -71 142 342 -456 0
38 35 250 251 261 262 281 -313 0
-446 1 129 -444 0
-54 -71 -73 83 313 0
-38 -23 -28 83 273 313 0
-78 -38 -40 73 432 436 0
58 52 53 -55 56 57 61 62 63 -64 83 -313 471 0
-135 71 72 78 443 0
-107 -65 -70 -105 0
-110 -35 -108 0
31 32 36 38 -313 0
77 -55 -57 73 74 426 432 440 0
-471 -472 0
-471 473 0
-286 -277 0
-277 -287 0
-197 -15 0
-196 -15 0
-500 -486 0
-455 -90 0
-365 -90 0
-499 486 0
77 72 76 -313 432 450 0
446 72 -73 75 76 432 0
60 53 59 -471 0
580 102 104 105 107 110 603 0
571 103 105 106 107 603 604 0
381 -17 -20 63 64 -67 0
433 72 73 434 450 453 0
-427 -71 72 73 75 447 0
433 72 74 75 78 80 0
373 -59 343 347 376 378 0
-71 -66 -74 -76 83 0
379 -51 52 53 54 55 336 341 0
343 -51 55 60 337 340 346 375 0
-43 -52 59 -102 -103 336 0
60 -51 56 57 59 342 345 360 0
436 -4 78 426 427 428 435 0
499 83 -429 487 -495 0
-40 33 43 254 262 585 0
-396 71 -72 73 75 81 453 0
-261 73 74 75 78 81 -426 0
78 -1 43 73 75 429 0
-85 2 3 4 83 432 474 0
-74 -129 -313 432 436 450 0
56 51 55 58 -313 346 0
80 74 75 79 426 427 438 439 443 0
35 31 33 -34 38 256 272 0
-72 3 -122 135 -313 429 436 440 441 442 0
-66 83 -313 340 -496 0
-73 74 440 444 445 446 448 449 0
-341 -61 371 384 387 0
-61 -313 340 381 386 387 405 0
437 4 -72 129 426 436 438 440 0
-579 -103 105 -471 591 592 594 604 0
-25 0
-106 3 -34 38 -62 103 104 0
561 3 16 -34 38 -62 85 103 104 0
-105 3 16 -34 38 -62 85 103 104 0
-72 -313 426 436 437 440 0
-103 105 106 108 109 581 584 0
45 0
-58 -51 475 0
-56 -58 0
-274 -270 0
-275 -270 0
-35 -38 0
-39 -35 0
-604 -597 0
-603 -597 0
-589 -587 0
-204 -207 0
472 -2 -21 -28 0
-31 -21 -28 -36 0
22 21 24 28 29 30 0
24 21 23 26 28 0
27 21 23 24 26 0
-265 -267 0
-270 -273 0
-355 -357 0
-281 -285 0
-258 -260 0
-271 -273 0
-250 -252 0
-228 -225 0
-228 -226 0
-172 -167 0
-19 -15 0
-109 -12 -16 -103 0
-109 -13 -16 -104 0
-23 -13 -16 -28 0
-13 -15 -54 -60 0
-60 -12 -15 -53 0
-13 -15 -23 -28 0
117 -1 0
-86 -68 -70 -90 0
-56 -21 -28 -51 0
-86 -81 342 0
-31 -3 -38 473 0
-56 -31 -38 -51 0
-56 -37 -38 -57 0
-56 -27 -28 -57 0
-109 -34 -35 -105 0
-87 -81 387 0
-109 -34 -36 -105 0
476 -61 -68 0
-109 -23 -26 -104 0
-80 -78 -87 -90 0
-55 -4 -51 0
-52 -1 -60 0
-59 -1 -52 0
-59 -2 -53 0
-60 -2 -53 0
-21 -4 -28 -31 -34 0
-89 -2 -38 -39 -83 0
-106 -52 -60 -102 0
-60 -55 591 0
-59 -55 546 0
-60 -51 -101 -106 0
-60 -53 -103 -106 0
-379 -374 0
-373 -378 0
-36 -38 0
-53 -43 -55 225 0
-80 -75 -105 -108 0
-106 -105 370 0
-603 -600 0
-580 -584 0
-583 -580 0
-591 -594 0
-244 -239 0
-110 -4 -28 -29 -101 -105 0
29 21 22 23 26 30 0
-207 -205 0
-38 -24 -26 -34 0
-240 -232 0
-212 -215 0
-222 -220 0
-215 -213 0
-249 -252 0
-340 -342 0
-187 -195 0
-191 -195 0
-175 -177 0
-164 -159 0
-159 -162 0
-160 -162 0
-142 -152 0
19 15 16 20 0
20 12 13 14 15 19 0
13 11 12 14 0
13 11 14 15 17 0
22 21 24 29 30 236 0
20 3 4 13 14 -15 16 196 336 0
240 30 201 220 226 241 243 0
-67 -2 28 29 30 -63 0
277 31 39 40 255 271 273 0
-218 26 28 201 221 0
160 12 13 15 182 0
-57 15 16 -59 0
240 21 26 30 216 218 0
-69 15 16 -67 0
-59 27 28 -56 0
24 23 26 201 240 0
20 15 19 191 0
27 26 201 -218 228 0
-37 -27 -28 -36 0
20 11 12 16 19 173 0
253 37 38 254 261 262 268 269 0
-205 -21 26 236 0
579 21 23 26 29 -43 214 0
-424 26 27 37 -38 0
12 11 14 16 0
255 31 34 281 285 0
29 24 30 201 207 215 220 0
-270 54 -55 336 337 345 0
-57 26 28 -59 0
-267 35 37 -38 -313 0
54 -2 51 52 0
-59 15 17 -56 0
229 21 26 30 -218 240 241 0
-57 11 13 14 15 -59 0
-165 14 15 17 175 0
29 28 205 220 226 242 0
19 11 12 15 20 173 0
30 28 29 236 0
30 21 28 220 226 241 0
240 29 30 236 0
240 21 30 216 218 220 226 0
-69 26 27 -68 0
239 28 236 238 241 242 0
240 21 22 26 218 0
19 11 12 13 20 0
20 16 19 187 0
-109 -110 0
27 26 30 243 0
15 16 161 166 176 0
-271 -34 36 281 0
-103 15 -16 -105 -107 191 381 0
55 52 54 57 337 0
53 -3 51 52 0
243 24 26 30 201 221 0
60 53 59 338 341 346 347 0
360 -55 347 354 -411 0
227 21 22 28 220 226 0
-277 -285 0
180 -15 167 174 0
-388 14 15 17 72 73 74 165 0
-389 14 15 17 72 73 74 165 0
-57 15 -20 -37 -40 -56 0
-31 38 -252 285 0
-285 -24 -34 -38 0
-288 26 30 -285 0
-40 254 262 269 270 287 0
-456 -43 52 54 -55 0
34 36 37 -38 246 267 0
27 26 29 209 215 218 0
-582 15 16 176 -579 0
-187 15 -17 0
13 11 16 166 0
-161 13 14 15 169 194 196 0
181 15 160 168 196 197 0
39 35 40 251 255 272 0
20 17 19 0
-595 -28 -34 35 -228 240 273 281 0
277 39 254 262 269 281 285 0
-252 -4 -81 -85 0
33 34 38 246 281 0
-162 -4 -81 -85 0
-20 -11 -13 33 35 -40 281 285 571 0
-13 15 16 -23 195 236 240 -590 0
55 54 57 336 337 345 0
195 11 12 15 173 191 0
281 -34 35 -103 -105 274 285 585 0
-426 -28 218 240 -432 0
370 54 58 336 354 359 371 373 376 377 0
-352 -22 26 27 -32 38 258 277 0
11 16 -103 -104 -105 187 0
60 53 55 57 59 337 346 0
-3 -23 221 0
214 21 23 24 26 0
-162 -81 83 85 88 0
-30 209 215 228 239 242 0
26 28 206 216 227 242 0
209 205 207 213 215 218 241 242 0
27 26 207 215 218 0
-51 339 341 -565 0
-17 -14 -15 -34 0
213 -26 205 220 241 242 0
230 21 22 229 236 240 0
37 34 246 247 255 0
28 21 22 218 236 0
-374 17 -36 37 38 0
-4 -34 -106 -108 0
-264 -313 0
239 -24 227 228 229 0
-411 -55 339 345 360 0
161 -11 160 0
57 52 54 -135 337 0
27 22 -26 205 218 0
267 -38 252 260 272 0
105 103 108 561 0
39 33 34 40 246 0
-56 -21 27 -51 0
29 22 23 30 207 226 0
27 22 205 207 226 228 0
-135 -34 37 0
32 31 33 37 0
57 -1 51 55 58 0
206 21 205 213 215 218 221 227 0
236 -26 201 220 226 0
214 21 23 26 211 227 0
-176 21 22 -173 240 0
-37 -38 51 53 54 55 0
-51 -37 -38 52 54 55 337 0
-37 -38 51 52 55 353 0
-37 -27 -36 241 242 0
-54 -3 55 58 336 337 371 0
-272 21 23 26 -259 0
-36 23 28 -34 -37 201 0
33 34 -38 -252 260 285 0
206 -21 29 209 0
-51 339 340 341 475 0
36 37 38 0
108 -3 -104 105 106 110 0
22 24 26 27 202 0
236 -26 205 213 218 0
227 23 26 -27 -28 29 207 217 0
24 23 28 201 236 0
29 21 24 30 83 215 495 496 0
14 13 -15 167 195 0
-57 21 22 24 28 -59 0
-59 17 -56 0
-344 -51 52 53 55 365 377 0
54 52 55 57 59 60 0
-59 -28 -58 240 0
-57 11 14 -59 165 0
36 34 38 246 247 255 0
255 31 34 38 281 0
37 34 38 250 255 0
15 17 160 175 181 0
55 51 -58 59 345 365 375 0
240 -28 207 215 218 0
165 16 161 166 173 0
16 161 166 176 0
-110 16 -102 -108 196 442 0
-102 15 16 -108 196 442 0
247 34 38 246 255 281 0
-4 -27 -28 -34 0
22 21 23 26 30 241 0
29 21 23 26 30 211 0
54 15 16 52 53 56 342 377 0
26 27 28 0
229 21 22 26 27 30 0
217 26 27 -215 216 0
281 34 246 247 255 285 0
191 -16 135 181 -220 381 0
-166 -24 26 27 -43 0
-434 -11 15 -21 26 27 161 162 0
240 -3 201 226 228 241 242 0
55 54 59 60 341 345 0
60 59 336 338 346 354 371 375 0
15 16 196 197 0
244 -28 207 215 218 241 0
-341 26 29 30 218 -336 0
211 21 23 26 241 242 0
27 21 23 26 -28 228 0
241 21 22 26 218 242 0
-30 28 239 242 0
-37 247 259 272 277 286 287 0
-109 -34 -105 272 0
-106 573 580 586 591 0
12 11 14 15 17 0
-240 -4 -227 0
347 -52 336 337 345 346 371 375 0
-33 -34 268 269 272 0
37 -4 246 247 255 0
-593 -24 -34 271 0
103 102 -105 564 585 0
22 21 24 26 27 0
22 23 24 27 0
27 26 63 64 -68 381 424 0
284 15 16 35 38 281 283 -377 0
15 16 161 169 176 0
223 28 -29 201 226 227 236 0
-343 -11 15 -16 -21 26 27 162 191 0
-388 -11 15 -16 -21 26 27 162 191 0
-389 -11 15 -16 -21 26 27 191 0
-69 -38 -68 285 0
-57 31 34 -56 255 0
-40 38 284 287 0
-32 -16 -36 160 166 196 197 391 0
597 -13 -16 105 561 578 581 583 604 0
-59 -38 -58 285 0
26 28 -104 -105 -108 201 0
26 24 28 201 221 0
-51 55 336 337 338 373 374 475 0
12 13 14 16 195 0
165 12 15 16 161 173 0
165 11 14 16 195 0
-109 1 3 -103 -105 0
103 102 104 105 0
-109 3 4 -102 -103 0
105 103 104 108 0
105 103 108 571 0
262 31 35 37 38 283 -313 0
206 24 -27 214 221 0
-35 16 0
-110 -107 0
55 -37 -38 51 -313 346 0
-27 -11 15 -21 -26 0
16 15 35 36 38 -604 0
-236 -26 27 206 214 226 0
-430 -51 52 53 57 360 0
-51 -101 -105 -106 341 0
-20 -12 24 27 28 29 209 570 0
32 31 -35 36 38 39 264 0
251 34 -38 260 267 0
211 21 23 27 0
-54 -3 55 249 362 0
-73 29 30 -78 205 221 226 492 0
194 13 -16 160 181 193 0
-22 26 214 215 0
-56 -11 -51 159 161 0
232 -24 26 228 229 242 0
103 101 102 105 0
-142 -34 -135 0
209 -21 206 208 0
55 54 59 60 345 371 375 0
-207 2 4 -81 83 0
165 15 16 163 164 182 0
39 35 37 254 262 269 0
26 28 206 216 217 218 0
13 11 166 191 0
169 -12 168 0
106 107 108 109 -471 595 0
-107 105 570 587 600 0
194 -20 197 0
27 23 -28 -201 207 226 0
161 12 14 16 -17 0
-43 -53 225 337 357 371 0
-28 -27 51 55 -313 346 0
228 23 27 -28 201 0
-34 -4 21 23 26 -28 0
22 21 23 24 0
-27 -28 -34 -105 -109 0
-240 26 27 241 242 0
222 -28 201 228 241 242 0
-344 -11 15 -16 -21 26 161 162 206 0
236 29 30 201 222 226 227 0
-102 11 14 15 19 -108 165 442 0
343 -55 347 354 360 591 0
13 14 15 -16 17 129 135 381 0
-20 -13 36 39 -103 -104 254 277 285 0
103 102 104 593 0
-102 -104 105 561 575 0
103 102 107 110 563 597 603 0
-40 254 262 269 284 287 0
-57 28 -59 201 220 226 0
230 -28 -228 229 240 0
-371 -33 38 -356 0
201 -28 -104 -105 -109 240 0
30 22 23 24 26 29 0
374 17 -56 340 348 353 0
-58 26 -51 -52 218 241 242 0
-225 21 22 27 -28 220 0
24 21 23 26 30 216 0
223 26 -29 206 216 218 228 0
-107 14 15 -16 17 -103 -104 0
-578 11 15 17 -579 0
-19 14 15 191 195 -578 -584 0
-260 31 -32 33 38 270 285 0
216 -22 213 214 217 0
239 -26 205 221 226 238 0
-240 26 -28 206 214 221 227 0
-218 1 2 21 27 28 0
-249 -31 35 281 285 0
103 102 105 108 0
-35 11 14 15 -16 165 195 0
27 21 22 26 218 0
173 11 14 -16 166 -181 0
265 -36 250 258 281 0
32 31 33 38 277 281 0
273 31 35 -38 260 286 287 0
35 34 37 247 261 262 0
37 34 38 246 265 0
285 -38 252 260 540 585 0
24 21 23 26 216 217 0
-109 570 589 594 603 0
-13 -16 -17 -23 0
-13 175 176 0
236 21 22 23 28 0
239 -26 236 238 0
-57 21 22 23 26 -59 0
-57 26 -58 -59 0
-59 11 12 15 -16 -56 173 0
-36 -16 31 191 -238 255 271 285 0
-30 205 217 226 242 244 0
-54 -3 58 249 346 354 371 0
-35 -34 43 360 0
266 35 36 38 251 259 0
165 11 14 15 17 0
-214 21 -22 27 213 221 227 0
-54 43 -55 270 0
36 15 16 35 38 -241 0
32 -16 31 34 -36 38 191 -374 0
-354 21 22 -24 -43 218 236 0
-240 -236 0
29 23 24 30 201 0
32 31 35 36 39 40 272 0
29 24 -26 205 220 239 240 0
24 23 27 201 0
53 -1 -52 56 57 58 346 0
365 52 53 57 59 336 339 359 360 0
266 34 -36 38 250 258 0
238 -26 201 220 226 239 0
-37 31 34 35 -38 39 255 287 0
243 21 22 26 -28 30 219 220 221 0
223 -23 220 221 244 0
215 26 -28 207 221 228 0
108 101 102 103 0
-261 -22 26 27 81 83 0
39 33 38 246 270 271 287 0
56 51 57 58 -135 0
272 -37 39 246 266 287 0
-286 -16 194 -281 0
-343 -11 15 17 62 63 64 0
-344 -11 15 17 62 63 64 0
-56 -31 -51 251 0
-33 266 -313 0
255 34 36 38 251 0
236 -29 -104 -105 -110 201 240 0
244 26 27 207 216 218 0
22 21 23 26 241 242 0
12 13 14 161 0
240 21 26 -218 227 228 0
-433 15 16 -17 35 -38 -161 -252 0
-377 -51 54 55 59 344 345 0
-135 -43 -55 56 57 58 346 0
351 -59 341 358 364 546 0
120 3 112 -129 135 0
-244 -28 30 242 0
26 28 241 242 0
15 11 12 16 173 0
209 -21 206 207 238 0
-60 374 377 379 591 0
34 -38 252 260 285 0
259 -37 251 266 286 287 0
-570 83 -106 -496 591 0
-351 -22 26 27 81 0
39 37 40 0
20 11 14 -15 19 85 0
-195 -15 16 19 0
-39 38 251 261 268 271 0
-399 -24 27 -43 0
-164 -21 72 73 78 206 450 0
230 21 22 23 26 241 0
-21 4 -28 43 83 0
-375 -371 0
-351 21 24 26 27 -32 35 260 281 0
24 23 -26 201 236 0
55 51 54 57 345 0
244 -28 240 243 0
19 3 4 13 14 15 -16 20 381 0
-495 83 103 -105 106 -473 0
-109 571 583 594 603 0
-106 105 573 580 586 0
55 51 53 57 346 0
11 14 17 165 0
108 104 105 570 0
-161 2 4 -81 83 -285 0
-444 -24 27 -43 0
-85 2 -81 83 162 -387 0
-379 52 58 -60 342 353 375 0
-242 15 16 35 36 38 0
-602 15 17 35 37 38 0
-110 -14 -17 -24 28 30 -108 227 0
-277 35 -37 0
227 -24 28 226 0
-17 16 -26 -27 -34 -36 0
-135 -43 51 -55 346 0
-270 -43 51 -55 346 0
-15 -14 43 -55 337 360 0
345 -4 43 -55 0
347 -4 -55 353 0
345 43 51 -55 -135 0
53 51 -55 346 546 591 0
14 3 4 13 15 -16 17 381 0
-16 -17 102 103 104 109 110 0
108 102 105 578 0
101 104 105 108 0
-135 43 -55 339 345 0
-456 43 -55 339 345 0
390 -12 -16 23 24 -26 28 236 0
103 102 104 108 0
195 -11 12 16 -22 -27 -34 37 176 268 269 0
108 102 104 105 0
19 11 12 14 15 197 0
-570 -1 101 -103 579 604 0
-450 -34 35 37 43 0
15 16 62 68 382 383 386 398 411 422 0
230 26 28 201 221 241 0
-604 26 28 35 36 38 0
56 -1 -51 54 55 337 375 0
-15 -14 -55 337 338 353 0
165 11 14 15 191 0
13 11 166 196 197 0
14 16 -26 -34 0
191 12 13 14 15 0
101 102 103 588 0
-12 -16 -103 105 106 -471 604 0
27 28 201 220 226 0
285 -34 38 -273 0
-197 28 29 -191 0
29 21 26 -218 221 244 0
424 26 27 62 -68 387 400 405 420 0
-21 -28 -51 339 341 342 0
-313 -43 -53 225 337 346 371 375 0
-35 246 266 270 0
-51 -31 -38 336 337 338 339 475 0
-2 -53 54 55 345 371 375 0
-53 3 4 -52 -59 0
-57 -38 -56 -68 -69 0
576 -23 -26 105 -109 562 0
-15 -13 51 52 -313 346 353 0
-31 38 250 251 0
238 30 201 221 227 243 0
222 -23 220 223 224 0
-19 -11 23 24 26 27 -102 -110 0
216 -22 -191 -197 215 0
55 81 340 341 342 345 371 375 0
-20 -11 13 14 15 -16 -17 -68 159 162 175 206 251 341 386 0
-59 31 34 -56 255 285 0
206 23 24 26 28 0
-161 -31 38 -191 0
-218 -34 43 281 285 0
-161 15 16 -31 35 37 38 -389 0
24 23 26 201 207 215 0
20 14 15 -16 169 176 193 0
236 21 23 24 27 0
-58 51 336 337 339 -342 375 0
-275 -40 271 272 273 0
-354 -24 27 -43 0
-103 105 106 -471 563 600 603 604 0
103 105 109 110 561 586 600 0
164 -11 17 163 0
227 -24 28 -105 -109 0
600 102 104 105 106 109 604 0
230 -24 227 229 0
-4 -24 27 0
59 -55 336 338 346 -579 580 0
221 21 22 24 0
-288 -17 -20 26 -37 -38 0
206 -21 26 207 0
-38 -37 51 55 59 60 0
37 31 32 34 36 0
-56 32 -38 -57 252 267 0
-349 -26 205 218 -371 0
-60 51 54 55 345 377 0
55 -51 54 57 336 358 359 0
216 21 26 217 218 240 0
-106 105 561 562 570 586 0
582 103 -105 570 578 -579 0
206 26 -27 221 227 241 242 0
38 31 33 37 258 0
-51 -21 -27 -28 55 0
345 43 51 -55 -411 0
52 -2 54 55 57 58 0
-344 -11 15 35 -38 161 162 251 -252 0
-590 -13 15 17 -23 28 220 0
-180 52 53 54 -55 0
-31 -36 -37 -51 55 58 0
-51 55 58 -342 375 0
58 1 3 51 54 56 57 0
103 105 571 575 588 0
-434 -11 15 16 -21 206 0
-225 -24 26 0
236 21 22 29 30 218 0
38 -11 15 32 34 -37 266 0
-65 -2 -66 -105 572 585 593 0
-51 -31 -37 -38 55 0
33 34 36 38 246 0
-53 1 3 4 51 -52 55 58 371 0
-411 -43 52 54 -55 0
-251 -11 15 -281 0
-433 -11 15 -21 26 27 161 162 0
180 11 13 -15 0
-55 -4 51 52 0
-28 21 23 26 215 240 0
-274 -14 15 16 -24 0
39 34 40 246 266 0
159 -15 -34 167 0
26 23 28 201 227 0
-23 -13 -16 221 0
240 23 24 26 -28 35 -38 285 -313 0
-108 11 15 16 -103 -105 0
165 14 -17 -108 -110 164 191 0
29 27 30 0
108 104 105 106 561 0
103 101 102 104 0
229 -24 27 -103 -105 313 0
37 -23 -26 34 38 246 398 0
110 -105 108 109 -471 563 571 580 592 0
32 34 38 247 281 0
-85 2 -81 83 -387 0
39 -27 -28 40 0
573 -106 580 585 597 0
34 246 247 255 286 287 0
55 51 57 59 60 0
11 14 16 165 0
285 -38 83 177 252 268 269 0
-29 15 16 -17 -24 -27 -34 35 38 0
251 -21 -28 -31 38 0
232 22 24 26 201 202 240 0
-242 -28 29 244 0
-356 31 34 35 38 -355 0
-33 -27 -28 268 269 0
-36 34 250 255 283 284 0
-36 21 -37 213 214 215 218 0
34 38 247 258 259 281 0
60 51 59 345 349 356 360 0
12 13 14 17 0
-163 -21 26 27 62 63 64 0
184 -14 16 -102 -105 187 0
187 -14 16 184 185 0
-164 26 27 -28 -162 216 229 0
566 -105 574 579 587 -592 603 0
206 22 23 28 29 30 0
14 -16 17 -103 -104 -109 0
-592 17 175 -579 0
-56 -11 -51 -57 164 0
-456 -43 51 -55 346 0
80 26 -28 73 74 76 78 218 240 441 457 0
-52 3 4 51 55 56 346 375 0
36 31 34 38 255 0
229 -28 -215 217 -228 240 0
12 11 14 15 176 0
-43 2 3 51 -52 -55 346 354 0
17 13 15 -16 -103 -105 -107 0
26 -24 -27 28 -103 -105 106 107 109 313 561 578 0
-51 336 337 371 -473 -495 496 0
216 23 24 27 28 209 0
390 -12 -16 -26 205 220 226 0
255 -12 -13 21 24 27 28 0
165 15 160 166 173 196 197 0
374 15 17 -56 355 -471 0
31 32 35 36 -38 273 286 287 0
55 54 57 58 337 348 0
-191 15 17 196 197 0
-263 -34 268 269 270 281 285 0
103 105 561 588 0
103 104 561 593 0
-129 -104 108 109 -471 595 0
103 -3 102 -104 108 110 0
-28 23 26 -34 -38 201 241 242 0
39 35 40 251 259 266 0
52 -3 -51 55 56 337 375 0
-4 246 247 255 286 287 0
33 34 36 -38 252 285 0
-29 23 26 201 228 241 0
-81 -71 -78 85 142 0
-51 336 337 338 339 371 375 0
-51 -21 -28 55 341 0
-221 -26 201 226 236 0
236 -26 201 220 226 0
-284 15 17 27 28 0
-17 13 14 16 169 187 0
161 -11 159 160 0
-104 101 571 578 588 0
-109 105 570 589 603 0
105 102 104 582 0
209 26 27 -207 208 0
106 -105 107 109 -471 -498 595 0
-17 -20 51 52 55 -57 353 0
29 -12 -17 21 26 30 218 435 0
345 52 54 55 57 343 344 0
172 -12 19 -22 -27 435 0
101 103 104 105 110 603 0
603 103 106 110 561 563 571 600 0
-285 35 37 -38 286 287 0
26 22 24 28 206 219 0
227 -4 -24 0
255 34 -38 252 285 0
-13 -4 -16 26 -28 -34 201 0
-17 -16 -34 38 -105 -108 0
-108 24 26 -104 -109 201 0
103 102 105 106 563 578 0
-388 15 16 -17 -31 35 -161 162 281 285 0
165 11 14 15 169 176 0
209 26 -28 208 216 217 228 240 0
39 33 34 35 36 246 287 0
56 -51 52 54 -313 339 375 0
-27 236 240 241 242 0
108 105 570 571 578 0
285 -38 252 261 262 -313 0
169 17 158 -160 -161 176 0
-110 -15 -108 0
-109 103 571 594 603 0
16 15 -24 -105 -110 226 228 0
228 23 -28 201 240 0
111 -11 -12 23 24 26 27 0
206 -21 205 207 0
259 31 36 38 -313 0
-218 -34 43 271 277 285 0
-35 37 0
55 52 -313 338 371 375 0
-55 51 52 -411 0
-17 11 21 24 26 28 182 435 0
20 15 -16 17 163 165 166 173 0
55 51 59 60 346 356 0
-180 51 52 -55 0
110 1 3 -103 -105 107 108 -471 0
-109 1 -103 -104 -105 0
22 23 24 26 241 242 0
240 -24 26 -103 -105 229 313 0
-106 102 103 565 586 0
-51 336 337 338 339 341 0
-51 336 338 343 344 354 371 375 0
-19 14 17 171 178 0
-342 2 -81 -85 472 0
-377 -33 34 39 246 -356 0
213 24 28 201 205 221 0
236 26 28 206 214 221 0
-270 -34 35 0
39 31 32 33 35 40 0
35 34 246 247 255 286 287 0
-60 54 55 344 345 377 0
59 55 57 -313 336 338 346 0
55 51 57 -313 346 0
31 34 38 -83 281 0
-411 53 -55 -471 0
187 -15 0
169 11 13 14 0
11 16 166 176 0
363 -2 51 -58 350 0
-78 -28 30 -73 243 492 0
369 -55 339 346 354 591 0
-286 11 13 15 26 28 166 0
53 -1 43 55 58 338 345 371 0
-51 -11 54 55 159 161 336 337 342 0
33 34 246 281 285 0
35 38 246 247 254 255 259 269 270 271 286 0
14 11 13 16 0
14 16 161 176 0
24 -2 26 201 215 221 472 0
206 26 29 30 221 227 0
428 26 27 73 -78 440 469 0
26 28 201 223 227 240 242 0
469 26 27 72 73 -78 428 0
442 26 27 73 74 75 426 434 0
-442 21 26 81 218 240 0
27 23 24 201 0
-21 4 -28 -81 83 472 0
-17 -12 -16 -22 -83 0
-26 1 2 4 83 85 220 313 472 497 580 585 0
-13 -16 -23 27 0
17 16 0
19 11 13 14 20 0
206 -26 217 220 226 238 0
255 34 35 -104 -108 246 247 286 455 0
217 21 28 218 236 238 241 0
230 21 23 216 218 236 240 0
236 23 -26 205 226 0
341 -2 -21 -28 -51 338 342 343 344 0
593 102 -103 104 562 0
35 31 255 261 268 270 273 -275 281 284 287 0
105 104 570 575 582 0
105 -2 -12 -17 103 571 603 604 0
-498 83 103 105 0
101 102 104 105 0
-2 105 -471 604 0
603 -35 102 104 105 -108 0
-498 83 103 -471 -473 591 592 0
101 4 -16 43 -85 -103 -105 106 109 110 -471 564 572 578 0
-561 105 -106 565 578 0
230 -43 104 108 561 0
-135 -105 108 110 562 563 0
595 1 101 -103 -104 -105 108 -471 -578 0
562 14 -16 -103 -104 105 -107 0
277 -35 0
169 16 176 182 0
-59 26 27 55 336 337 345 364 0
230 26 201 221 222 229 240 0
-56 -31 35 -51 253 254 0
229 21 22 23 26 30 0
105 104 561 582 0
101 102 104 582 0
584 -12 -15 104 105 106 575 582 0
-19 14 15 171 178 191 0
-110 27 -28 -34 -38 -105 -230 0
-104 4 -51 53 55 -101 102 103 108 109 110 122 587 0
108 101 102 -104 110 -129 0
-102 34 35 38 -101 281 0
-102 3 4 -103 104 105 108 110 0
103 561 563 567 571 575 588 0
-127 -122 0
102 104 105 562 0
-102 3 4 -103 105 561 604 0
22 21 23 -28 228 0
-336 -4 13 -28 105 0
-164 -21 26 27 -28 -31 0
561 -34 38 104 -105 106 -108 110 582 0
-35 251 255 270 0
-456 52 -55 337 338 0
447 -73 0
-15 169 176 180 0
180 -15 169 174 0
254 34 35 37 247 255 261 0
-349 26 -27 218 240 -336 0
255 27 28 31 34 35 37 0
-207 -4 -81 88 0
-4 103 -471 604 0
281 -33 34 38 -52 -53 -81 0
182 16 -578 -588 0
12 13 16 182 0
-108 13 16 -17 -103 -105 0
11 13 16 -34 -43 0
-191 -24 28 -181 0
-218 -24 -129 221 222 0
-343 -11 15 16 -21 26 206 0
-344 -11 15 16 -21 26 27 0
-585 -3 -26 83 313 562 0
26 51 52 54 55 60 337 353 0
-255 -33 38 -260 285 0
22 23 24 26 240 0
22 23 24 26 241 244 0
206 22 -26 28 205 220 241 242 0
27 -24 226 228 0
-17 -16 -24 -26 -34 0
22 21 23 26 240 0
27 21 26 215 228 0
-38 252 260 273 286 287 0
11 12 13 182 0
-336 11 13 0
-17 -16 24 28 -104 -108 201 221 0
-19 -17 26 31 32 33 -37 -38 0
-15 3 4 13 14 336 0
-135 -34 272 0
-20 -12 21 23 24 26 29 570 0
-593 -3 11 -579 0
-104 103 105 -129 561 604 0
-108 11 13 -103 -105 0
-4 102 -103 104 -105 110 582 0
-109 101 104 570 603 0
110 -14 -15 104 -105 106 561 582 0
-102 101 105 110 -114 0
-34 37 43 -495 0
-56 34 -57 246 247 255 0
108 101 102 104 0
55 54 57 59 60 337 0
-15 17 0
101 -35 104 105 109 0
105 102 103 588 0
103 101 104 105 106 0
-430 -51 55 57 0
11 1 4 14 17 0
101 104 108 570 0
-579 83 -105 -473 -482 -498 561 0
-71 -73 432 0
262 31 35 37 261 -313 0
-285 34 -37 38 246 267 0
-1 -37 -38 51 55 -56 0
-495 -34 43 272 0
223 30 216 229 236 240 0
-287 43 101 -105 -182 570 0
360 53 -55 -135 336 0
101 104 570 575 582 0
-371 34 38 246 -356 0
-495 1 3 -55 83 -471 0
-29 201 223 229 241 243 0
-411 -43 51 -55 346 0
28 23 26 -34 36 38 81 -83 472 0
35 31 33 39 40 259 0
-371 -12 -13 -26 -51 55 226 255 342 0
449 4 -73 432 440 448 458 0
251 32 36 38 -313 0
343 -55 347 360 -579 580 0
258 37 38 250 -313 0
-73 4 -313 432 440 450 0
-53 -2 -43 -51 -55 203 0
-79 -28 39 40 -78 0
164 -11 19 161 0
-108 16 103 104 106 107 442 564 603 0
54 -2 -51 55 57 336 359 0
-165 16 169 182 0
261 -32 35 37 262 0
164 -11 161 163 0
31 32 37 269 270 -313 0
270 -34 252 260 271 272 -313 0
-21 -27 -28 55 -313 346 0
14 -16 22 24 -26 27 28 169 0
-603 102 -103 104 105 109 604 0
259 -4 -34 35 251 -313 0
-16 -23 -24 34 -38 83 0
-228 -24 28 240 0
11 -16 -24 28 34 -38 83 0
-17 -16 23 -24 28 -105 -108 201 0
-17 -16 -24 28 34 -38 83 0
17 1 -16 -103 -105 -107 0
108 101 105 110 571 0
-73 -72 440 0
101 105 570 588 0
-482 83 101 -105 -485 562 0
-3 -23 27 0
166 11 13 -16 -35 0
-34 23 26 28 38 81 -83 271 472 0
-40 -16 17 26 28 -36 -37 0
-341 26 -27 28 218 -336 0
22 24 26 27 209 223 0
-40 -34 83 -103 -105 -564 0
-344 13 15 17 -21 26 27 166 0
-471 105 108 0
-14 -16 0
-40 -16 17 -27 28 -36 -37 205 220 226 0
72 -1 74 104 -105 108 -313 432 0
-4 -13 -16 23 26 -34 201 236 0
39 23 26 -34 35 40 201 281 0
-24 26 -103 -105 228 229 313 0
101 103 108 571 0
-262 21 26 -30 221 -256 0
-4 -34 40 -105 108 -471 0
51 55 58 -313 346 371 0
58 55 -313 336 338 346 371 0
-29 -1 -16 -28 51 -58 59 81 -313 0
-37 11 -16 -17 26 28 -34 38 175 0
-104 -23 -30 105 269 571 588 0
28 -16 -17 27 -108 -110 -197 0
-21 -2 205 206 472 0
-16 -17 -313 0
-34 16 -17 -26 27 38 -40 0
-471 -15 23 26 28 -34 0
36 35 38 251 259 -313 0
-26 16 -17 -34 38 40 0
78 -2 73 -103 -105 436 -471 0
17 3 4 14 -23 27 381 0
16 38 -57 -58 -108 -110 240 -313 0
17 -2 175 0
-20 -17 27 -28 -43 51 52 -57 -58 0
34 -313 0
-16 -2 15 -23 -28 -313 381 0
12 16 -20 -40 -313 571 -593 0
-588 12 16 -585 0
82 0
104 102 108 564 0
-102 -1 72 -73 74 75 -103 -313 0
17 -1 381 -579 -585 0
-73 43 -51 -53 74 -81 -103 -104 427 448 0
17 -34 37 38 -105 -110 0
-239 15 -26 -27 37 38 -236 0
197 16 -17 71 -72 75 76 -102 -108 187 436 446 530 0
23 -16 -17 -105 -108 201 228 236 240 0
-15 135 182 -471 495 498 0
16 161 165 182 0
-498 -23 38 160 161 -313 0
-79 -78 85 -89 471 558 0
-55 -64 -65 -101 -104 -313 0
-26 -12 -16 205 218 236 390 0
17 -16 -578 -587 0
-35 251 -390 -401 0
-15 -26 -34 0
-16 3 4 15 -23 27 -313 381 0
-4 -55 -313 0
-15 16 167 -313 495 0
-65 61 -102 -105 -313 0
43 -87 -313 0
-23 4 14 17 27 381 0
-74 4 -88 -103 -104 285 -313 450 482 0
24 23 26 216 217 240 0
-2 -103 104 -105 108 110 561 0
43 2 4 -28 105 -313 0
-38 26 -28 -313 -603 0
-35 -11 -16 38 256 264 0
169 16 38 -135 -313 0
-374 -16 17 35 -37 -56 -57 281 -371 0
3 1 4 -16 -19 -103 105 108 0
-16 61 -313 -603 0
-406 4 14 -15 -17 336 0
61 -313 -603 0
-72 436 438 439 440 441 442 0
-182 35 38 -161 258 -313 0
-63 -51 -53 -62 -81 0
-58 -55 -62 -68 -85 0
-63 -64 -83 -102 -104 0
-33 -32 -81 -101 -103 0
-31 -33 -72 -73 -81 0
-73 -61 -63 -72 -81 0
-63 -61 -83 -101 -102 0
-85 482 0
-90 487 0
-86 483 0
-87 484 0
-75 -73 -83 -102 -105 0
-71 -73 -83 -101 -102 0
-102 -53 -54 -83 -104 0
-88 485 0
-68 -62 -87 0
-52 -11 -17 -51 -88 0
-87 -11 -16 -51 -52 0
-32 -13 -14 -34 0
-81 -1 162 0
-80 -1 -78 -90 0
-70 -1 -68 -90 0
-1 -28 -30 -90 0
-108 -1 -88 -107 0
-108 -1 -88 -106 0
-76 -1 -73 -83 0
-66 -1 -63 -83 0
-1 -28 -29 -89 0
-75 -51 -55 -72 -81 0
-63 -62 -81 -101 -103 0
-31 -33 -62 -63 -81 0
-75 -61 -65 -72 -81 0
-78 -72 -88 195 0
-75 -72 -81 -101 -105 0
-53 -55 -83 -102 -105 0
-65 -62 -81 -101 -105 0
-55 -52 -81 -101 -105 0
-63 -66 -83 -102 -106 0
-72 -73 -81 -101 -103 0
-53 -52 -81 -101 -103 0
-106 -62 -66 -81 -101 0
-76 -72 -81 -101 -106 0
-86 -61 -66 -101 -102 0
59 51 60 -62 -63 0
-88 73 74 195 433 434 456 457 0
-72 -88 195 426 435 436 437 0
-79 3 4 -78 -83 -89 0
-90 3 4 -38 -40 -83 0
-473 -313 471 0
-52 -43 81 83 -102 -103 336 346 0
-55 59 -62 -65 -70 -81 360 0
-110 2 4 -28 -29 -89 -101 -104 0
397 59 60 -62 -81 391 396 0
-104 43 -90 -102 0
-104 -64 -101 -102 0
-58 -53 -54 -62 -68 0
-55 -51 -62 -81 381 390 391 393 420 0
-52 350 351 352 355 356 -471 472 0
56 -51 55 -101 -102 -313 375 0
-90 -102 -103 0
-58 -53 -55 -72 -85 426 436 437 0
408 62 -64 135 386 405 409 410 0
-63 34 35 36 37 -62 -81 0
-63 52 54 55 58 -62 -81 377 0
-382 51 -56 -340 -471 0
-482 489 495 0
-337 51 59 60 336 -471 0
281 34 38 -81 -101 -103 0
406 -43 61 81 -102 -103 -313 405 420 0
-104 -63 -83 -102 382 403 404 0
-51 337 371 375 -471 472 546 591 0
-102 61 -62 81 -103 0
-103 -33 34 35 36 -81 -101 286 287 0
-73 3 4 -83 427 435 444 0
-102 -51 59 -83 -101 338 344 0
-63 -62 -101 -103 313 0
-62 65 66 81 381 420 0
-109 -81 -103 -104 -105 -158 0
-72 -55 -81 -313 360 436 440 0
-33 -32 -81 -103 104 107 109 110 597 0
21 26 27 -83 170 218 0
-73 34 38 39 40 -72 -81 285 0
-55 -2 51 -102 -105 0
-85 -55 -105 -471 603 0
38 34 36 -81 -101 -103 246 277 0
443 3 4 72 -73 75 79 80 -83 0
-347 -2 -26 -55 -81 -103 104 105 -108 -110 336 346 350 376 591 0
-51 55 -313 371 -471 475 0
-33 -4 34 35 38 43 -55 103 287 -471 0
-72 -88 195 427 429 436 441 442 444 0
586 103 -105 107 108 109 110 571 0
55 -43 -101 -102 -313 336 346 371 375 0
588 -17 -34 -104 105 161 -313 0
176 -17 -34 38 161 -313 0
-2 -12 -17 104 -105 -106 571 0
-55 -2 51 -313 -471 0
-55 -2 16 51 -104 -105 110 0
-142 -375 0
-106 -64 -66 83 -102 0
-54 -31 -37 -51 83 -88 0
-37 -38 83 -88 453 0
-63 -33 -37 -64 83 -88 0
315 -34 -40 -104 -105 0
-75 -73 83 -85 -103 -104 0
-364 -315 0
-409 -315 0
-454 -315 0
-499 -315 0
-76 -74 83 -102 -106 0
-53 -54 -61 -63 -81 0
-65 -63 83 -85 -103 -104 0
-129 -589 0
-70 -3 -68 83 -90 0
-90 83 500 0
-85 83 495 0
-75 -74 83 -102 -105 0
-58 -54 -62 -68 83 0
-68 -23 -28 -69 83 -89 0
-70 -23 -28 -68 83 -90 0
-21 -11 -13 -22 83 0
-68 -64 83 -87 0
-86 83 496 0
-490 -83 483 0
-484 -83 491 0
-485 -83 492 0
-135 -228 0
-85 -13 -17 -20 83 -105 -108 0
-106 -13 -17 -20 83 -86 -108 0
-17 -16 -23 -26 83 -88 0
-87 -12 -16 83 -103 -104 0
-16 -3 -17 -81 -88 0
-88 -13 -16 -26 -27 83 0
-86 -4 -13 -14 83 0
-14 -4 -13 83 -87 0
114 -1 0
-4 135 0
-63 -2 -64 83 -86 0
252 -3 -81 0
-87 -2 -73 -74 83 0
-1 -64 -66 83 0
-51 -55 83 -85 -101 -104 0
-60 -23 -28 -58 83 -90 0
-54 -51 83 -101 -102 0
-39 -31 -81 -104 -110 0
-39 -32 83 -104 -110 0
544 -38 -39 83 -89 0
177 -32 -38 83 0
-81 -31 -38 129 0
-88 -74 -78 83 285 0
-75 -62 -65 -74 83 0
-80 -23 -28 -78 83 -90 0
-420 -142 0
-75 -74 -81 -101 -105 0
-64 -65 83 -102 -105 0
-71 -74 83 -101 -102 0
-603 -142 0
-86 -61 -66 83 -101 -104 0
-583 -122 0
-89 83 499 0
-88 83 498 0
-81 473 0
-87 83 497 0
-142 -240 0
-129 -222 0
-285 -142 0
-129 -177 0
-122 120 -129 0
128 -129 -135 0
-135 -273 0
-594 -135 0
-142 -195 0
-183 -135 0
-122 -170 0
-142 -114 116 0
-137 135 -142 0
-365 -315 0
-500 -315 0
-410 -315 0
-455 -315 0
-545 -315 0
424 -61 -81 381 382 388 422 498 0
52 51 55 58 -315 371 0
-214 61 63 -240 -315 411 0
63 61 -259 -285 -315 411 0
71 72 75 -122 -315 0
-129 83 85 -142 0
-78 51 -58 -72 -313 0
-64 -52 -54 61 -315 0
-347 -114 -135 0
-219 -3 0
-63 -56 -62 -66 -315 0
-338 52 53 54 -315 0
59 51 54 58 -315 347 349 359 0
71 72 73 -315 0
52 51 53 -315 0
-255 51 -56 -258 -315 0
-62 61 63 81 83 -217 0
-65 62 -81 -101 -105 -313 0
-77 73 -81 -101 -107 -315 0
101 102 -103 104 -122 604 0
208 22 23 24 26 -28 142 209 0
-88 73 -78 83 285 432 440 0
52 -55 -315 339 354 0
-573 83 87 -591 -597 0
-390 61 63 -315 391 395 399 400 0
-66 83 135 -473 -496 0
-65 63 -315 384 392 0
67 61 62 66 -315 413 0
-315 61 62 63 0
-315 62 63 386 387 411 0
-315 62 67 68 382 411 0
67 -61 62 63 66 -315 384 398 0
-483 3 4 -83 0
-74 4 -73 75 -315 427 0
-55 51 -315 347 354 0
-104 71 72 -102 -315 448 449 0
53 51 55 56 -315 336 360 375 0
58 51 55 57 -315 345 0
-63 -54 -61 -315 -471 0
58 -51 -315 336 337 340 -371 0
51 55 57 -315 337 345 0
-315 62 63 66 67 68 0
66 62 63 -315 384 420 0
-342 62 63 -315 386 0
-75 73 83 -85 433 434 0
67 61 62 65 66 -315 0
65 -61 62 63 68 -315 386 0
71 -1 -72 73 75 -315 0
-83 15 16 0
431 73 -77 -315 439 0
71 73 -315 437 438 439 0
56 51 55 -315 345 375 0
76 -74 -315 428 450 452 0
-54 -315 336 337 341 360 371 375 0
-315 71 73 440 456 457 0
-63 51 -56 -66 -315 336 337 348 0
-76 73 -315 430 438 0
-22 -28 -83 170 0
-54 51 57 -315 360 0
-341 62 -315 -337 -342 411 0
85 4 83 88 -103 -104 0
-58 -315 342 350 357 0
362 51 55 56 57 -315 345 0
339 -51 -315 336 337 341 342 0
-64 2 -66 83 135 0
78 -72 73 -315 426 438 439 0
77 73 78 -315 429 430 456 0
-142 36 39 40 0
77 -71 73 -315 426 430 432 0
-75 51 -55 -74 -313 0
-432 -81 85 88 0
412 61 63 66 68 -315 0
52 53 54 56 -315 341 342 0
-315 62 63 65 386 387 0
-142 35 39 40 0
-142 -37 40 286 0
57 51 56 58 -315 345 0
-360 54 -55 -315 338 345 0
-357 51 52 58 -315 375 0
286 -34 38 -105 -107 142 287 0
-411 61 62 63 67 83 88 497 0
402 -68 -315 395 476 0
-165 2 4 83 85 -169 0
-65 51 -55 -64 -313 0
-337 -55 -315 339 347 0
458 72 -73 -315 427 445 446 0
-360 54 -55 -315 338 346 0
77 73 75 76 -315 426 429 0
77 73 76 -315 426 458 0
174 -15 161 182 0
458 -61 -67 72 73 76 142 -315 0
-315 -64 383 391 399 406 420 0
-63 -2 -22 -26 168 205 -315 399 400 420 0
-38 -81 83 129 260 267 273 0
72 73 -315 427 430 432 436 457 0
-315 62 -101 -103 -105 -106 420 0
104 102 -103 105 -122 604 0
-32 -22 26 27 36 -37 38 83 257 471 0
363 -54 -315 336 337 360 371 0
-67 -315 386 394 401 0
-315 -62 381 383 390 391 393 394 395 0
81 83 -315 0
-54 -62 70 -315 381 391 396 0
72 73 -315 428 433 434 0
77 71 72 76 78 0
-339 83 -360 -370 486 0
-442 -32 35 81 83 260 281 0
73 -71 -315 426 432 456 457 0
-73 -315 432 435 444 445 446 0
-26 -34 -83 0
-315 62 63 384 386 387 0
64 61 63 81 83 -262 0
-315 62 68 -337 -341 411 0
-55 60 -74 -75 83 343 354 0
72 73 74 -315 429 434 468 0
478 81 83 -473 479 0
458 72 -315 429 432 445 446 0
-342 2 4 83 89 487 0
288 -38 40 285 0
-81 -31 37 83 129 250 0
-497 -16 83 135 161 181 0
-474 -72 83 -315 440 0
-59 -58 72 -78 83 -88 285 432 0
52 -55 59 83 -102 -105 337 370 0
72 73 -315 432 456 457 0
-75 83 -102 -105 429 444 0
68 3 61 -63 67 -83 -315 0
-63 52 -56 -66 -315 385 0
-315 -53 -56 61 62 399 420 0
66 63 65 -315 381 420 0
-81 -61 62 63 67 68 87 88 0
-55 53 -81 -101 -105 0
110 3 -102 -103 104 105 129 135 561 600 0
-55 -81 -101 -105 354 0
101 -103 -122 579 604 0
355 -56 -315 348 385 0
-315 -62 381 390 392 393 394 0
-315 61 63 381 392 393 394 0
-87 61 67 -68 83 398 402 411 0
58 51 55 -315 345 371 0
-180 -13 -15 83 -187 0
56 51 -85 -313 375 0
-87 3 4 -83 0
-87 2 4 83 0
-165 -32 -38 83 170 0
-315 62 67 68 340 382 400 0
-64 2 4 -66 83 495 0
71 -72 81 83 -262 435 0
-315 62 63 66 67 413 0
471 83 -315 0
-385 -71 72 -81 88 427 432 0
-83 483 489 491 492 0
430 -62 -66 -76 -83 -315 438 0
-27 15 -17 -26 -83 0
-173 83 87 -182 496 0
-88 -12 -17 83 105 561 571 582 0
-85 43 83 -105 -110 0
-397 -32 35 81 83 260 281 0
315 43 0
-54 -51 83 -101 103 105 0
107 83 103 108 109 313 0
-22 26 27 81 83 -262 0
53 54 55 56 336 375 0
-77 -87 -101 -104 -313 0
-64 62 68 -315 383 401 0
-65 61 -315 392 399 0
402 -63 -315 382 390 401 411 0
-73 427 435 444 445 446 0
-73 3 -83 85 86 240 -315 427 491 0
-315 -34 35 38 -218 281 471 0
-142 55 -315 336 337 345 0
-86 3 4 -83 0
-39 34 38 -83 90 286 0
57 56 -59 -315 336 342 345 350 354 375 0
85 83 86 88 497 0
56 43 51 -55 58 -315 339 349 354 0
66 -63 65 -315 382 390 401 0
-66 -63 -83 129 135 0
-74 4 -315 432 436 450 0
-15 -14 72 73 -315 432 0
-72 -315 426 435 437 440 0
71 73 78 -315 437 0
459 72 73 -315 428 434 468 0
431 72 73 -315 429 430 0
-564 83 -473 476 496 -593 0
385 -61 -315 381 382 384 387 0
-76 2 4 -74 83 0
67 -62 68 -315 384 390 393 0
-315 61 -62 68 390 392 394 0
-23 -28 34 -38 83 313 0
52 58 -315 338 340 341 354 371 0
498 2 61 62 64 67 68 83 496 0
-60 81 83 344 486 0
408 4 -64 83 -315 399 0
62 61 -83 -103 -104 -315 0
-315 61 62 399 400 420 0
-315 61 62 68 399 401 0
412 62 63 66 68 -315 381 0
62 63 -315 383 388 389 0
66 63 65 68 -315 381 0
-74 73 83 -315 0
72 3 4 75 -83 85 -315 432 0
73 2 3 -72 78 -315 426 0
-1 -313 429 432 440 -585 0
-78 -33 -38 -83 -315 432 0
-83 3 4 85 88 0
59 51 53 -90 346 0
-76 63 65 -72 -81 -315 420 0
-74 -315 -435 0
-55 -2 -81 83 -101 -105 0
52 53 55 57 -315 0
-88 14 15 16 -17 83 -103 -104 0
60 59 83 -101 -102 -103 353 0
-63 3 4 -83 -315 382 390 399 420 0
-338 73 -74 -315 -336 0
389 -61 62 83 -101 -102 382 388 0
59 -36 -39 43 51 55 -315 345 374 375 0
57 51 55 60 358 0
-411 -315 381 382 385 390 393 400 420 0
-57 -315 341 349 356 0
78 2 4 -74 75 83 0
71 -1 -74 75 83 0
-88 -71 -81 142 426 427 429 0
71 3 72 -73 74 -83 -315 449 468 0
77 72 78 -315 427 456 0
431 73 78 -315 430 432 437 0
-411 63 -66 -315 384 392 420 0
-81 -61 -65 -75 83 444 0
-73 43 81 -83 -103 -104 427 0
-109 -28 -83 -105 0
-102 -51 55 -83 -101 -315 341 0
-68 -53 -58 -83 -315 0
-173 -34 37 43 0
-87 62 -68 83 476 0
75 71 78 -315 426 435 0
58 -16 -17 -20 51 -315 345 360 0
-342 -315 -337 426 440 456 457 0
73 -315 429 432 437 438 439 0
71 73 75 -315 426 440 0
-64 63 83 -315 0
-104 43 -72 -83 -102 426 471 500 0
-315 62 63 72 73 74 -163 383 0
-315 51 52 -55 56 62 -63 345 382 400 0
340 -61 62 -315 382 384 420 0
397 61 -315 381 391 396 399 400 420 0
59 51 53 81 89 346 353 0
-103 34 35 36 37 83 -101 0
-88 12 15 16 -17 -23 -24 83 0
-52 -55 -74 83 -313 432 436 451 452 0
-218 -34 37 43 0
-83 -2 26 27 -28 218 472 0
-83 -28 170 207 218 240 0
-315 -62 381 390 392 393 395 0
382 -61 -315 340 381 386 387 0
-90 3 4 -28 -30 -83 0
90 -1 34 35 -39 -83 281 471 0
-73 -1 4 71 75 -83 0
-386 62 63 -315 383 421 422 0
-77 62 63 -71 142 -315 387 411 0
67 43 51 -55 -61 62 63 68 -315 345 0
-180 43 51 53 -55 345 0
-58 -1 -51 -55 83 -313 0
-58 51 -86 -313 0
-81 83 88 142 -207 495 0
62 61 65 66 -315 420 0
386 -61 -315 381 384 387 400 0
52 53 56 57 58 -315 346 0
-71 -315 426 427 429 432 0
-27 -28 51 55 -315 337 345 0
258 -11 -13 -17 -32 83 162 0
-222 33 35 36 37 -38 -81 0
78 2 3 -83 -315 426 427 456 457 0
-315 62 63 68 385 386 0
-74 72 -73 78 -315 428 0
56 57 58 83 -495 0
58 -51 56 -315 341 347 354 0
-64 -61 83 -101 -102 0
-352 63 73 -83 -253 -315 -344 382 383 396 403 428 0
72 73 -315 429 432 0
-54 -37 -39 43 338 360 0
-78 73 -315 -336 -342 0
52 -51 56 58 -315 341 354 0
-1 62 68 -85 -313 386 0
-315 -103 -104 -105 275 0
90 31 35 38 40 81 -83 281 0
-83 4 86 -169 -191 489 0
66 63 -315 381 384 392 420 0
-108 2 4 83 85 -107 0
357 51 52 -315 354 356 0
-1 73 -74 78 83 428 0
-432 2 -81 83 88 89 90 0
-3 83 495 498 0
-191 83 85 86 -176 0
54 -32 35 38 51 53 281 -313 471 0
52 51 -313 -315 0
-315 62 -68 -337 -342 0
-55 83 86 87 88 89 343 347 354 0
-54 51 52 53 62 63 67 68 83 387 411 471 0
23 -2 26 -28 -83 240 472 0
-217 31 33 35 37 81 0
-360 -55 -315 338 346 354 0
76 -62 -67 -72 191 -315 432 435 437 438 0
-315 62 63 384 385 420 0
58 -51 55 83 -101 -102 358 359 371 0
-106 63 -66 83 -102 385 0
57 51 52 58 -315 355 0
56 51 55 -81 -101 -103 -315 346 375 0
57 53 55 58 -315 348 0
-21 -28 -81 83 135 0
-102 55 58 -83 -101 -315 345 371 0
52 43 53 55 -315 371 375 0
-51 55 -315 336 337 338 375 377 0
-315 89 -103 -104 471 0
495 83 86 88 497 0
-15 161 167 182 0
-32 -13 16 -37 83 0
-54 -33 -36 43 51 -87 346 -471 0
-106 43 83 -101 -103 -105 381 420 -473 0
432 -1 -83 -315 429 440 444 0
-73 74 -315 428 -443 0
431 73 -315 426 432 439 440 456 0
78 -2 74 -103 -105 -315 426 444 0
-52 -1 -34 -57 142 -270 281 0
103 83 105 -471 0
-15 11 85 180 0
-495 83 85 501 502 503 0
-33 -142 -313 0
106 -83 -104 105 107 108 109 -337 381 471 0
-129 83 85 88 0
-81 83 88 142 -252 495 0
67 63 65 66 -315 381 402 0
-345 51 -58 -315 350 0
495 83 122 135 498 0
-315 62 -64 383 401 408 0
-74 4 72 78 -315 450 0
-81 -31 83 129 250 251 0
-396 -83 -104 105 106 107 108 471 0
-33 -23 -24 -34 315 0
-62 61 63 81 83 -216 381 0
-78 -54 -58 74 83 432 447 0
-74 -33 -37 83 221 -315 472 0
43 53 55 59 83 336 338 374 376 377 0
362 -54 -315 338 360 0
3 2 4 -43 83 427 432 498 0
-75 -55 72 73 -313 -384 0
-250 -4 -61 62 63 67 -315 381 420 0
-104 4 83 88 -103 -105 0
-107 -81 83 85 86 -105 -108 110 313 581 0
-497 83 87 502 510 0
36 34 35 37 -38 83 -471 -589 0
85 4 -12 -17 83 -103 -104 0
-85 -34 -38 83 -315 0
-578 -313 -315 0
-165 -313 -315 0
-1 -313 429 432 440 450 495 0
400 -66 -81 -101 -106 -315 0
-173 -34 43 142 272 0
57 51 55 -315 345 360 0
51 -83 0
-102 -83 -105 -106 -315 386 387 420 0
-315 62 63 383 384 387 421 422 0
-70 -51 54 -58 -68 -83 -315 350 0
67 43 68 381 382 390 411 0
-63 3 62 67 -83 382 -387 398 0
214 -22 26 -83 170 0
-15 -14 -72 73 78 -315 426 0
-360 -34 35 37 -83 471 0
-411 62 63 -315 384 420 0
382 -61 62 -315 -342 384 0
68 -62 -315 381 390 392 393 0
453 -52 -55 72 -313 427 428 429 432 0
-72 -64 -68 73 83 426 437 0
402 -63 -315 382 390 399 400 0
-65 -315 384 392 399 0
-337 -315 -336 0
-68 -69 73 74 -315 426 430 438 457 0
385 -61 -315 381 382 384 420 0
-111 -83 0
-255 -83 0
-345 -83 0
-390 -83 0
-435 -83 0
-525 -83 0
-570 -83 0
-54 -315 353 -471 0
485 -83 85 87 490 0
-471 -83 0
-255 31 34 -36 51 55 -315 375 0
475 43 83 87 88 495 0
177 31 -38 83 267 285 0
55 -51 57 -83 -101 -102 -315 0
281 34 35 -83 -101 -102 285 0
-482 -83 489 0
-83 3 4 -169 489 0
482 -83 -489 0
-315 73 -135 426 432 440 0
357 -58 -315 350 475 0
-64 -3 65 67 250 -315 0
71 72 74 -83 -268 471 0
-54 55 -315 336 337 371 375 0
68 61 62 65 67 83 0
357 59 60 -81 83 354 371 0
-63 62 65 -83 129 135 387 398 421 422 0
267 -38 -81 83 129 177 273 0
486 90 471 0
-39 34 35 37 -83 90 250 471 0
-75 -62 63 -65 73 -315 -369 405 428 0
-498 83 88 471 495 507 510 0
2 1 4 -26 -27 -81 83 85 0
-491 3 4 -83 0
-75 83 -85 -101 -104 0
-55 83 -85 -103 -104 -315 0
-336 -55 -83 -315 -489 0
-387 -51 -313 -315 0
78 -72 73 75 83 -217 0
431 -38 -40 73 74 -315 426 432 439 456 0
-315 61 390 392 393 399 400 420 0
-110 34 35 36 38 40 -81 83 -104 0
-55 51 59 -81 83 -85 359 -471 -473 0
-83 52 53 55 56 375 0
-54 55 56 -315 338 375 0
-83 -28 170 222 228 240 0
90 31 34 35 40 -83 281 471 0
71 75 -315 426 432 440 444 445 446 0
-83 -73 87 240 427 444 489 490 0
402 -62 -315 381 392 393 420 421 422 0
56 -2 55 -315 336 338 375 0
-158 83 122 -273 -315 0
462 72 73 -315 -564 -592 0
-208 -11 15 81 83 191 195 -473 0
51 83 -85 -313 371 375 0
57 -51 53 55 -315 336 0
-86 2 4 83 0
495 12 16 83 180 196 197 498 0
-58 51 52 -53 74 -78 -315 359 432 0
36 34 35 37 -52 -53 83 0
-16 -3 -17 -81 83 495 0
-15 -3 -81 85 0
-432 2 4 -81 83 0
-37 -38 -81 83 85 -432 0
-315 4 73 85 135 437 438 456 -471 474 495 496 498 0
430 73 74 -315 426 432 438 440 457 0
75 73 -315 426 432 438 439 0
-384 72 -122 -315 -387 435 0
-73 4 -83 129 432 444 0
66 65 68 -315 381 401 0
-83 11 -15 176 0
-1 4 81 83 88 -313 426 432 0
437 -1 4 -83 -315 429 432 444 0
429 -1 73 -83 -88 195 -315 432 0
73 -1 -83 -88 195 -315 429 -440 444 0
78 2 3 -83 -315 426 427 429 0
-269 51 52 54 72 -73 74 432 0
74 -64 -68 75 83 -313 426 432 0
-37 -38 51 55 -57 -315 345 0
57 53 55 58 59 -60 -90 0
80 26 27 71 72 75 -315 426 443 0
37 -56 -83 -135 250 0
-65 -55 -64 -81 83 -313 0
-315 -4 12 -16 35 -51 53 83 87 129 162 -175 176 207 255 272 345 -471 0
-55 53 -315 339 347 0
-72 2 3 73 -88 195 -315 426 0
-75 2 3 -88 195 -315 429 444 0
-315 62 63 384 386 476 0
-74 -13 -15 -83 428 450 0
101 1 83 85 102 -103 104 -105 107 109 110 0
396 -315 382 386 387 390 397 403 404 405 406 411 420 0
-106 4 83 -108 122 495 0
-106 2 4 83 85 -108 0
281 -34 35 103 -105 106 107 108 109 285 315 561 0
-81 3 83 85 88 -103 -105 108 110 0
101 -12 -17 83 -88 102 108 0
-336 -2 -83 -103 -105 0
78 -2 73 -103 -105 -315 426 0
101 4 83 -85 -103 -105 108 0
-15 -12 -17 83 87 -103 -104 495 0
440 1 4 -103 -105 129 -315 426 428 432 436 0
71 72 74 83 -85 -103 -104 -122 0
-114 83 88 482 0
-142 83 124 137 495 0
-67 62 72 73 142 -315 384 401 420 458 0
-495 83 85 -135 503 0
51 55 -85 345 371 375 0
72 1 2 4 88 111 124 -313 432 454 498 0
284 34 35 37 38 -81 -104 -110 0
104 102 105 -122 604 0
-102 -51 -83 -101 -105 -315 341 0
-51 55 57 83 -101 -102 -103 0
73 74 -81 -101 -105 -315 426 432 440 0
-74 -2 83 85 88 -315 0
-23 -13 -28 -83 0
-336 34 83 0
-441 26 27 83 -215 471 0
-129 83 88 -135 0
-362 36 -37 38 51 52 -57 59 251 268 270 277 341 349 -443 471 0
-473 -4 83 -88 103 -471 0
-160 -4 -61 63 -83 381 0
78 -3 71 72 74 83 -85 0
-59 -57 63 68 83 -315 411 0
-74 4 83 -102 -105 -315 436 472 0
75 4 72 73 -74 83 -313 -443 0
-76 -62 -66 71 -313 0
71 72 74 -122 -315 444 0
-195 -17 -83 0
-72 -11 -17 81 83 116 -217 435 0
-593 83 484 496 -575 0
-585 -34 83 122 -593 0
-142 51 55 59 345 365 0
406 62 68 -102 -105 -313 386 411 0
43 4 101 -103 -104 106 107 109 110 -471 0
-108 -12 -17 83 85 -105 -107 0
-58 55 56 -72 -78 -83 375 0
71 -72 73 75 76 -83 -397 453 0
-83 -313 0
440 1 2 3 73 83 142 313 426 428 0
-73 3 4 83 88 -313 432 440 0
74 2 72 -85 -313 432 0
78 -1 3 73 -83 429 432 0
-38 2 4 -34 83 313 477 0
-78 73 -81 83 85 142 -315 440 0
75 3 4 72 74 78 -83 0
-315 74 75 -122 432 440 -471 0
-52 -55 78 -83 427 0
78 3 4 43 72 -83 -315 429 435 0
78 73 -135 -315 426 0
-15 -14 73 78 -315 426 429 0
-26 -28 0
-352 31 -32 38 -83 270 281 0
-3 24 -26 -81 83 -88 201 221 0
-471 83 105 -498 0
439 3 4 83 122 285 -313 429 432 438 440 495 0
-38 31 34 73 -78 -83 -315 432 0
104 -55 -83 87 105 490 0
108 -55 -83 -85 105 0
-55 -85 -105 106 -471 0
-74 4 -55 83 313 428 472 0
59 -55 60 -81 -85 -315 346 -471 0
-68 61 -62 63 -65 67 -69 74 -315 391 411 426 427 428 434 440 449 0
55 34 58 -83 -315 336 337 0
-52 -38 -40 -51 -83 0
-64 -51 -52 -54 -315 0
-54 -51 -52 -74 -315 0
-52 -38 -51 55 73 74 -83 0
-55 -1 -315 339 346 354 0
-22 -16 -17 -27 -31 -32 34 38 -83 0
-83 -2 23 -28 170 228 0
-227 4 83 87 -218 496 0
-76 -62 -66 -74 83 0
53 -37 -38 55 -83 336 0
53 -1 51 -315 346 0
384 -1 65 -83 129 386 387 392 420 0
582 83 105 -473 0
-81 -88 105 0
-104 4 83 85 -103 -582 0
-64 -66 83 -103 -104 135 0
-337 52 -83 -104 105 106 109 381 587 588 0
-485 -83 105 563 578 0
-2 83 85 88 102 105 588 604 0
88 4 83 -104 -105 106 107 109 110 588 0
105 3 4 -83 85 -108 482 563 0
-64 51 -55 83 -101 -102 -313 406 420 0
-74 83 -129 135 285 -313 428 432 436 444 457 0
-88 -1 -74 83 285 450 0
583 4 83 85 102 -103 105 -108 110 580 581 0
-579 83 -471 561 564 572 585 593 0
-20 -17 83 -102 105 -216 471 0
440 -85 -313 342 349 371 432 -471 0
-83 -16 27 28 35 38 236 250 251 0
56 -51 83 -101 -102 341 342 0
-75 -1 72 73 78 -102 -105 -315 0
-1 4 88 -313 386 387 395 420 0
122 2 3 4 -83 -169 382 386 420 0
122 3 4 -83 88 -315 432 0
-432 -38 -83 0
-142 -15 0
-15 3 4 -17 -34 83 85 336 471 0
-15 -13 83 85 88 0
-74 -34 -75 -83 0
-73 3 4 -83 240 432 0
-83 -81 0
-13 -3 -83 0
-83 -14 -34 -36 181 0
-62 34 37 38 -83 175 247 0
-135 3 4 -83 88 0
75 -38 -40 73 74 -315 426 0
-24 1 -4 -23 83 0
72 43 62 63 73 -315 386 432 0
52 51 55 57 -315 337 338 0
357 52 55 56 57 -315 0
194 11 -13 15 52 -55 83 86 87 339 360 498 0
-315 -31 -51 52 58 -206 354 0
85 2 4 83 88 0
3 2 4 -43 83 88 432 498 0
-65 2 -66 83 88 496 0
-73 -2 72 83 85 88 -313 444 0
-336 73 75 -83 -342 427 0
-79 3 4 73 -83 -89 429 0
-444 3 71 72 -73 74 78 -85 129 135 -315 450 0
34 35 37 38 -83 -104 105 108 471 0
-72 78 -83 -102 -104 429 0
-114 83 88 -135 0
-471 4 11 -13 -16 17 -103 482 0
-28 -27 55 -315 336 337 338 345 0
-17 -13 -16 -32 83 0
11 -13 -16 83 -105 -579 0
34 2 4 83 88 -103 -105 108 0
-166 11 15 16 34 83 0
11 13 16 34 83 195 0
43 -34 83 281 496 497 498 0
-173 4 16 83 -103 -104 0
562 83 -88 105 0
-214 26 28 31 34 -37 38 -83 0
440 -2 74 -81 83 85 -103 -105 142 -315 426 0
595 4 85 101 102 -103 -105 106 107 109 -471 0
74 3 -51 52 54 -55 60 83 -105 -108 -122 135 -315 432 437 440 -471 0
339 -31 -38 -51 142 341 342 0
-315 -4 54 -55 -81 -103 104 336 338 346 353 0
52 56 83 -105 -603 0
-74 -28 -30 72 73 83 -101 -102 450 0
-109 1 3 15 17 -104 135 142 0
-76 4 -81 83 85 88 -456 497 0
-83 -1 384 386 387 392 399 420 0
34 83 -88 103 0
34 35 37 -38 83 -175 0
43 83 -104 -105 107 108 109 110 162 -578 0
-15 3 4 -34 83 85 336 471 0
-74 -2 -64 -66 83 -101 -102 441 454 455 0
56 -51 52 -55 83 -603 0
-219 -23 0
-232 -27 0
-35 -27 0
-83 -11 0
-472 -315 0
-455 -442 0
-449 -487 0
-410 -487 0
-404 -487 0
-359 -487 0
-454 -486 0
-409 -486 0
-364 -486 0
-14 182 0
604 -1 103 104 105 106 0
572 103 104 108 0
593 101 103 104 106 0
563 102 103 108 0
588 101 103 106 107 109 110 0
22 21 23 27 0
163 14 15 20 161 165 196 0
585 101 102 108 0
66 61 63 67 68 0
69 61 63 65 66 420 0
206 22 23 29 30 240 0
428 -71 426 429 432 0
455 -71 426 430 432 433 457 0
365 -60 344 345 347 354 377 0
275 -40 254 262 284 287 0
215 29 30 207 218 236 0
244 -30 239 242 0
423 -69 388 390 391 411 421 0
-75 -52 -55 -83 0
63 62 -83 104 105 106 0
430 -1 -76 -83 0
-65 61 -83 -102 -105 0
-78 34 -38 -72 -83 0
-58 34 37 -38 -83 0
90 34 -38 40 -83 252 0
-88 -83 104 105 0
-53 -83 104 105 0
-63 -83 104 105 -106 0
101 -83 105 108 0
13 -15 -83 0
180 16 -83 165 0
228 26 27 -83 207 0
-3 26 27 -83 0
493 -83 90 0
-165 -22 -28 -83 0
1 3 -22 -28 -83 135 0
-4 -14 -83 0
71 -74 -83 -102 -104 0
4 -13 -63 -66 -83 0
-492 -83 135 -142 0
-108 -83 -103 -107 0
-403 71 72 74 -83 0
75 4 72 78 -83 0
-359 61 62 64 -83 0
-449 61 62 64 -83 0
241 -27 30 201 221 227 0
-352 71 74 -83 -350 0
388 -69 -83 -486 0
89 -83 90 0
428 -74 83 122 135 -313 450 0
177 34 -38 252 285 0
-201 34 83 0
267 -38 83 273 285 0
-13 -15 27 -28 37 -38 83 0
-86 51 52 56 57 83 0
354 51 57 59 60 83 0
495 -13 -15 83 0
167 -15 174 182 0
89 -51 -53 -72 -73 90 0
444 -51 -55 -75 -81 83 0
-108 83 -104 -105 -107 0
562 83 -105 108 -495 0
87 83 101 102 103 -105 -106 0
-85 -55 -83 -103 0
-108 -83 -102 -107 0
108 83 103 -471 0
-20 -17 -24 -27 -34 39 0
289 -38 -57 -58 -67 -69 0
-79 -38 -78 285 0
-495 51 55 56 57 0
-4 -24 -28 0
-81 103 105 0
101 105 106 108 0
191 -11 -16 -21 26 27 -28 -61 62 67 398 0
390 13 -16 17 21 23 -26 236 0
-24 -14 -15 0
438 -15 -52 -57 0
262 31 34 37 39 0
56 -51 -55 57 58 -81 0
187 16 -22 -62 63 -67 381 0
-433 -11 16 -21 187 0
-106 -15 -83 0
-58 -55 -73 -83 0
-52 -55 -83 -103 -105 0
-62 -63 -83 0
-101 -65 -83 -85 -103 0
-101 -75 -83 -85 -103 0
-86 -58 -83 0
-78 -53 -58 -83 0
-53 -83 -101 -102 0
-32 -33 -83 0
-108 -15 -106 0
-12 -14 0
-54 -55 -102 -105 0
-61 -62 -81 0
-71 -72 -81 0
-101 -55 -85 -102 0
-19 -17 -35 0
451 -35 -54 -57 0
-52 -35 -54 0
-80 -75 -105 -106 0
-108 -14 -105 0
-23 -13 -14 -105 -110 0
-108 -28 -58 -59 -103 -110 0
101 103 104 108 0
109 101 102 103 106 110 0
-102 -14 -104 0
-570 -11 -12 23 26 27 -30 -43 83 484 496 -582 0
-28 4 -103 105 -108 161 -313 -582 -603 0
-473 83 105 474 496 497 0
-72 -65 -102 105 -108 197 199 -313 438 446 582 -603 0
-603 105 -108 161 -313 0
-15 -17 103 105 -108 571 603 0
16 105 -108 161 -313 0
-3 -38 201 205 213 221 -313 473 0
-81 -27 -28 -313 340 375 -495 0
81 -3 -12 -16 23 -28 33 38 -43 -85 -102 -103 114 165 201 215 226 -227 236 -313 375 406 420 0
101 103 104 105 109 571 0
398 21 -28 61 62 -64 -68 83 218 240 387 471 0
17 13 -22 -26 390 0
432 -1 -43 -62 -65 -313 429 0
-74 2 4 -62 -65 83 -88 285 0
63 26 27 -62 68 81 -215 386 391 411 0
12 16 36 38 -313 0
248 -28 35 37 -38 206 -313 0
-12 -2 -17 103 104 109 110 561 0
-12 1 4 -15 -17 -24 27 -28 -43 83 88 -104 105 0
12 14 16 36 38 -313 0
-272 26 -34 -43 -103 104 -105 106 107 270 -273 277 570 0
-73 4 -313 432 435 444 0
-122 -103 105 110 561 563 571 0
-104 -23 27 -103 -110 269 0
-72 -17 -20 73 426 436 441 575 0
66 -2 16 27 -28 61 62 65 85 88 187 -313 386 387 0
-68 4 26 27 62 85 88 -313 383 387 415 422 0
-27 -17 -20 -34 -108 -110 201 221 241 242 0
-24 27 -43 229 579 0
-23 -13 -17 27 -108 -110 224 0
-60 -313 344 377 591 0
20 -13 15 16 37 -39 -161 -313 0
-110 16 -19 -34 40 -105 0
-29 27 201 223 229 0
-105 -34 -40 -43 315 561 593 0
-4 -34 35 -37 103 -105 315 561 0
106 4 -55 102 -103 105 107 109 110 -313 0
104 -26 -27 102 105 109 561 604 0
-220 1 4 15 17 0
-73 3 -24 -43 135 -313 427 0
-38 -24 -34 -37 0
-216 61 -62 63 83 471 0
-177 1 4 15 17 0
-579 -122 561 578 588 593 594 595 0
-381 -313 0
43 4 -40 272 -313 593 604 0
-161 32 38 -160 -313 0
16 15 -34 164 176 196 471 0
-108 4 -12 -17 -23 -27 -30 83 102 103 -105 109 110 0
-102 -75 -105 -313 429 0
-16 1 4 14 160 -313 0
-62 21 63 81 218 236 240 -313 0
16 105 161 -313 471 561 0
-176 105 -165 561 0
-110 -14 15 16 -34 -108 0
-35 -11 -16 21 27 38 -313 0
-105 11 17 83 -103 0
-286 15 -16 24 -26 -27 161 165 205 220 -251 0
-471 83 103 593 0
28 -313 0
-35 103 105 571 603 0
68 51 -54 61 62 66 -313 0
-35 -34 102 -105 108 110 578 0
-135 102 -105 108 110 578 0
88 4 -63 -64 -68 83 85 0
-16 38 168 272 -313 0
285 -23 27 -38 -313 0
-16 4 -23 27 -313 0
-23 1 -16 17 135 221 0
-4 -34 102 105 110 578 603 0
-227 -27 -214 250 -313 0
-55 -85 -101 105 -313 562 0
-371 32 35 38 -313 -340 0
-35 -23 27 -313 0
21 2 27 -38 81 252 270 -285 -313 589 0
23 24 27 35 37 38 217 250 -313 0
-215 -51 55 57 -58 81 -243 -313 -344 0
-64 -61 83 -101 103 105 0
-16 1 4 160 -313 0
-63 62 -101 -313 0
-55 62 -101 -105 -313 0
-486 55 58 -59 358 0
-59 62 -101 -105 -313 0
61 62 67 68 -102 -105 -313 0
-375 27 -38 -313 0
-90 27 62 -101 -105 -313 0
-38 27 55 59 90 -101 -105 -313 0
60 53 55 58 59 337 346 371 0
-16 -1 -105 -313 -579 0
24 23 27 37 38 81 261 -313 0
23 27 62 -101 -105 -313 0
-51 55 58 340 -371 0
-495 -1 -313 429 432 0
-1 27 -30 -43 62 -101 -105 -313 0
432 3 -73 135 -313 429 437 450 0
-495 1 -23 27 -30 38 -43 62 63 90 -105 -313 -564 0
37 1 15 27 -30 62 65 81 -101 103 -105 135 218 -313 437 450 0
-64 15 16 27 -30 -37 62 65 -101 103 -105 -313 409 0
-37 15 27 -30 62 65 -101 103 -105 135 -313 409 0
64 15 16 -30 35 37 38 62 65 -101 261 -313 0
-61 -2 16 27 -30 37 62 -64 65 81 -101 102 103 -105 218 -313 0
106 16 -19 35 37 38 102 103 -105 261 -313 566 604 0
