p cnf 616 6429
-111 -125 117 0
-114 -142 116 0
-129 -122 120 0
-129 -131 142 0
-137 -142 135 0
-157 -156 165 0
-160 -156 168 0
-156 -161 169 0
156 -169 -161 0
-156 -163 171 0
-156 -172 164 0
-175 -157 160 0
-160 -175 157 0
-157 -176 161 0
-157 -161 176 0
-176 -161 157 0
-177 -157 162 0
-157 -162 177 0
-177 -162 157 0
-163 -178 157 0
-157 -179 164 0
-179 157 -164 0
-160 -158 181 0
-160 -181 158 0
-182 -161 158 0
-162 -158 183 0
-159 -161 187 0
-160 -191 161 0
-160 -161 191 0
-191 -161 160 0
-160 -193 163 0
-160 -163 193 0
-163 -193 160 0
-160 -194 164 0
-160 194 -164 0
-194 160 -164 0
-195 -161 162 0
-162 -161 195 0
-196 -161 163 0
-163 -161 196 0
-197 -161 164 0
-161 197 -164 0
-197 161 -164 0
-199 162 -164 0
-175 -165 168 0
-168 -165 175 0
-168 -175 165 0
-176 -165 169 0
-169 -165 176 0
-169 -176 165 0
170 -177 -165 0
-170 -165 177 0
-172 179 -165 0
-181 -166 168 0
-168 -166 181 0
-168 -181 166 0
-166 -182 169 0
-169 -166 182 0
-169 -182 166 0
-187 -167 169 0
-169 -167 187 0
-187 -169 167 0
-191 -168 169 0
-169 -168 191 0
-169 -191 168 0
-168 -193 171 0
-168 172 -194 0
-168 -172 194 0
-194 -172 168 0
-195 170 -169 0
-195 -170 169 0
-169 -196 171 0
-169 -172 197 0
-197 -172 169 0
-174 -180 173 0
-181 -173 175 0
-175 -173 181 0
-176 -173 182 0
-176 -182 173 0
-177 -173 183 0
-184 -173 178 0
-176 -174 187 0
-191 -175 176 0
-175 -176 191 0
-191 -176 175 0
-175 -193 178 0
-195 -176 177 0
-177 -176 195 0
-195 -177 176 0
-176 -196 178 0
-179 -197 176 0
-177 -178 198 0
-187 -180 182 0
-180 -182 187 0
-187 -182 180 0
-191 -181 182 0
-181 -182 191 0
-191 -182 181 0
-181 -193 184 0
-181 -194 185 0
-185 -194 181 0
-195 -182 183 0
-196 -182 184 0
-184 -196 182 0
-197 -182 185 0
-185 -197 182 0
-183 -184 198 0
-191 -196 193 0
-191 -193 196 0
-191 -197 194 0
-191 -194 197 0
-195 -197 199 0
-197 -199 195 0
-201 -211 203 0
-201 -213 205 0
-201 -205 213 0
-205 -213 201 0
-201 -214 206 0
-206 -201 214 0
-206 -214 201 0
-215 -201 207 0
-207 -201 215 0
-215 -207 201 0
-201 -216 208 0
-201 -208 216 0
-216 -208 201 0
-201 -217 209 0
-201 -209 217 0
-217 -209 201 0
-202 203 -218 0
-220 -202 205 0
-202 -221 206 0
-206 202 -221 0
-222 -202 207 0
-207 -202 222 0
-207 -222 202 0
202 -223 -208 0
-226 -203 205 0
-205 -226 203 0
-203 -227 206 0
-206 -203 227 0
-206 203 -227 0
-228 -203 207 0
-207 -203 228 0
-207 -228 203 0
-230 -203 209 0
-230 -209 203 0
-206 -204 232 0
-205 -236 206 0
-205 -206 236 0
-206 -236 205 0
-205 -238 208 0
-205 -239 209 0
-205 239 -209 0
-239 -209 205 0
-240 -206 207 0
-207 -206 240 0
-240 -207 206 0
-206 -241 208 0
-241 -208 206 0
-206 -242 209 0
-206 -209 242 0
-242 -209 206 0
-207 -243 208 0
-207 -208 243 0
-244 -209 207 0
-226 -213 211 0
-214 -211 227 0
-214 -227 211 0
-228 -211 215 0
-215 -211 228 0
-215 -228 211 0
-211 -229 216 0
-216 -211 229 0
-216 -229 211 0
-211 -230 217 0
-211 -217 230 0
-230 -217 211 0
-236 -213 214 0
-214 -213 236 0
-214 -236 213 0
-213 -238 216 0
-216 -213 238 0
-216 -238 213 0
-213 -217 239 0
-217 -239 213 0
-240 -214 215 0
-215 -214 240 0
-215 -240 214 0
-214 -241 216 0
-214 -216 241 0
-216 -241 214 0
-214 -217 242 0
-217 -242 214 0
-215 -243 216 0
-215 -216 243 0
-216 -243 215 0
-215 -244 217 0
-215 -217 244 0
-217 -244 215 0
-225 -218 219 0
-226 -218 220 0
-220 -218 226 0
-220 -226 218 0
-227 -218 221 0
-221 -218 227 0
-221 -227 218 0
-228 -218 222 0
-222 -218 228 0
-222 -228 218 0
-229 223 -218 0
-223 -218 229 0
-230 224 -218 0
-230 -224 218 0
-219 232 -221 0
-236 -220 221 0
-220 -221 236 0
-236 -221 220 0
-240 222 -221 0
-222 -221 240 0
-240 -222 221 0
-241 223 -221 0
-223 -221 241 0
-241 -223 221 0
-242 224 -221 0
-224 -221 242 0
-222 -243 223 0
-222 -244 224 0
-244 -224 222 0
-225 -232 227 0
-236 -226 227 0
-226 -227 236 0
-236 -227 226 0
-226 -229 238 0
-229 -238 226 0
-226 -230 239 0
-230 -239 226 0
-240 -227 228 0
-228 -227 240 0
-240 -228 227 0
-241 -227 229 0
-229 -227 241 0
-229 -241 227 0
-242 -227 230 0
-230 -227 242 0
-230 -242 227 0
-228 -243 229 0
-229 -243 228 0
-228 -244 230 0
-230 -244 228 0
-236 -241 238 0
-236 -238 241 0
-238 -241 236 0
-236 -242 239 0
-236 -239 242 0
-239 -242 236 0
-240 -243 241 0
-240 -241 243 0
-243 -241 240 0
-240 -244 242 0
-240 -242 244 0
-242 -244 240 0
-246 -247 255 0
-255 -247 246 0
248 -246 -256 0
-248 -256 246 0
-250 -246 258 0
-250 -258 246 0
-259 -246 251 0
-251 -246 259 0
-259 -251 246 0
-252 -246 260 0
-252 -260 246 0
-253 -246 261 0
-253 -261 246 0
-254 -246 262 0
-265 -247 250 0
-250 -247 265 0
-250 -265 247 0
-266 -247 251 0
-251 -247 266 0
-247 -267 252 0
-252 -247 267 0
-252 -267 247 0
-269 -247 254 0
-249 -248 270 0
-271 -248 250 0
-250 -248 271 0
-271 248 -250 0
-272 -248 251 0
-251 -248 272 0
248 -251 -272 0
-248 -273 252 0
273 -252 -248 0
248 -252 -273 0
-274 -248 253 0
-277 -249 251 0
-281 -250 251 0
-250 -251 281 0
-281 -251 250 0
-284 -250 254 0
-285 -251 252 0
-252 -251 285 0
-285 -252 251 0
-286 -251 253 0
-253 -251 286 0
-251 -287 254 0
-254 -251 287 0
-288 -252 253 0
-288 -253 252 0
-289 -252 254 0
263 -255 -256 0
-258 -255 265 0
-255 -266 259 0
-255 -259 266 0
-266 -259 255 0
-255 260 -267 0
-255 -260 267 0
-260 -267 255 0
-268 -255 261 0
-261 -255 268 0
-269 -255 262 0
-257 270 -256 0
-271 256 -258 0
-272 -256 259 0
256 -259 -272 0
-256 260 -273 0
-274 -256 261 0
-261 -256 274 0
256 -274 -261 0
-275 -256 262 0
-262 275 -256 0
-257 -259 277 0
-281 -258 259 0
-258 -259 281 0
-281 -259 258 0
-283 -261 258 0
284 -258 -262 0
-284 -262 258 0
-285 -259 260 0
-259 -260 285 0
-285 -260 259 0
-286 -259 261 0
-261 -259 286 0
-286 -261 259 0
-259 -287 262 0
-259 -262 287 0
-287 -262 259 0
-273 -263 267 0
-274 -263 268 0
-275 -263 269 0
-281 -265 266 0
-265 -266 281 0
-281 -266 265 0
-284 -265 269 0
-269 284 -265 0
-266 -285 267 0
-285 -267 266 0
-286 -266 268 0
-268 -266 286 0
-266 -287 269 0
-269 -266 287 0
-288 -267 268 0
-269 -267 289 0
-277 -272 270 0
-281 -271 272 0
-271 -272 281 0
-281 -272 271 0
-271 -283 274 0
-271 -274 283 0
-271 -284 275 0
-271 284 -275 0
-284 -275 271 0
273 -285 -272 0
-272 -273 285 0
-285 272 -273 0
-286 -272 274 0
-274 -272 286 0
-286 -274 272 0
-287 275 -272 0
-272 -275 287 0
-287 272 -275 0
-288 -273 274 0
-274 -273 288 0
-289 275 -273 0
-275 -273 289 0
-289 273 -275 0
-281 -286 283 0
-281 -283 286 0
-281 284 -287 0
-281 -284 287 0
-288 -285 286 0
-286 -285 288 0
-288 -286 285 0
-289 -285 287 0
-285 -287 289 0
-336 -337 345 0
-345 -337 336 0
-336 -346 338 0
-338 -336 346 0
-336 -347 339 0
-336 -339 347 0
-339 -347 336 0
-336 -348 340 0
-340 -336 348 0
-340 -348 336 0
-336 -349 341 0
-336 -341 349 0
-341 -349 336 0
-336 -350 342 0
-336 -342 350 0
-350 -342 336 0
-336 -343 351 0
-343 -351 336 0
-336 -344 352 0
-344 -352 336 0
-337 -353 338 0
-338 -337 353 0
-338 -353 337 0
-337 -354 339 0
-339 -337 354 0
-339 -354 337 0
-337 340 -355 0
-340 -337 355 0
-340 -355 337 0
-337 -356 341 0
-341 -337 356 0
-341 -356 337 0
-357 -337 342 0
-337 -342 357 0
-357 -342 337 0
-343 -337 358 0
-344 -337 359 0
-338 -360 339 0
-338 -339 360 0
-339 -360 338 0
-338 -340 361 0
-338 -341 362 0
-362 -341 338 0
-338 -363 342 0
-338 -342 363 0
-363 -342 338 0
-338 -343 364 0
-340 -366 339 0
-339 -367 341 0
-341 -339 367 0
-339 -368 342 0
-339 368 -342 0
-343 -339 369 0
-339 -370 344 0
-344 -339 370 0
-344 -370 339 0
-340 -371 341 0
-340 -341 371 0
-341 340 -371 0
-340 -373 343 0
-340 -344 374 0
-344 -374 340 0
-341 -375 342 0
-341 -342 375 0
-342 -375 341 0
-341 -376 343 0
-341 -343 376 0
-343 -376 341 0
-341 -377 344 0
-341 -344 377 0
-344 -377 341 0
-343 -342 378 0
-378 -343 342 0
-342 -379 344 0
-344 -342 379 0
-344 -379 342 0
-345 -354 347 0
-345 -347 354 0
-347 -354 345 0
-345 -355 348 0
-348 -355 345 0
-345 -356 349 0
-357 -345 350 0
-345 -350 357 0
-357 -350 345 0
-352 -345 359 0
-346 -360 347 0
-360 -347 346 0
-361 -348 346 0
-362 -349 346 0
-350 -363 346 0
-349 -367 347 0
-350 -368 347 0
-347 -370 352 0
-352 -370 347 0
-348 -371 349 0
-348 -349 371 0
-349 -371 348 0
-349 350 -375 0
-350 -375 349 0
-349 -377 352 0
-352 -377 349 0
-351 -350 378 0
-360 -353 354 0
-353 -356 362 0
-357 -353 363 0
-367 -356 354 0
-354 -370 359 0
-359 -354 370 0
-359 -370 354 0
-355 -371 356 0
-356 -371 355 0
-374 -355 359 0
-375 -356 357 0
-357 -356 375 0
-357 -375 356 0
-377 -356 359 0
-359 -356 377 0
-359 -377 356 0
-360 -370 365 0
-365 -370 360 0
-361 -371 362 0
-363 -375 362 0
-362 -377 365 0
-378 -363 364 0
-363 -379 365 0
374 -366 -370 0
368 -367 -375 0
-377 -367 370 0
-370 -367 377 0
-377 367 -370 0
-373 -371 376 0
-373 -376 371 0
374 -377 -371 0
-374 -371 377 0
-374 -377 371 0
-378 -375 376 0
-379 -375 377 0
-377 -375 379 0
-379 -377 375 0
-390 -381 382 0
-382 -381 390 0
-390 -382 381 0
-391 -381 383 0
-383 -381 391 0
-381 -392 384 0
-381 -384 392 0
-393 -381 385 0
-381 -385 393 0
-393 -385 381 0
-394 -381 386 0
-386 -381 394 0
-394 -386 381 0
-381 -395 387 0
-387 -381 395 0
-387 -395 381 0
-381 -396 388 0
-388 -381 396 0
-388 -396 381 0
-397 -381 389 0
-389 -381 397 0
-398 -382 383 0
-383 -398 382 0
-382 -399 384 0
-382 -384 399 0
-382 -400 385 0
-382 -385 400 0
-400 -385 382 0
-382 -401 386 0
-382 -386 401 0
-386 -401 382 0
-382 -402 387 0
-387 -382 402 0
-387 -402 382 0
-388 -382 403 0
-389 -382 404 0
-383 -405 384 0
-383 -384 405 0
-384 -405 383 0
-383 -406 385 0
-383 -385 406 0
-385 -406 383 0
-383 -407 386 0
-383 -386 407 0
-386 -407 383 0
-383 -408 387 0
-383 -387 408 0
-387 -408 383 0
-383 -409 388 0
-383 -388 409 0
-383 -410 389 0
-383 -389 410 0
-410 -389 383 0
-384 -411 385 0
-385 -384 411 0
-385 -411 384 0
-384 -412 386 0
-386 -384 412 0
-386 -412 384 0
-413 -384 387 0
-387 -413 384 0
-389 -384 415 0
-389 -415 384 0
-417 -385 387 0
-387 417 -385 0
-385 -418 388 0
-388 -385 418 0
-389 -385 419 0
-386 -420 387 0
-387 -386 420 0
-387 -420 386 0
-421 -386 388 0
-388 -386 421 0
-389 -386 422 0
-389 -422 386 0
-387 -423 388 0
-387 -388 423 0
-387 -424 389 0
-387 -389 424 0
-390 -399 392 0
-390 -392 399 0
-390 -400 393 0
-393 -390 400 0
-390 -401 394 0
-390 -394 401 0
-394 -401 390 0
-390 -402 395 0
-390 -395 402 0
-402 -395 390 0
-390 -396 403 0
-390 -397 404 0
-405 -392 391 0
-393 -406 391 0
-394 -407 391 0
-395 -408 391 0
-391 -397 410 0
-410 -397 391 0
-411 -392 393 0
-393 -392 411 0
-393 -411 392 0
-394 -412 392 0
-392 -395 413 0
-393 417 -395 0
-394 -420 395 0
-394 -395 420 0
-395 -420 394 0
-394 -421 396 0
-394 -396 421 0
-394 -422 397 0
-394 -397 422 0
-395 -396 423 0
-397 -395 424 0
-398 -405 399 0
-399 -405 398 0
-398 -406 400 0
-402 -408 398 0
-399 -411 400 0
-400 -411 399 0
-399 -414 403 0
-401 -420 402 0
-421 -401 403 0
-411 -405 406 0
-405 -406 411 0
-411 -406 405 0
-405 -408 413 0
-410 -405 415 0
-417 -406 408 0
-410 -406 419 0
-408 -420 407 0
-422 -407 410 0
-410 -407 422 0
-423 -408 409 0
-409 -408 423 0
-423 -420 421 0
-421 -420 423 0
-424 -420 422 0
-422 -420 424 0
-426 -435 427 0
-427 -426 435 0
-427 -435 426 0
-436 -426 428 0
-428 -436 426 0
-437 -426 429 0
-429 -426 437 0
-437 -429 426 0
-426 -438 430 0
-426 -430 438 0
-438 -430 426 0
-426 -431 439 0
-426 -440 432 0
-432 -426 440 0
-432 -440 426 0
-426 -441 433 0
-426 -433 441 0
-426 -442 434 0
-426 -434 442 0
-442 -434 426 0
-427 -443 428 0
-428 -427 443 0
-428 -443 427 0
-444 -427 429 0
-429 -427 444 0
-444 -429 427 0
-447 -427 432 0
-432 -447 427 0
-428 -450 429 0
-428 -429 450 0
-429 -450 428 0
-428 -430 451 0
-428 -431 452 0
-453 -428 432 0
-428 -432 453 0
-453 -432 428 0
-428 -433 454 0
-428 -434 455 0
-429 -456 430 0
-429 456 -430 0
-429 -457 431 0
-429 457 -431 0
-458 -429 432 0
-432 -429 458 0
-458 -432 429 0
-429 459 -433 0
-429 -434 460 0
-432 -462 430 0
-432 -468 433 0
-432 -433 468 0
-432 -469 434 0
-432 -434 469 0
-437 -435 444 0
-435 -438 445 0
-446 -435 439 0
-439 -435 446 0
-447 -435 440 0
-435 -440 447 0
-447 -440 435 0
-435 -441 448 0
-435 -449 442 0
-435 -442 449 0
-442 -449 435 0
-437 -436 450 0
-437 -450 436 0
-436 -451 438 0
-438 -451 436 0
-439 -436 452 0
-453 -440 436 0
-436 -442 455 0
-455 -442 436 0
-437 -456 438 0
-437 -457 439 0
-437 -439 457 0
-439 -457 437 0
-458 -440 437 0
-437 -442 460 0
-442 -460 437 0
-438 462 -440 0
-439 440 -465 0
-468 -440 441 0
-441 -440 468 0
-440 442 -469 0
-442 -440 469 0
-442 440 -469 0
-443 -450 444 0
-444 -443 450 0
-444 -450 443 0
-443 -451 445 0
-447 -443 453 0
-453 -447 443 0
-443 -455 449 0
-444 -456 445 0
-444 -457 446 0
-444 -447 458 0
-458 -447 444 0
-445 -447 462 0
-447 -462 445 0
-447 446 -465 0
-447 -468 448 0
-447 -448 468 0
-447 449 -469 0
-447 -449 469 0
-456 -450 451 0
-450 456 -451 0
-453 -450 458 0
-453 -458 450 0
-454 -459 450 0
-450 -455 460 0
-453 462 -451 0
-453 -454 468 0
-453 -469 455 0
-453 -455 469 0
-458 -462 456 0
-459 -456 463 0
-458 -460 469 0
475 -483 -471 0
-483 -475 471 0
-479 487 -471 0
472 -475 -490 0
491 -476 -472 0
474 -495 -473 0
495 -474 -473 0
473 -474 -495 0
475 -496 -473 0
496 -475 -473 0
473 -496 -475 0
476 -497 -473 0
-476 497 -473 0
-476 473 -497 0
477 -473 -498 0
-477 498 -473 0
478 -499 -473 0
-478 499 -473 0
-473 -500 479 0
501 -474 -475 0
-502 -476 474 0
505 -482 -487 0
-507 483 -485 0
501 -489 -490 0
501 -496 -495 0
502 -497 -495 0
-503 498 -495 0
503 -495 -498 0
-507 498 -496 0
-510 497 -498 0
-534 -525 527 0
-546 -534 535 0
-534 -550 539 0
-540 -550 545 0
-546 -550 554 0
-570 562 -561 0
-562 570 -561 0
-570 -562 561 0
-571 563 -561 0
-563 571 -561 0
-571 -563 561 0
-572 564 -561 0
572 -564 -561 0
-572 -564 561 0
-573 565 -561 0
-565 573 -561 0
-575 567 -561 0
-567 575 -561 0
-575 -567 561 0
-568 576 -561 0
-562 -578 563 0
-562 -563 578 0
-578 -563 562 0
-579 -562 564 0
-562 579 -564 0
-579 -564 562 0
-580 -562 565 0
-582 -562 567 0
-562 -567 582 0
-582 -567 562 0
-585 -563 564 0
-563 -564 585 0
-585 -564 563 0
-586 -565 563 0
-563 -566 587 0
-563 -567 588 0
-591 -564 565 0
-592 566 -564 0
592 -566 -564 0
-593 567 -564 0
593 -567 -564 0
-593 -567 564 0
-579 -570 572 0
-570 -572 579 0
-579 -572 570 0
-580 -570 573 0
-570 -582 575 0
-575 -570 582 0
-575 -582 570 0
-571 -585 572 0
-572 -571 585 0
-572 -585 571 0
-575 -588 571 0
-571 -589 576 0
-591 -572 573 0
-573 -591 572 0
-592 -572 574 0
-593 -572 575 0
-575 -572 593 0
-575 -574 600 0
-575 -600 574 0
-575 -603 576 0
-576 -603 575 0
-585 -578 579 0
-579 -578 585 0
-579 -585 578 0
-580 -578 586 0
-587 -578 581 0
-581 -578 587 0
-588 -578 582 0
-582 -578 588 0
-588 -582 578 0
583 -578 -589 0
-583 -578 589 0
-579 -591 580 0
-579 -580 591 0
-592 -579 581 0
-579 -581 592 0
-579 -593 582 0
-579 -582 593 0
-593 -582 579 0
-579 -594 583 0
-579 -583 594 0
-579 584 -595 0
-579 -584 595 0
-580 -582 597 0
-597 -582 580 0
-581 -582 600 0
-582 -600 581 0
-582 583 -603 0
-583 -603 582 0
-604 -582 584 0
-582 -584 604 0
-604 -584 582 0
583 -584 -605 0
-591 -585 586 0
-586 -585 591 0
-587 -585 592 0
-593 -585 588 0
-588 -585 593 0
-593 -588 585 0
-594 -585 589 0
-585 590 -595 0
-590 -595 585 0
-588 -597 586 0
-588 -587 600 0
-588 -600 587 0
-588 589 -603 0
-588 -589 603 0
-589 -603 588 0
-588 -604 590 0
-588 -590 604 0
-590 -604 588 0
-590 -589 605 0
-593 -591 597 0
-593 -597 591 0
-593 592 -600 0
-592 -595 602 0
-602 592 -595 0
-593 -603 594 0
-593 -594 603 0
-594 593 -603 0
-593 -604 595 0
-593 -595 604 0
-604 -600 602 0
-604 -602 600 0
-604 -603 605 0
156 -12 -11 0
157 -13 -11 0
158 -14 -11 0
-15 159 -11 0
-16 160 -11 0
-17 161 -11 0
-19 163 -11 0
164 -11 -20 0
-12 -13 165 0
-12 -15 167 0
-12 -16 168 0
-12 -17 169 0
172 -12 -20 0
-14 -13 173 0
-13 -15 174 0
-13 -16 175 0
-13 -17 176 0
178 -19 -13 0
179 -13 -20 0
181 -14 -16 0
182 -14 -17 0
-16 -17 191 0
-19 -16 193 0
194 -16 -20 0
-19 -17 196 0
-17 197 -20 0
202 -21 -23 0
-21 203 -24 0
-21 -26 205 0
-21 -27 206 0
-21 -28 207 0
-21 -29 208 0
-21 -30 209 0
-22 211 -24 0
-22 -26 213 0
-22 -27 214 0
-22 -28 215 0
-22 -29 216 0
-22 -30 217 0
-23 -24 218 0
-23 -26 220 0
-23 -27 221 0
-23 -28 222 0
223 -29 -23 0
224 -30 -23 0
226 -26 -24 0
227 -27 -24 0
-28 -24 228 0
-29 -24 229 0
230 -30 -24 0
-27 -26 236 0
-29 -26 238 0
239 -30 -26 0
-28 -27 240 0
-27 -29 241 0
-30 -27 242 0
-29 -28 243 0
-30 -28 244 0
39 31 40 34 36 32 35 0
-32 -31 246 0
-31 -33 247 0
248 -34 -31 0
-31 -35 249 0
-31 -36 250 0
251 -31 -37 0
-31 -38 252 0
-31 -39 253 0
-40 -31 254 0
-32 -33 255 0
256 -32 -34 0
-32 259 -37 0
-32 260 -38 0
-32 -39 261 0
263 -34 -33 0
-36 -33 265 0
-37 -33 266 0
-38 -33 267 0
-33 -39 268 0
-40 -33 269 0
270 -35 -34 0
271 -36 -34 0
272 -34 -37 0
273 -34 -38 0
-34 -39 274 0
275 -40 -34 0
-37 -36 281 0
-36 -39 283 0
-38 -37 285 0
-37 -39 286 0
-37 -40 287 0
-38 -39 288 0
-40 -38 289 0
54 56 59 53 60 58 55 0
-51 -52 336 0
-51 -53 337 0
-51 -54 338 0
-51 -55 339 0
-51 340 -56 0
-51 -57 341 0
-51 -58 342 0
-59 -51 343 0
-51 -60 344 0
-53 -52 345 0
-52 -54 346 0
-52 -55 347 0
-52 348 -56 0
-52 -57 349 0
-52 -58 350 0
-52 -59 351 0
-52 -60 352 0
-54 -53 353 0
-55 -53 354 0
-53 -56 355 0
-53 -57 356 0
-53 -58 357 0
-53 -59 358 0
-60 -53 359 0
-54 -55 360 0
361 -56 -54 0
362 -57 -54 0
-54 -58 363 0
-59 -54 364 0
-54 -60 365 0
366 -55 -56 0
367 -55 -57 0
368 -58 -55 0
369 -59 -55 0
-60 -55 370 0
-56 -57 371 0
-56 -59 373 0
374 -60 -56 0
-58 -57 375 0
-57 -59 376 0
-60 -57 377 0
-58 -59 378 0
-60 -58 379 0
68 63 66 65 69 62 70 0
68 66 67 62 70 63 69 0
66 67 62 64 70 65 69 0
70 66 65 62 64 69 68 0
68 66 62 67 64 70 69 0
67 63 64 69 70 66 68 0
-62 -61 381 0
-61 -63 382 0
-61 -64 383 0
-61 -65 384 0
-66 -61 385 0
-61 -67 386 0
-61 -68 387 0
-69 -61 388 0
-61 -70 389 0
-62 -63 390 0
-62 -64 391 0
-65 -62 392 0
-62 -66 393 0
-62 -67 394 0
-62 -68 395 0
-62 -69 396 0
-70 -62 397 0
-64 -63 398 0
-65 -63 399 0
-66 -63 400 0
-67 -63 401 0
-68 402 -63 0
-69 -63 403 0
-70 -63 404 0
-64 -65 405 0
-66 -64 406 0
-64 -67 407 0
-64 -68 408 0
-69 -64 409 0
-64 -70 410 0
-67 412 -65 0
414 -65 -69 0
-70 -65 415 0
417 -66 -68 0
-66 -69 418 0
-67 -68 420 0
-69 -67 421 0
-67 -70 422 0
-69 -68 423 0
-68 -70 424 0
77 76 75 74 73 80 79 0
76 77 78 79 80 73 74 0
-72 -71 426 0
-73 -71 427 0
-74 -71 428 0
-75 -71 429 0
-71 -76 430 0
-71 -77 431 0
-78 -71 432 0
-79 -71 433 0
-80 -71 434 0
-72 -73 435 0
-72 -74 436 0
-72 -75 437 0
-72 -76 438 0
-72 -77 439 0
-78 -72 440 0
-72 -79 441 0
-80 -72 442 0
-74 -73 443 0
-75 -73 444 0
-76 -73 445 0
-73 -77 446 0
-73 -79 448 0
-80 -73 449 0
-74 -75 450 0
-74 -76 451 0
452 -74 -77 0
-78 -74 453 0
-74 -79 454 0
-80 -74 455 0
-76 -75 456 0
457 -75 -77 0
-78 -75 458 0
459 -75 -79 0
-80 -75 460 0
462 -78 -76 0
464 -80 -76 0
465 -78 -77 0
468 -79 -78 0
469 -78 -80 0
-81 -82 471 0
474 -85 -81 0
475 -81 -86 0
477 -81 -88 0
-82 -85 482 0
483 -82 -86 0
484 -87 -82 0
485 -82 -88 0
486 -82 -89 0
487 -82 -90 0
-83 -85 489 0
490 -86 -83 0
491 -87 -83 0
495 -85 -84 0
496 -84 -86 0
498 -84 -88 0
505 -85 -90 0
101 106 109 110 103 107 102 0
101 104 109 107 102 106 110 0
104 106 107 102 109 103 110 0
108 106 109 107 110 102 103 0
104 105 110 109 107 102 106 0
106 104 107 109 102 110 108 0
104 108 106 109 110 103 107 0
561 -101 -102 0
562 -103 -101 0
-104 563 -101 0
-105 564 -101 0
-106 565 -101 0
-107 566 -101 0
-108 567 -101 0
-103 570 -102 0
-104 571 -102 0
-105 572 -102 0
-106 573 -102 0
-107 574 -102 0
-108 575 -102 0
-109 576 -102 0
577 -110 -102 0
578 -103 -104 0
-103 -105 579 0
-103 -106 580 0
-107 -103 581 0
-108 -103 582 0
583 -109 -103 0
584 -110 -103 0
-104 -105 585 0
-104 -106 586 0
-107 -104 587 0
-104 -108 588 0
-104 -109 589 0
590 -110 -104 0
-105 591 -106 0
592 -105 -107 0
593 -108 -105 0
-109 -105 594 0
595 -105 -110 0
-108 597 -106 0
-108 -107 600 0
-108 -109 603 0
-110 -108 604 0
-21 -22 111 -11 -12 0
-23 -12 255 -13 -22 0
-22 -26 390 -16 -12 0
-22 -17 435 -27 -12 0
-29 -19 525 -22 -12 0
-22 570 -20 -30 -12 0
-13 -34 301 -14 -32 0
-13 -36 -32 -16 391 0
-32 -13 -37 -17 436 0
-19 -39 526 -13 -32 0
-40 -13 -20 -32 571 0
-23 -33 165 -32 -22 0
-23 -36 -33 -26 398 0
-23 -33 443 -37 -27 0
-29 -33 533 -39 -23 0
-30 -40 -23 -33 578 0
-51 -15 114 -11 -52 0
-15 -57 438 -17 -52 0
-55 -54 -35 -34 315 0
-62 -16 213 -12 -63 0
-62 -16 258 -64 -13 0
-16 -67 439 -17 -62 0
-70 -62 -16 -20 574 0
-62 -63 168 -26 -22 0
-64 -63 -26 -23 265 0
-26 -67 446 -27 -63 0
-64 -63 -36 -33 220 0
-65 -36 -34 -64 316 0
-36 -67 452 -37 -64 0
-69 -39 542 -64 -36 0
-70 -64 -36 -40 587 0
-72 -71 -11 -17 116 0
-72 -73 214 -12 -17 0
304 -17 -75 -72 -14 0
-72 -77 -17 -16 394 0
-72 -79 -19 -17 530 0
-72 -17 575 -80 -20 0
-22 -72 169 -73 -27 0
-27 -74 266 -73 -23 0
-27 -75 -24 -73 311 0
492 -28 -27 -78 -73 0
-74 -71 -37 -31 131 0
-72 -74 -37 -32 176 0
-37 -74 221 -73 -33 0
-36 -37 -77 -74 407 0
-78 -74 -38 498 -37 0
-80 -74 -37 -40 588 0
-57 -51 -71 -76 142 0
-52 187 -76 -57 -72 0
277 -74 -54 -57 -76 0
507 -58 -78 -76 -57 0
-73 236 -77 -67 -63 0
-64 -67 -77 -74 281 0
-68 510 -77 -78 -67 0
-70 600 -77 -80 -67 0
-22 -28 -83 -82 170 0
-28 267 -84 -83 -23 0
-28 -24 -83 -85 312 0
-28 -27 -83 -88 447 0
-28 -30 -83 -90 583 0
-38 132 -81 -84 -31 0
-32 177 -82 -84 -38 0
453 -37 -88 -84 -38 0
-39 544 -89 -38 -84 0
-40 -38 -90 -84 589 0
195 -78 -88 -72 -82 0
-78 -73 -83 -88 240 0
285 -78 -84 -74 -88 0
558 -78 -88 -79 -89 0
217 -103 -102 -20 -12 0
-13 -104 -102 -20 262 0
-16 397 -102 -107 -20 0
-108 -17 -102 -20 442 0
127 -30 -103 -101 -21 0
-22 -30 -103 -102 172 0
-30 -23 -103 -104 269 0
-30 -27 -108 -103 449 0
494 -30 -109 -28 -103 0
134 -31 -104 -101 -40 0
-40 -103 -104 -33 224 0
-40 -107 -104 -36 410 0
-40 -37 -108 -104 455 0
500 -40 -109 -38 -104 0
-57 -108 464 -106 -60 0
-71 -108 152 -80 -101 0
-108 197 -102 -72 -80 0
-108 242 -80 -73 -103 0
-108 287 -80 -74 -104 0
-109 199 -102 -82 -90 0
-104 -109 -90 -84 289 0
469 -108 -88 -90 -109 0
-120 -165 0
-122 -167 0
-169 -124 0
-125 -170 0
-127 -172 0
-129 -174 0
-131 -176 0
-132 -177 0
-134 -179 0
-135 -180 0
-137 -182 0
-183 -138 0
-195 -150 0
-197 -152 0
-129 -219 0
-131 -221 0
-132 -222 0
-134 -224 0
-135 -225 0
-228 -138 0
-142 -232 0
-240 -150 0
-242 -152 0
-135 -270 0
-138 -273 0
-150 -285 0
-152 -287 0
-111 -345 0
-112 -346 0
-120 -353 0
-121 -354 0
-150 -375 0
-152 -377 0
-111 -390 0
-114 -393 0
-120 -398 0
-121 -399 0
-122 -400 0
-128 -405 0
-129 -406 0
-135 -411 0
-150 -420 0
-422 -152 0
-111 -435 0
-112 -436 0
-114 -438 0
-120 -443 0
-121 -444 0
-445 -122 0
-129 -451 0
-456 -135 0
-114 -483 0
-116 -485 0
-122 -490 0
-128 -495 0
-129 -496 0
-131 -498 0
-501 -135 0
-121 -534 0
-535 -122 0
-132 -544 0
-546 -135 0
-111 -570 0
-573 -114 0
-575 -116 0
-576 -117 0
-120 -578 0
-121 -579 0
-580 -122 0
-582 -124 0
-125 -583 0
-128 -585 0
-129 -586 0
-588 -131 0
-132 -589 0
-135 -591 0
-593 -137 0
-594 -138 0
-597 -142 0
-150 -603 0
-157 -202 0
-203 -158 0
-204 -159 0
-160 -205 0
-206 -161 0
-207 -162 0
-163 -208 0
-209 -164 0
-173 -218 0
-220 -175 0
-176 -221 0
-222 -177 0
-178 -223 0
-179 -224 0
-226 -181 0
-182 -227 0
-229 -184 0
-230 -185 0
-187 -232 0
-191 -236 0
-193 -238 0
-194 -239 0
-240 -195 0
-196 -241 0
-197 -242 0
-199 -244 0
-158 -248 0
-159 -249 0
-160 -250 0
-161 -251 0
-162 -252 0
-163 -253 0
-254 -164 0
-271 -181 0
-182 -272 0
-183 -273 0
-184 -274 0
-185 -275 0
-187 -277 0
-281 -191 0
-193 -283 0
-194 -284 0
-195 -285 0
-196 -286 0
-197 -287 0
-198 -288 0
-160 -295 0
-340 -160 0
-341 -161 0
-162 -342 0
-163 -343 0
-344 -164 0
-165 -353 0
-166 -354 0
-173 -360 0
-191 -371 0
-193 -373 0
-194 -374 0
-195 -375 0
-196 -376 0
-197 -377 0
-199 -379 0
-161 -386 0
-387 -162 0
-163 -388 0
-389 -164 0
-398 -165 0
-166 -399 0
-400 -167 0
-173 -405 0
-174 -406 0
-180 -411 0
-195 -420 0
-196 -421 0
-197 -422 0
-424 -199 0
-432 -162 0
-163 -433 0
-434 -164 0
-443 -165 0
-444 -166 0
-445 -167 0
-446 -168 0
-450 -173 0
-174 -451 0
-175 -452 0
-456 -180 0
-181 -457 0
-198 -468 0
-199 -469 0
-478 -163 0
-479 -164 0
-166 -489 0
-168 -491 0
-169 -492 0
-173 -495 0
-174 -496 0
-175 -497 0
-176 -498 0
-502 -181 0
-503 -182 0
-510 -191 0
-540 -173 0
-175 -542 0
-177 -544 0
-195 -558 0
-578 -165 0
-579 -166 0
-580 -167 0
-581 -168 0
-169 -582 0
-583 -170 0
-171 -584 0
-585 -173 0
-586 -174 0
-587 -175 0
-588 -176 0
-177 -589 0
-590 -178 0
-591 -180 0
-592 -181 0
-593 -182 0
-594 -183 0
-184 -595 0
-597 -187 0
-191 -600 0
-193 -602 0
-195 -603 0
-604 -196 0
-201 -246 0
-203 -248 0
-204 -249 0
-205 -250 0
-206 -251 0
-207 -252 0
-253 -208 0
-254 -209 0
-211 -256 0
-213 -258 0
-214 -259 0
-215 -260 0
-216 -261 0
-217 -262 0
-271 -226 0
-272 -227 0
-228 -273 0
-229 -274 0
-230 -275 0
-281 -236 0
-238 -283 0
-239 -284 0
-240 -285 0
-241 -286 0
-242 -287 0
-288 -243 0
-289 -244 0
-205 -295 0
-214 -304 0
-201 -336 0
-340 -205 0
-206 -341 0
-207 -342 0
-343 -208 0
-344 -209 0
-213 -348 0
-214 -349 0
-215 -350 0
-216 -351 0
-217 -352 0
-360 -218 0
-236 -371 0
-238 -373 0
-239 -374 0
-240 -375 0
-241 -376 0
-242 -377 0
-378 -243 0
-244 -379 0
-201 -381 0
-206 -386 0
-207 -387 0
-388 -208 0
-389 -209 0
-214 -394 0
-215 -395 0
-216 -396 0
-217 -397 0
-405 -218 0
-219 -406 0
-225 -411 0
-240 -420 0
-241 -421 0
-242 -422 0
-243 -423 0
-424 -244 0
-426 -201 0
-432 -207 0
-208 -433 0
-209 -434 0
-215 -440 0
-441 -216 0
-217 -442 0
-450 -218 0
-220 -452 0
-226 -457 0
-243 -468 0
-244 -469 0
-201 -471 0
-478 -208 0
-479 -209 0
-216 -486 0
-217 -487 0
-218 -495 0
-219 -496 0
-220 -497 0
-221 -498 0
-501 -225 0
-503 -227 0
-510 -236 0
-540 -218 0
-222 -544 0
-546 -225 0
-201 -561 0
-585 -218 0
-587 -220 0
-588 -221 0
-222 -589 0
-590 -223 0
-591 -225 0
-592 -226 0
-593 -227 0
-594 -228 0
-229 -595 0
-597 -232 0
-236 -600 0
-238 -602 0
-240 -603 0
-604 -241 0
-243 -605 0
-250 -295 0
-259 -304 0
-266 -311 0
-268 -313 0
-336 -246 0
-337 -247 0
-340 -250 0
-341 -251 0
-252 -342 0
-253 -343 0
-254 -344 0
-345 -255 0
-258 -348 0
-349 -259 0
-350 -260 0
-351 -261 0
-352 -262 0
-265 -355 0
-266 -356 0
-357 -267 0
-358 -268 0
-269 -359 0
-281 -371 0
-283 -373 0
-284 -374 0
-285 -375 0
-286 -376 0
-287 -377 0
-378 -288 0
-289 -379 0
-381 -246 0
-382 -247 0
-386 -251 0
-387 -252 0
-388 -253 0
-389 -254 0
-390 -255 0
-394 -259 0
-395 -260 0
-261 -396 0
-397 -262 0
-401 -266 0
-402 -267 0
-268 -403 0
-404 -269 0
-411 -270 0
-285 -420 0
-421 -286 0
-422 -287 0
-288 -423 0
-424 -289 0
-426 -246 0
-427 -247 0
-432 -252 0
-253 -433 0
-254 -434 0
-435 -255 0
-440 -260 0
-441 -261 0
-442 -262 0
-447 -267 0
-448 -268 0
-269 -449 0
-456 -270 0
-271 -457 0
-288 -468 0
-289 -469 0
-246 -471 0
-247 -472 0
-478 -253 0
-479 -254 0
-261 -486 0
-262 -487 0
-268 -493 0
-501 -270 0
-502 -271 0
-503 -272 0
-507 -277 0
-510 -281 0
-525 -255 0
-546 -270 0
-246 -561 0
-562 -247 0
-570 -255 0
-591 -270 0
-592 -271 0
-593 -272 0
-594 -273 0
-274 -595 0
-597 -277 0
-281 -600 0
-283 -602 0
-285 -603 0
-604 -286 0
-288 -605 0
-349 -304 0
-358 -313 0
-361 -316 0
-364 -319 0
-394 -304 0
-403 -313 0
-409 -319 0
-447 -312 0
-448 -313 0
-454 -319 0
-313 -493 0
-319 -499 0
-336 -381 0
-382 -337 0
-338 -383 0
-339 -384 0
-341 -386 0
-387 -342 0
-388 -343 0
-389 -344 0
-390 -345 0
-391 -346 0
-347 -392 0
-394 -349 0
-350 -395 0
-397 -352 0
-398 -353 0
-399 -354 0
-401 -356 0
-357 -402 0
-358 -403 0
-404 -359 0
-360 -405 0
-362 -407 0
-363 -408 0
-410 -365 0
-412 -367 0
-413 -368 0
-369 -414 0
-415 -370 0
-420 -375 0
-422 -377 0
-424 -379 0
-426 -336 0
-427 -337 0
-428 -338 0
-429 -339 0
-432 -342 0
-343 -433 0
-344 -434 0
-435 -345 0
-436 -346 0
-437 -347 0
-440 -350 0
-441 -351 0
-442 -352 0
-443 -353 0
-444 -354 0
-447 -357 0
-358 -448 0
-359 -449 0
-450 -360 0
-453 -363 0
-454 -364 0
-455 -365 0
-458 -368 0
-369 -459 0
-460 -370 0
-378 -468 0
-379 -469 0
-336 -471 0
-337 -472 0
-338 -473 0
-339 -474 0
-479 -344 0
-347 -482 0
-351 -486 0
-354 -489 0
-358 -493 0
-359 -494 0
-360 -495 0
-364 -499 0
-370 -505 0
-510 -371 0
-345 -525 0
-346 -526 0
-527 -347 0
-534 -354 0
-550 -370 0
-555 -371 0
-336 -561 0
-562 -337 0
-338 -563 0
-339 -564 0
-570 -345 0
-571 -346 0
-572 -347 0
-578 -353 0
-579 -354 0
-585 -360 0
-600 -371 0
-603 -375 0
-604 -376 0
-378 -605 0
-426 -381 0
-427 -382 0
-428 -383 0
-429 -384 0
-385 -430 0
-432 -387 0
-388 -433 0
-389 -434 0
-435 -390 0
-436 -391 0
-437 -392 0
-393 -438 0
-440 -395 0
-441 -396 0
-397 -442 0
-443 -398 0
-444 -399 0
-445 -400 0
-447 -402 0
-448 -403 0
-404 -449 0
-450 -405 0
-406 -451 0
-453 -408 0
-454 -409 0
-455 -410 0
-456 -411 0
-458 -413 0
-459 -414 0
-415 -460 0
-417 -462 0
-418 -463 0
-464 -419 0
-468 -423 0
-424 -469 0
-381 -471 0
-382 -472 0
-383 -473 0
-384 -474 0
-385 -475 0
-479 -389 0
-392 -482 0
-393 -483 0
-396 -486 0
-397 -487 0
-399 -489 0
-400 -490 0
-403 -493 0
-404 -494 0
-405 -495 0
-406 -496 0
-409 -499 0
-410 -500 0
-415 -505 0
-533 -398 0
-534 -399 0
-546 -411 0
-550 -415 0
-554 -419 0
-381 -561 0
-562 -382 0
-383 -563 0
-384 -564 0
-565 -385 0
-570 -390 0
-391 -571 0
-572 -392 0
-573 -393 0
-398 -578 0
-579 -399 0
-580 -400 0
-585 -405 0
-586 -406 0
-591 -411 0
-603 -420 0
-604 -421 0
-605 -423 0
-426 -471 0
-427 -472 0
-428 -473 0
-429 -474 0
-430 -475 0
-431 -476 0
-478 -433 0
-479 -434 0
-437 -482 0
-438 -483 0
-439 -484 0
-441 -486 0
-442 -487 0
-444 -489 0
-446 -491 0
-449 -494 0
-450 -495 0
-451 -496 0
-497 -452 0
-454 -499 0
-533 -443 0
-542 -452 0
-546 -456 0
-550 -460 0
-426 -561 0
-427 -562 0
-428 -563 0
-429 -564 0
-565 -430 0
-566 -431 0
-435 -570 0
-436 -571 0
-437 -572 0
-573 -438 0
-439 -574 0
-443 -578 0
-444 -579 0
-445 -580 0
-446 -581 0
-450 -585 0
-586 -451 0
-587 -452 0
-456 -591 0
-592 -457 0
-468 -605 0
-527 -482 0
-530 -485 0
-534 -489 0
-540 -495 0
-550 -505 0
-471 -561 0
-562 -472 0
-563 -473 0
-564 -474 0
-565 -475 0
-566 -476 0
-567 -477 0
-572 -482 0
-573 -483 0
-574 -484 0
-575 -485 0
-579 -489 0
-580 -490 0
-582 -492 0
-585 -495 0
-586 -496 0
-587 -497 0
-588 -498 0
-501 -591 0
-503 -593 0
-507 -597 0
-570 -525 0
-575 -530 0
-533 -578 0
-534 -579 0
-537 -582 0
-540 -585 0
-589 -544 0
-546 -591 0
-603 -558 0
-606 0
-12 -53 -85 -55 -13 -84 0
-13 -63 -104 -105 -12 -65 0
-23 -14 -105 -108 -27 -13 0
-13 -104 -85 -105 -12 -83 0
-29 -14 -105 -13 -110 -23 0
-12 -13 -106 -83 -86 -104 0
-107 -23 -108 -27 -16 -13 0
-13 -108 -104 -12 -83 -88 0
-23 -28 -108 -109 -13 -17 0
-23 -13 -108 -17 -110 -29 0
-28 -24 -108 -109 -14 -17 0
-29 -17 -24 -108 -110 -14 0
-26 -29 -110 -16 -108 -17 0
-107 -108 -37 -16 -34 -14 0
-108 -105 -14 -13 -84 -88 0
-14 -17 -38 -109 -108 -34 0
-34 -39 -110 -108 -17 -14 0
-16 -108 -84 -107 -13 -88 0
-36 -16 -39 -17 -110 -108 0
-23 -106 -86 -105 -84 -24 0
-23 -108 -105 -24 -84 -88 0
-24 -27 -108 -109 -34 -38 0
-24 -34 -110 -108 -27 -39 0
-26 -39 -108 -110 -36 -27 0
-59 -56 -110 -108 -37 -36 0
-12 -104 -86 -15 -103 -84 0
-23 -26 -16 -17 -88 -84 0
-104 -26 -108 -16 -17 -23 0
-12 -103 -104 -84 -16 -87 0
-12 -104 -88 -103 -17 -84 0
-19 -27 -104 -110 -17 -23 0
-103 -105 -77 -75 -16 -12 0
-17 -24 -105 -108 -16 -26 0
-16 -24 -105 -26 -19 -110 0
-104 -105 -77 -75 -16 -13 0
-34 -36 -110 -105 -19 -16 0
-19 -37 -110 -105 -17 -34 0
-29 -37 -110 -105 -34 -27 0
-29 -34 -110 -28 -38 -105 0
-29 -108 -110 -28 -37 -38 0
-28 -57 -108 -110 -58 -29 0
-21 -22 -82 -84 -11 -13 0
-21 -14 -85 -11 -82 -22 0
-21 -22 -82 -17 -11 -88 0
-21 -108 -102 -17 -22 -11 0
-51 -16 -87 -11 -82 -52 0
-17 -88 -11 -82 -52 -51 0
-108 -17 -102 -11 -51 -52 0
-62 -17 -88 -11 -61 -82 0
-31 -24 -83 -85 -21 -33 0
-21 -31 -88 -27 -33 -83 0
-21 -51 -27 -53 -88 -83 0
-27 -108 -103 -53 -51 -21 0
-29 -51 -103 -53 -110 -21 0
-27 -63 -83 -21 -88 -61 0
-51 -31 -88 -54 -84 -37 0
-110 -104 -84 -81 -39 -31 0
-103 -105 -32 -33 -22 -24 0
-37 -36 -16 -63 -12 -67 0
-36 -16 -39 -69 -12 -63 0
-22 -33 -108 -103 -32 -27 0
-29 -32 -110 -33 -103 -22 0
-12 -67 -57 -63 -56 -16 0
-12 -60 -70 -56 -16 -63 0
-73 -17 -57 -78 -58 -12 0
-52 -53 -108 -27 -103 -22 0
-13 -64 -57 -67 -16 -56 0
-110 -104 -32 -84 -39 -82 0
-14 -67 -56 -57 -16 -65 0
-26 -67 -56 -64 -57 -23 0
-53 -37 -88 -54 -84 -33 0
-28 -60 -90 -58 -84 -23 0
-33 -63 -88 -37 -84 -64 0
-23 -68 -84 -69 -89 -28 0
-28 -68 -90 -23 -84 -70 0
-80 -78 -90 -84 -28 -23 0
-80 -78 -90 -85 -28 -24 0
-67 -34 -57 -65 -36 -56 0
-75 -67 -34 -68 -78 -37 0
-67 -34 -80 -37 -75 -70 0
-35 -67 -78 -76 -37 -68 0
-62 -72 -33 -37 -67 -73 0
-78 -72 -33 -38 -82 -83 0
-60 -70 -103 -62 -53 -102 0
-58 -78 -82 -72 -83 -53 0
-72 -53 -102 -60 -80 -103 0
-58 -68 -84 -82 -62 -54 0
-58 -78 -82 -72 -84 -54 0
-64 -78 -84 -72 -68 -82 0
-62 -58 -85 -55 -68 -82 0
-72 -55 -85 -82 -58 -78 0
-22 -14 -32 -17 -34 -27 0
-29 -19 -32 -14 -34 -22 0
-22 -16 -32 -17 -27 -36 0
-22 -19 -17 -29 -37 -32 0
-73 -55 -85 -78 -58 -83 0
-22 -52 -56 -27 -17 -16 0
-22 -29 -16 -56 -52 -19 0
-29 -17 -57 -52 -19 -22 0
-29 -19 -67 -17 -62 -22 0
-19 -32 -67 -62 -17 -39 0
-64 -60 -105 -104 -55 -70 0
-26 -33 -53 -37 -56 -27 0
-29 -33 -53 -26 -56 -39 0
-33 -39 -57 -27 -29 -53 0
-67 -63 -38 -28 -33 -27 0
-14 -108 -104 -27 -13 -24 -102 0
-26 -16 -88 -27 -84 -13 -82 0
-104 -108 -102 -16 -13 -27 -26 0
-12 -108 -104 -83 -84 -17 -20 0
-105 -27 -102 -108 -14 -16 -26 0
-12 -16 -105 -85 -107 -83 -20 0
-108 -105 -83 -85 -17 -12 -20 0
-14 -16 -102 -108 -105 -37 -36 0
-17 -85 -20 -84 -13 -108 -105 0
-13 -106 -86 -108 -20 -84 -17 0
-13 -108 -84 -17 -87 -20 -107 0
-26 -39 -105 -103 -24 -110 -36 0
-27 -105 -84 -85 -108 -30 -23 0
-27 -24 -39 -103 -37 -105 -110 0
-28 -59 -108 -27 -58 -110 -103 0
-13 -12 -11 0
-14 -12 -11 0
-14 -13 -11 0
-12 -13 -14 0
-22 -21 -23 0
-21 -23 -24 0
-22 -23 -24 0
-32 -34 -31 0
-31 -34 -33 0
-33 -32 -34 0
-2 -1 0
-3 -1 0
-4 -1 0
-3 -2 0
-2 -4 0
-3 -4 0
-56 -55 -57 0
-55 -58 -57 0
-66 -67 -65 0
-67 -65 -68 0
-67 -66 -68 0
-85 -86 0
-87 -85 0
-85 -88 0
-88 -86 0
-87 -88 0
-81 -89 0
-90 -81 0
-107 -77 -84 -74 -102 -82 0
-74 -106 -84 -102 -82 -76 0
-64 -84 -102 -106 -82 -66 0
-106 -63 -102 -66 -83 -82 0
-76 -72 -106 -101 -82 -81 0
-62 -66 -106 -101 -81 -82 0
-74 -105 -84 -82 -75 -102 0
-65 -84 -102 -64 -105 -82 0
-105 -54 -84 -55 -82 -102 0
-105 -83 -102 -73 -75 -82 0
-65 -83 -102 -105 -63 -82 0
-53 -83 -102 -55 -105 -82 0
-105 -74 -81 -84 -75 -101 0
-75 -105 -83 -81 -73 -101 0
-53 -83 -101 -55 -105 -81 0
-72 -75 -101 -105 -81 -82 0
-65 -81 -101 -105 -62 -82 0
-55 -82 -101 -105 -52 -81 0
-105 -74 -54 -55 -101 -71 0
-62 -71 -101 -105 -72 -65 0
-64 -54 -101 -105 -55 -61 0
-53 -105 -63 -61 -101 -55 0
-62 -52 -101 -61 -105 -55 0
-64 -63 -102 -104 -82 -83 0
-104 -54 -83 -53 -102 -82 0
-62 -103 -82 -81 -101 -63 0
-52 -53 -101 -103 -82 -81 0
-33 -32 -103 -101 -81 -82 0
-72 -71 -101 -103 -63 -62 0
-73 -55 -85 -53 -82 -72 0
-61 -54 -81 -53 -63 -84 0
-17 -30 -68 -67 -20 -28 0
-29 -28 -17 -67 -19 -68 0
-28 -57 -20 -58 -17 -30 0
-28 -17 -57 -58 -29 -19 0
-16 -57 -37 -39 -56 -19 0
-30 -16 -20 -27 -56 -57 0
-36 -27 -20 -16 -37 -30 0
-29 -19 -37 -36 -27 -16 0
-14 -27 -20 -37 -34 -30 0
-30 -26 -34 -36 -14 -20 0
-19 -14 -36 -26 -29 -34 0
-75 -104 -84 -103 -73 -85 0
-65 -103 -85 -63 -104 -84 0
-55 -104 -85 -84 -103 -53 0
-71 -104 -86 -76 -84 -101 0
-66 -104 -84 -101 -61 -86 0
-61 -104 -84 -85 -101 -65 0
-51 -104 -85 -84 -101 -55 0
-66 -76 -101 -104 -61 -74 0
-51 -64 -101 -55 -104 -65 0
-103 -65 -102 -63 -52 -55 0
-75 -83 -101 -85 -103 -71 0
-65 -103 -85 -83 -101 -61 0
-55 -103 -83 -85 -101 -51 0
-73 -65 -101 -103 -61 -75 0
-73 -55 -103 -101 -51 -75 0
-55 -63 -103 -101 -51 -65 0
-51 -64 -63 -54 -103 -101 0
-77 -87 -102 -101 -71 -82 0
-71 -82 -101 -102 -76 -86 0
-82 -86 -102 -101 -66 -61 0
-75 -71 -101 -102 -82 -85 0
-61 -85 -102 -82 -65 -101 0
-55 -85 -101 -82 -102 -51 0
-74 -71 -101 -102 -84 -82 0
-51 -82 -101 -102 -84 -54 0
-71 -73 -101 -102 -83 -82 0
-61 -63 -101 -102 -82 -83 0
-51 -82 -101 -102 -83 -53 0
-75 -65 -101 -102 -72 -61 0
-72 -55 -102 -101 -51 -75 0
-65 -55 -101 -102 -51 -62 0
-76 -75 -85 -84 -66 -64 0
-62 -75 -82 -74 -84 -65 0
-75 -55 -82 -74 -52 -84 0
-51 -64 -81 -55 -65 -84 0
-75 -65 -62 -73 -83 -82 0
-72 -75 -82 -61 -81 -65 0
-75 -55 -81 -82 -51 -72 0
-72 -73 -81 -63 -82 -61 0
-31 -73 -82 -72 -81 -33 0
-51 -63 -81 -62 -53 -82 0
-31 -33 -81 -82 -63 -62 0
-58 -67 -38 -69 -57 -39 0
-29 -69 -57 -58 -67 -28 0
-30 -57 -38 -60 -28 -37 0
-60 -56 -20 -17 -37 -36 0
-59 -19 -37 -36 -17 -56 0
-40 -27 -20 -26 -17 -36 0
-40 -34 -20 -17 -24 -27 0
-24 -34 -20 -40 -16 -26 0
-19 -34 -39 -17 -24 -27 0
1 2 3 4 0
49 0
-29 -24 -43 534 0
-65 -43 -63 -105 -110 0
-29 -26 -43 -53 -56 0
-29 -27 -43 -53 -57 0
-29 -28 -43 -53 -58 0
-29 -27 -43 -63 -67 0
-29 -28 -43 -63 -68 0
-29 -28 -43 -73 -78 0
87 83 85 86 88 0
34 31 35 36 39 40 255 0
50 0
-60 53 54 58 336 374 377 0
40 35 36 38 39 0
-78 -58 -59 -80 0
-37 -40 -57 -59 0
-209 -208 0
-110 -105 550 0
-30 -29 0
-27 -30 -67 -69 0
-30 -27 -57 -59 0
-78 -28 -30 -79 0
-224 -223 0
-172 -171 0
-59 -16 -20 -56 0
-17 -20 -57 -59 0
-59 -60 0
-30 -28 -58 -59 0
-358 -359 0
-344 -343 0
-39 -40 0
-275 -274 0
-284 -283 0
-268 -269 0
-253 -254 0
-70 -69 0
-102 -43 -62 -70 -103 0
-103 -43 -72 -80 -102 0
579 -24 -30 -43 0
-422 -421 0
-389 -388 0
-103 -43 -105 230 0
-241 -242 0
-239 -238 0
-216 -217 0
-243 -244 0
-230 -229 0
-441 -442 0
-370 -369 0
-376 -377 0
-196 -197 0
-193 -194 0
-184 -185 0
-164 -163 0
66 61 63 64 65 67 0
66 61 63 64 67 68 0
165 11 14 15 19 20 195 0
-105 -34 -40 -104 319 0
-365 -319 0
-410 -319 0
-455 -319 0
-500 -319 0
-545 -319 0
-43 313 0
-494 -313 0
-359 -313 0
-313 -269 0
-449 -313 0
-103 -24 -30 -105 313 0
-404 -313 0
-539 -313 0
37 31 33 34 35 36 0
-398 -390 0
62 61 63 66 67 68 0
-578 -570 0
-571 -578 0
60 51 52 54 59 0
-236 -232 0
32 33 34 35 37 38 0
-600 -597 0
70 61 62 63 69 0
110 105 106 107 108 109 0
63 62 65 68 69 386 389 422 0
36 35 37 38 0
51 52 60 354 357 364 371 0
53 52 54 59 60 0
272 -34 35 36 -285 0
-191 -187 0
64 61 63 69 70 0
-353 -345 0
-346 -345 0
74 73 75 76 79 80 432 0
-281 -277 0
-435 -443 0
60 54 337 339 342 348 349 351 354 373 378 0
272 -34 35 38 -281 0
51 59 60 -62 -63 -82 0
31 32 34 35 37 38 0
38 32 35 37 250 -313 0
72 73 74 79 80 0
33 35 36 40 251 253 259 261 286 0
33 32 35 36 251 252 285 0
423 62 64 66 70 382 421 0
390 61 64 69 70 0
58 54 55 59 60 345 371 0
74 71 72 73 0
56 55 57 58 0
-62 386 390 391 393 395 396 397 0
-69 35 36 38 -67 0
107 104 106 109 561 562 570 604 0
68 62 63 67 69 410 411 0
74 71 73 79 80 0
64 62 63 66 67 68 0
271 31 35 37 38 255 0
19 11 12 16 20 180 195 0
400 -63 -313 381 398 399 420 0
-266 35 36 38 -313 0
69 62 63 65 68 406 422 0
66 61 62 64 67 68 0
63 62 64 65 67 68 0
79 73 75 76 77 80 428 0
-122 -114 -496 0
287 34 35 36 247 260 286 0
32 31 33 35 36 -67 -69 0
-214 61 63 -240 -319 411 0
-259 61 63 -285 -319 411 0
58 51 53 54 55 56 0
-69 -68 72 73 74 -78 0
78 72 73 76 79 80 457 0
80 71 72 74 79 0
51 52 58 59 359 360 371 0
109 103 104 106 110 574 575 600 0
52 54 58 340 341 354 371 0
-69 388 390 391 403 411 421 423 0
67 62 64 68 -313 411 0
74 -58 -59 72 73 -78 0
57 54 56 58 336 354 0
-266 -63 -285 -313 382 411 0
-68 -38 -40 61 62 63 0
77 72 73 74 456 468 469 0
68 61 62 67 398 411 0
36 35 38 -57 -59 0
32 34 35 38 39 247 287 0
-73 -53 -54 -72 0
281 35 38 39 40 0
268 34 35 38 -39 246 286 0
-497 35 38 39 -64 -67 -70 0
64 -37 -40 61 63 -67 0
261 35 38 253 268 281 284 287 0
52 51 55 58 -319 371 0
-382 62 63 64 -313 0
26 21 23 28 -43 232 534 579 0
-30 -28 71 72 74 -78 0
-78 51 -58 -72 -82 -84 -313 0
-75 -12 -13 -73 -85 0
383 62 63 69 70 0
406 62 63 69 70 387 405 0
383 62 63 65 66 420 0
398 61 62 69 70 0
413 61 62 66 67 398 0
386 62 64 68 69 70 411 0
423 62 64 66 67 70 399 0
52 53 54 56 57 58 0
-168 -2 -191 0
37 35 38 -56 -59 0
61 -52 -54 -64 -319 0
76 71 73 77 78 -319 0
-364 61 62 63 83 471 0
-463 -86 -89 0
337 -52 53 -313 -345 0
63 64 66 68 69 70 384 0
396 -62 387 390 391 392 394 397 0
232 21 22 26 28 218 0
289 31 34 35 39 255 281 0
273 35 -40 252 255 284 287 0
66 61 -63 392 398 402 421 422 0
62 65 66 69 70 398 420 0
56 52 55 58 59 60 353 0
341 52 59 60 342 353 354 360 0
357 52 59 60 337 342 360 371 0
364 52 53 60 338 343 0
-56 -57 -59 0
410 62 63 66 68 69 384 0
-51 52 58 340 341 354 360 0
420 63 66 69 70 381 405 0
406 63 69 70 381 387 391 405 0
384 63 69 70 381 386 387 391 0
56 51 55 58 59 60 0
-64 63 83 -319 0
66 61 62 65 398 420 0
59 51 54 60 345 0
469 72 73 75 76 452 468 0
390 61 64 67 68 411 0
70 61 69 390 391 398 0
352 54 -60 342 354 374 377 0
336 54 55 56 58 59 60 0
336 53 54 59 60 0
51 52 -313 360 363 371 0
393 64 69 70 381 382 399 420 0
343 -51 60 337 339 342 346 371 0
343 -51 337 342 344 346 347 360 371 0
389 -61 69 382 386 387 391 411 0
359 -60 340 346 347 360 377 379 0
353 55 58 59 60 336 371 0
71 72 74 -313 0
-313 61 62 405 406 420 0
-347 -114 -135 0
-392 -117 -138 0
-572 -117 -138 0
-437 -117 -138 0
58 52 56 353 354 360 371 376 377 0
66 63 64 65 69 70 420 0
74 73 433 434 437 439 440 0
-386 35 36 38 -313 -381 0
109 106 107 108 110 -471 0
582 104 106 107 109 110 561 0
78 71 -72 76 77 79 80 0
-427 72 73 74 -313 0
450 72 73 433 434 451 452 0
-338 52 53 54 -319 0
69 62 64 66 70 386 387 0
64 63 65 66 381 420 0
63 62 383 384 405 -411 420 0
65 62 64 66 68 -313 0
387 62 67 -68 69 70 399 406 0
411 62 63 67 68 383 0
-72 426 436 438 439 440 444 0
60 51 52 59 353 0
66 62 64 65 387 398 421 422 0
-353 54 59 60 -471 0
51 54 58 59 -319 347 349 359 0
59 52 60 340 353 354 360 375 0
71 72 73 -319 0
354 58 59 60 336 338 346 371 0
271 33 35 37 38 246 0
33 31 32 35 38 -67 -69 0
253 35 38 40 250 259 266 283 0
258 38 39 40 247 271 277 0
373 58 -59 347 354 360 376 0
351 -59 343 353 354 360 375 0
-319 51 52 53 0
53 51 55 58 -59 346 0
-258 51 -56 -255 -319 0
375 52 54 56 337 339 354 0
344 52 54 58 59 354 371 0
342 52 53 56 57 360 0
375 54 55 56 59 60 336 0
379 54 59 336 337 345 374 377 0
590 105 106 107 108 109 570 0
54 55 56 58 59 60 345 0
79 73 74 80 426 0
-59 58 336 337 345 364 369 0
108 101 106 107 109 110 0
65 62 63 66 67 387 0
-163 -31 35 62 63 64 252 281 0
-34 31 35 38 261 268 272 275 0
63 62 67 387 405 406 411 0
-388 -31 35 72 73 74 252 281 0
-389 -31 35 36 38 72 73 74 0
80 72 73 75 79 430 452 0
72 73 79 80 428 0
-281 -34 35 38 -135 0
55 51 52 56 353 375 0
-206 -51 58 -236 339 0
58 52 56 57 -319 354 0
-62 61 63 65 391 393 420 0
362 -54 55 56 -375 0
-101 62 -65 -81 -84 -105 -313 0
437 -75 -319 -426 444 0
53 52 58 59 336 339 344 370 371 0
73 79 80 426 428 436 0
442 73 74 79 426 434 0
-69 -68 71 73 74 -78 0
66 61 62 67 68 -313 0
424 61 -68 69 395 398 0
404 61 64 69 390 397 0
336 53 54 55 56 58 0
375 54 59 60 337 339 340 345 0
-107 73 -77 -81 -82 -101 -319 0
110 101 103 104 106 109 600 0
70 64 65 67 68 69 390 0
-81 -55 -61 -63 -85 0
33 31 32 34 36 0
57 58 59 60 340 354 360 0
57 54 56 58 59 60 336 0
437 74 -75 -313 -426 0
70 63 69 381 383 391 0
-77 431 439 446 452 0
409 -69 384 385 396 403 420 0
352 -60 339 342 359 365 371 0
350 59 60 337 338 339 341 345 346 353 0
564 103 104 106 107 109 110 0
80 71 73 436 441 454 0
35 34 38 246 265 266 281 0
424 -70 389 393 399 410 422 0
78 74 75 76 77 0
89 81 83 90 0
110 101 105 106 107 108 0
-346 -52 54 -319 338 0
-19 14 15 16 -22 -29 178 195 525 0
-166 -12 15 181 182 183 0
-166 -24 26 28 -43 232 0
65 61 -62 -313 391 393 420 0
-62 -313 386 387 391 392 393 420 0
77 71 74 75 76 -313 0
75 72 74 76 77 -313 0
103 106 107 108 109 110 571 0
110 101 102 104 107 109 597 0
267 31 34 -38 -255 0
66 61 63 65 69 70 420 0
57 52 54 55 58 -313 0
74 72 73 79 -101 -108 152 0
-52 342 345 346 347 349 351 352 0
-14 -17 -20 -34 -108 -110 270 271 0
-68 31 34 -38 -62 -82 -83 0
-343 -11 15 -16 17 72 73 74 162 0
-362 -34 -37 -74 -75 0
-407 -34 -37 -74 -75 0
-34 37 -56 -59 270 273 0
-78 31 34 -38 -72 -82 -83 0
-34 270 273 274 281 284 287 0
34 31 32 36 277 -313 0
67 62 64 66 68 -313 398 0
272 -34 35 38 250 258 -313 0
-56 340 346 355 373 374 0
-375 -58 341 346 356 376 377 0
388 -66 389 393 400 406 0
-67 -57 -63 -70 338 349 0
-33 -23 -26 35 267 268 269 398 0
-340 33 -36 38 271 -336 0
-72 -43 73 -102 -103 426 436 441 0
62 64 66 -313 384 420 0
-32 35 260 261 262 281 0
-54 -52 -102 -103 0
-56 340 348 355 373 374 0
-55 52 -319 339 354 0
-67 61 -319 394 401 0
-390 61 63 -319 391 395 399 400 0
103 102 106 108 109 110 587 0
-161 15 16 -17 162 163 164 0
-65 63 -319 384 392 0
65 66 67 68 0
61 62 63 -319 0
382 62 67 68 -319 411 0
387 62 63 -319 386 411 0
449 71 72 -102 -104 -319 448 0
451 73 -74 78 450 452 0
253 -31 35 37 38 254 0
409 61 62 63 405 422 424 0
-389 -61 64 70 381 404 0
-27 201 221 227 240 241 242 0
38 31 35 39 40 258 266 0
340 -51 58 -319 336 337 -371 0
66 63 64 65 69 389 420 0
-74 428 451 452 453 454 455 0
375 51 53 55 56 -319 336 360 0
-55 51 -319 347 354 0
384 -61 62 63 66 67 -319 0
-38 34 -72 -78 -82 -83 252 0
56 53 57 58 59 342 352 360 0
-313 61 62 64 0
-78 -28 -29 -43 72 432 469 0
-319 61 62 66 67 413 0
61 67 68 390 391 398 411 0
-75 -51 -52 -55 -82 -83 -319 0
458 71 72 74 76 446 0
33 31 32 35 38 281 0
269 35 38 39 254 262 281 0
255 31 34 35 38 -57 -59 0
286 35 38 250 255 271 277 287 0
255 31 34 -36 38 -56 -59 0
268 31 32 34 38 40 0
258 31 -36 -255 271 0
259 31 33 36 38 270 0
423 61 62 63 66 410 421 0
398 -57 -59 61 62 68 411 0
338 -51 58 60 336 337 339 0
375 51 52 55 60 353 0
379 51 52 53 56 59 377 0
358 51 52 56 57 58 359 0
-338 -51 52 54 58 354 364 365 371 0
-68 -58 -70 342 345 363 0
52 51 54 343 358 359 0
-251 -51 55 56 -285 0
-251 31 34 -37 246 247 0
-78 432 435 441 442 448 449 453 0
-85 73 -75 -82 -84 433 434 0
-381 61 63 64 388 389 0
65 -61 62 63 68 -319 386 0
66 61 62 65 67 -319 0
-40 -36 52 -56 57 58 338 354 360 0
-55 60 339 345 360 369 0
65 62 63 67 387 406 0
-442 61 63 64 84 472 0
-72 429 435 436 438 439 440 0
-72 -319 426 435 437 438 439 0
73 72 -319 429 431 462 0
66 62 63 67 68 -319 0
-489 51 -55 59 60 0
379 51 53 55 56 59 346 0
375 51 55 56 345 346 353 0
352 51 54 58 351 354 356 0
352 51 53 54 59 0
168 11 14 15 -16 -165 0
177 33 34 -38 -82 -84 252 0
440 71 73 -319 438 457 0
-342 62 -319 -337 -341 411 0
72 -313 433 434 443 445 446 450 452 453 458 0
55 51 56 -319 345 375 0
72 73 -319 426 427 430 432 457 0
-40 -38 71 72 74 -78 0
-74 76 -319 428 450 452 0
73 71 -319 437 438 439 0
-60 55 374 377 379 0
-76 73 -319 430 438 0
252 34 35 36 -38 255 286 287 0
68 63 66 381 405 421 422 0
35 34 36 -38 246 247 255 286 287 0
-77 73 -319 431 439 0
-474 54 -55 354 -471 0
56 57 58 -319 336 337 345 0
437 73 -75 433 434 451 452 453 454 455 0
-17 15 19 20 161 169 173 195 0
449 72 -73 427 443 448 0
364 -54 -73 -74 338 365 0
-66 62 69 -313 385 400 410 0
63 64 66 381 384 392 420 0
-58 -319 342 350 357 0
471 -82 -313 -473 0
110 102 106 109 562 563 578 588 600 0
-578 52 59 60 -562 0
344 52 54 55 337 359 376 0
338 -51 52 56 58 337 339 0
339 52 53 56 59 60 341 0
365 52 56 57 58 59 354 0
447 72 74 -78 432 0
449 -72 73 426 -435 448 0
439 -72 426 435 436 437 438 0
447 -58 -59 -78 432 436 0
-75 71 73 437 450 0
-103 -43 -52 81 -82 83 -102 336 346 0
-400 63 64 -66 381 403 404 0
-52 54 336 345 351 352 0
407 -64 66 68 405 0
385 63 64 65 67 68 0
252 32 34 36 -38 -247 0
273 31 -38 260 267 0
352 -52 59 -102 -103 336 0
-486 -382 -388 0
-72 73 78 -319 426 438 439 0
-55 51 -74 -75 -82 -84 -313 0
-48 0
78 71 73 75 76 -319 451 0
-150 36 39 40 -142 0
-71 73 75 430 431 432 0
-71 73 77 -319 426 430 432 0
34 31 35 36 39 255 284 287 0
31 34 35 37 38 255 0
-227 -34 35 38 -236 0
78 73 77 -319 429 430 456 0
62 63 -83 104 105 106 -319 0
66 61 63 68 -319 412 0
-421 -39 253 261 268 288 0
31 32 33 34 0
265 31 32 34 -36 0
364 -59 343 351 354 375 0
-253 52 53 58 72 73 74 342 360 371 0
288 32 34 35 36 40 247 267 0
286 31 34 35 36 40 255 0
286 31 35 36 40 255 273 277 0
225 26 -28 -78 -79 207 215 240 0
378 53 54 55 60 336 0
-434 -11 15 -16 32 33 35 36 38 162 0
110 104 105 106 107 109 570 0
-360 54 -55 -319 338 345 0
62 63 65 -319 386 387 0
107 102 103 105 106 109 604 0
68 62 65 66 -313 386 0
-53 51 -62 -63 -313 0
383 62 65 66 391 403 404 420 0
62 64 66 -313 384 387 0
62 64 67 -313 384 387 0
-75 -51 -55 -81 -84 429 437 444 0
-30 -28 61 -68 395 398 0
-207 62 64 69 70 -240 411 0
-73 -63 -64 -313 427 0
-420 62 63 383 391 411 421 422 0
-64 -33 -36 83 220 -319 0
-52 337 340 341 342 345 346 351 352 0
53 52 54 56 -319 341 342 0
-11 15 160 163 164 195 0
-70 389 390 391 398 411 422 424 0
107 105 106 108 571 576 578 584 0
-80 434 442 449 455 0
-78 -68 -69 71 74 440 0
63 -62 64 67 68 69 389 411 0
-34 270 271 273 286 287 0
79 71 72 80 450 451 452 0
-51 56 57 59 342 344 345 353 360 0
-68 -28 -30 387 395 398 0
447 -28 -30 -78 432 440 0
462 71 73 74 75 77 0
347 54 58 59 60 345 354 371 0
342 55 59 60 341 345 346 353 0
400 61 64 68 69 70 399 0
422 61 65 66 68 69 398 0
356 -53 354 355 357 0
370 -60 344 352 353 377 379 0
370 -60 344 345 365 377 379 0
370 -60 342 352 359 365 374 0
604 101 105 106 107 109 0
583 101 104 105 106 574 581 582 0
124 1 3 4 122 0
-52 59 341 347 348 350 352 0
37 35 38 250 261 262 -313 0
-37 34 251 259 266 0
-62 -11 -17 -82 -88 390 391 396 397 0
-62 -72 -77 191 381 390 395 405 406 411 0
-58 -72 -78 -82 -84 342 357 0
342 -58 59 60 350 357 0
-74 -62 -66 83 -313 428 450 452 0
-31 35 250 252 286 287 0
-61 381 382 383 384 385 420 0
80 79 426 427 428 435 436 443 0
76 73 74 78 426 457 0
64 62 -313 382 384 386 387 0
-487 -82 494 500 0
71 73 74 437 438 440 0
-342 51 -58 336 337 338 0
-240 15 16 20 -243 0
35 34 37 38 39 254 262 0
-61 68 381 382 383 384 386 0
62 61 64 68 399 400 0
-73 427 435 448 449 450 451 452 0
24 21 27 28 215 216 217 219 0
32 33 36 -38 40 253 270 271 285 0
34 32 33 35 36 40 253 0
-78 -28 -30 72 73 432 0
-72 436 437 438 439 440 0
54 58 59 336 337 345 365 374 377 0
471 -313 -319 0
-65 51 -55 -64 -82 -84 -313 0
363 51 55 56 -313 349 -375 0
360 -55 -62 -65 -81 -82 -313 0
386 62 66 68 -313 405 0
56 51 55 -313 346 375 0
-27 206 215 220 227 232 241 242 0
-51 336 337 338 339 340 341 0
-27 206 214 227 240 241 242 0
57 52 54 56 -58 59 344 354 0
-108 103 104 106 561 600 603 604 0
72 73 -319 427 430 432 436 457 0
339 -55 -319 -337 347 0
-72 426 436 438 439 441 444 449 469 0
79 73 74 76 80 432 457 0
-62 -12 -16 213 381 391 396 397 0
-360 54 -55 -319 338 346 0
427 -71 72 74 77 78 456 0
404 -63 385 390 398 399 402 403 0
-68 62 -78 -80 -319 387 408 0
-459 -489 -493 0
-459 -495 -499 0
-369 -495 -499 0
-64 -319 383 391 399 406 420 0
33 34 35 36 246 251 259 0
77 73 76 -319 426 458 0
-73 72 -319 427 445 446 458 0
-105 550 561 579 587 591 593 594 0
-394 23 -27 28 227 -381 0
76 73 75 77 -319 426 429 0
-32 35 36 38 261 262 0
401 -63 -313 387 390 398 400 0
64 61 -62 63 68 411 421 422 0
-62 64 381 390 395 411 421 422 0
405 62 382 385 386 387 390 400 403 404 406 420 0
110 104 107 108 109 561 562 570 0
110 104 106 107 108 109 570 0
101 104 106 109 110 570 600 0
110 -104 105 106 109 -471 562 570 600 0
107 103 104 105 106 110 603 0
-72 -22 -27 169 426 436 441 442 0
110 101 107 108 109 571 580 0
-495 -55 -313 -471 -473 0
-85 51 -55 -82 -84 -313 0
-85 -34 -38 51 52 -84 -313 371 0
107 101 103 109 110 571 597 0
51 53 60 346 351 353 358 364 0
-73 -27 -29 72 -103 -108 242 427 443 537 0
-582 -103 107 108 109 593 597 604 0
-52 336 347 349 350 351 352 0
-27 -12 -17 23 24 28 206 435 0
-108 -16 -17 -34 35 38 -105 0
-108 -26 -27 -34 35 38 -105 0
107 104 105 106 570 603 604 0
-73 -24 -27 311 -319 427 435 445 446 0
-103 62 -101 -105 -106 -319 420 0
66 61 63 67 68 -319 0
396 -54 -62 70 -82 -319 381 391 0
81 83 -319 0
363 -54 -319 336 337 360 371 0
286 35 36 38 40 0
-81 34 35 36 38 -72 -73 -82 0
-80 -101 -108 152 442 449 455 0
36 38 40 251 261 268 270 277 0
-61 -63 84 104 105 109 110 0
73 72 -319 428 433 434 0
-61 68 384 385 386 0
35 -34 38 248 258 272 -313 0
-65 -55 59 -62 -70 -81 -82 360 0
-360 83 -84 -339 -370 486 0
-73 -319 432 435 444 445 446 0
-62 51 -58 83 -313 381 391 394 411 0
51 60 345 346 351 353 358 364 0
-60 344 352 359 360 374 375 0
64 62 -313 384 385 420 0
-85 -82 -84 104 -105 106 108 109 -473 602 0
72 73 -104 -108 287 428 433 434 449 454 0
-39 -38 83 -84 -104 -109 471 544 0
-31 34 35 246 247 250 285 0
-61 384 386 387 393 400 406 0
-62 -319 381 390 393 394 395 0
61 62 66 -319 394 401 413 0
-40 -38 52 53 54 -58 0
267 32 34 -38 252 0
410 -27 -29 -43 62 -67 386 0
410 62 -70 381 389 390 391 404 0
77 72 75 76 78 0
-52 59 336 345 346 347 374 375 0
-78 71 72 80 451 452 458 468 0
-51 52 55 -313 338 341 342 0
340 -51 55 342 -371 0
-53 -313 337 345 353 0
90 56 57 58 -59 81 83 354 0
-72 -43 -102 -103 426 435 436 441 0
-80 -58 -78 342 350 353 0
-57 -37 -40 341 349 356 0
-398 61 63 -64 -313 391 0
-67 383 394 401 421 422 0
-427 72 74 -313 426 428 429 445 446 0
65 62 64 67 68 -313 386 0
61 62 -313 391 400 405 407 408 420 0
-61 62 65 -313 383 386 387 0
106 101 109 110 570 587 588 600 0
-104 105 109 563 586 587 604 0
-54 360 361 362 363 0
408 -64 65 66 -420 0
-62 381 390 396 397 405 406 420 0
-68 62 387 398 423 424 0
33 32 34 35 36 251 0
79 72 73 427 428 434 449 455 0
-104 563 585 586 587 588 589 0
-313 -300 0
357 51 52 56 57 353 360 0
355 51 52 54 356 357 0
356 -27 -30 51 52 -57 0
377 51 55 56 58 59 0
-81 -55 -63 -64 -65 0
400 -63 67 68 -103 -105 0
260 34 35 39 40 252 281 0
253 -17 -19 -39 -52 -57 268 288 0
-43 -11 -19 -52 59 -102 -103 -110 0
-60 344 352 354 359 360 374 379 0
-38 -31 -33 62 64 411 421 422 0
-428 -426 -472 0
-396 61 64 69 -313 0
-62 381 391 396 397 399 400 420 0
-86 490 496 0
-60 58 370 374 377 0
-78 72 73 -84 -88 285 432 0
-40 31 36 262 269 270 273 0
-24 -103 -105 225 226 227 229 313 0
30 26 28 29 232 0
-52 57 -59 336 345 346 347 0
-69 63 67 388 391 405 411 423 0
-70 389 391 404 411 422 424 0
-32 35 38 259 261 262 0
68 63 64 65 66 381 0
-75 -82 -84 -102 -105 429 444 0
-67 64 381 401 421 422 0
110 104 105 106 109 561 600 0
396 -43 -62 -102 -103 381 391 0
396 59 60 -62 -81 -82 391 397 0
-214 -62 65 66 -240 0
424 62 63 69 383 411 422 0
413 62 63 64 66 67 0
403 63 -64 382 -398 404 0
415 62 63 64 387 388 422 0
409 61 62 398 403 404 410 0
384 62 64 -65 399 0
-411 -61 62 64 382 384 420 0
70 62 64 65 68 69 400 0
412 62 66 68 382 383 398 0
70 62 64 69 382 0
337 59 60 -82 -84 -101 -102 345 353 0
249 32 33 34 37 250 0
375 52 53 54 55 56 0
70 63 64 69 386 387 391 411 0
348 -52 336 345 346 347 350 0
571 101 103 105 106 107 0
563 105 106 107 108 109 562 0
110 103 104 106 107 109 561 0
-101 53 -55 -81 -82 -84 -105 0
-495 -55 354 -471 -473 0
-32 -33 -81 -82 -103 104 106 107 108 109 0
-55 -81 -82 -84 -101 -105 354 0
58 55 59 60 371 -471 0
-61 59 60 -81 82 388 389 0
-381 61 -62 382 383 388 389 0
-69 386 387 396 403 409 411 0
-52 -16 -17 -22 -27 55 58 349 0
-55 51 -81 82 -101 -105 347 0
-228 -34 -240 270 271 0
68 62 64 67 388 389 399 0
-52 340 349 350 351 352 354 360 0
-69 -36 -39 63 388 396 542 0
-272 -27 201 221 232 236 242 -274 0
-24 26 28 -43 229 232 579 0
371 51 55 58 -319 345 0
60 52 53 57 58 59 360 0
377 52 53 56 58 59 360 0
357 52 56 57 59 60 360 0
250 32 33 34 35 285 0
-214 -52 55 56 -240 0
346 53 55 56 57 59 60 0
-30 -27 61 63 64 -67 0
-62 386 387 390 391 392 393 420 0
63 61 -319 392 393 394 0
-62 381 390 392 394 395 406 0
-102 51 -55 -82 -84 -105 358 359 0
-78 -28 -30 73 428 440 469 0
-62 384 385 390 391 394 395 411 0
-71 77 -313 426 428 429 430 0
215 23 24 26 -28 -201 0
51 56 -82 -84 -85 -313 375 0
-63 66 69 387 390 399 401 404 0
-11 -19 83 90 -102 -110 -471 0
-40 -38 72 74 -78 427 0
-62 -319 381 390 392 393 394 0
-63 65 66 382 390 398 420 0
384 62 64 66 67 -313 0
446 -73 75 78 443 445 0
421 61 63 -67 407 422 0
70 61 63 69 391 0
409 61 63 391 396 411 422 424 0
384 -61 66 386 387 0
453 73 -74 75 76 452 0
441 71 73 436 442 452 453 456 0
457 71 73 76 78 450 452 0
448 71 72 74 80 0
106 107 109 -471 562 570 585 604 0
-78 -58 -59 73 432 436 0
-52 56 58 59 345 346 347 377 0
-64 68 405 406 407 0
-104 563 585 586 587 589 604 0
403 -63 386 398 399 400 402 404 0
403 -63 382 399 401 402 404 0
352 -52 56 336 346 349 351 357 0
364 56 57 58 336 337 345 353 365 0
70 67 68 69 381 398 411 0
-105 561 578 591 592 593 594 595 0
-76 -62 -66 -82 -83 -319 430 438 0
-74 -319 428 436 444 445 446 0
-63 -313 382 390 398 0
67 61 65 66 69 70 0
62 63 66 -319 384 420 0
-51 336 337 340 341 342 364 365 0
-39 34 253 261 268 0
-64 61 63 391 410 411 421 423 0
-86 -12 -13 -51 -53 -55 -81 -82 -319 381 383 420 0
110 -81 104 106 107 109 -471 -498 581 0
-72 51 52 -313 364 365 426 436 441 442 0
-33 -26 -27 -37 -53 55 58 0
109 102 103 105 106 110 600 0
-85 -12 -14 -103 -104 489 0
-68 -319 387 395 402 0
-105 562 563 591 592 593 594 595 0
-72 73 429 430 432 436 441 442 0
-26 -12 -16 21 23 28 226 390 0
469 71 -80 442 449 451 457 0
-73 427 435 443 448 449 0
-62 68 381 392 393 398 421 422 0
-69 388 396 398 399 405 421 423 0
33 31 34 35 38 258 0
587 106 561 562 570 593 594 595 603 604 605 0
-62 -22 -26 168 381 391 396 397 0
80 71 75 76 79 436 446 0
-37 31 34 38 -255 259 0
-103 105 580 581 582 583 584 0
-67 -27 -30 61 62 398 0
-298 0
-64 383 391 398 409 410 0
-428 72 74 448 449 450 451 453 454 455 0
80 72 74 75 77 79 445 0
-72 -62 -67 191 437 438 440 0
-215 61 -62 63 64 65 -240 0
-76 -62 -66 -82 -84 -313 430 0
-486 -268 473 0
-69 61 62 67 68 411 471 0
-75 -52 -55 -82 429 450 471 0
486 61 63 69 83 471 0
52 51 57 58 -313 360 0
58 51 56 57 -319 345 0
-351 61 -62 63 83 471 0
43 83 473 0
497 -84 86 471 495 498 0
67 61 62 -63 68 411 471 0
110 -82 103 -105 106 107 108 109 275 0
-487 -89 0
-442 -90 0
-397 -90 0
-352 -90 0
-262 -90 0
-441 -89 0
-396 -89 0
-351 -89 0
-261 -89 0
-101 -64 -82 -102 -104 0
23 21 22 26 225 227 0
-54 -51 -55 62 66 -313 391 420 0
-63 61 66 -313 391 399 420 0
58 52 56 57 347 354 364 365 0
60 53 56 57 58 59 346 0
64 62 -313 384 386 387 420 0
-262 53 56 57 58 81 83 342 354 360 0
36 32 35 38 251 -313 0
36 35 38 251 261 262 277 -313 0
-441 -32 81 83 257 258 285 0
43 -64 -84 -313 0
22 23 24 26 28 232 0
-52 53 55 336 346 350 371 0
-62 381 390 391 392 393 420 0
30 26 29 207 215 222 232 0
353 55 58 59 336 371 374 377 0
411 386 387 389 390 391 396 398 403 409 422 424 0
-75 80 429 436 444 459 0
-73 -53 -54 -313 427 443 0
406 63 68 69 394 396 397 405 411 422 0
-101 105 108 110 565 568 574 578 0
33 32 34 35 36 252 0
83 313 471 0
-59 336 358 364 373 376 378 0
352 53 54 -60 -336 0
-65 61 -313 392 405 0
-59 343 351 358 364 0
338 -51 55 60 336 337 375 0
-76 -52 -57 187 430 445 451 0
-58 -313 342 350 363 0
-68 -53 -54 -58 -62 -82 0
-17 -14 -16 -135 0
246 -32 33 34 38 -255 -313 0
90 34 35 38 -39 84 281 471 0
255 31 34 38 -67 -69 0
342 52 56 57 -313 360 0
-11 15 16 -17 162 163 197 0
-65 64 384 392 414 415 0
-68 -58 -59 61 62 398 0
354 43 51 -55 56 58 -319 349 0
-389 -11 15 16 -71 195 426 427 428 0
-388 -11 15 16 -71 195 426 427 428 0
-73 432 435 443 444 445 446 0
248 33 -34 35 38 -246 281 0
56 -51 53 55 59 342 346 352 365 0
-63 65 66 -319 382 390 401 0
-62 392 393 394 395 0
-62 390 391 392 393 396 397 420 0
-269 -90 471 0
73 76 77 78 -319 426 0
-78 73 74 426 468 469 0
-66 62 -74 -76 -81 -84 400 406 0
-78 73 -319 432 440 0
-31 34 246 247 249 250 286 287 0
-396 -32 35 83 260 281 473 0
-313 43 471 0
260 34 -38 252 -255 0
-78 -68 -69 72 73 453 0
-57 51 -345 356 362 0
354 51 54 -55 -345 0
-483 -82 490 496 0
65 62 66 70 383 391 420 421 423 0
-319 56 57 -59 336 342 345 350 354 375 0
-350 31 34 -38 -345 0
-68 -313 387 395 405 406 420 0
35 36 39 40 285 0
-495 -55 -345 -471 -473 0
-62 51 59 60 -82 389 391 394 395 396 411 0
399 -63 66 67 68 0
175 11 14 -16 -165 0
355 -52 -82 350 351 352 356 -471 472 0
358 51 52 54 359 0
-43 51 52 56 58 353 360 0
-62 386 387 390 391 392 396 397 0
53 51 59 60 346 0
-59 -55 -57 63 68 70 381 383 391 0
-342 -51 336 337 338 378 379 0
-59 -57 64 -67 381 401 0
53 55 56 58 59 60 346 0
-62 61 68 -319 390 392 394 0
-267 31 32 33 36 -38 268 269 270 0
-57 -37 -40 -51 54 349 356 0
-72 432 435 437 438 441 442 452 0
-62 68 381 393 394 396 397 0
-59 32 34 35 -37 -57 247 281 0
-72 -16 -17 394 437 438 440 0
-63 -51 -55 -101 -103 -313 400 420 0
-62 -51 -55 -81 -82 381 390 391 393 420 0
582 -103 -108 0
-395 31 34 -38 -390 0
409 62 63 66 67 68 389 0
407 61 62 66 68 -313 0
391 61 63 65 66 68 0
391 61 65 66 68 -313 0
65 61 64 67 68 -313 0
411 61 64 67 68 -313 0
456 73 429 430 432 436 439 440 450 451 452 0
498 86 -313 471 495 497 0
358 52 54 56 57 58 359 0
444 -61 -65 -75 -81 -82 -84 0
-55 51 59 346 354 370 0
-370 -60 339 347 354 360 0
-411 63 -66 -319 384 392 420 0
73 72 -319 431 432 440 456 0
-344 -11 15 -16 -21 162 191 204 207 236 0
56 -51 55 -82 -101 -102 -313 375 0
-586 62 -84 88 -101 -104 -313 391 420 497 0
-40 -36 55 57 58 338 345 0
440 73 -319 429 430 432 439 456 0
-354 51 53 -55 346 358 359 0
-51 55 -82 -101 -102 -313 340 375 0
-55 339 347 358 359 360 0
-73 72 -313 427 445 446 450 0
74 72 -313 427 433 434 0
78 72 73 76 77 429 0
340 -51 336 339 341 343 353 379 0
-67 -37 -40 62 386 401 0
102 106 107 108 109 110 578 0
102 104 106 107 109 562 604 0
86 85 87 88 0
241 -26 27 28 -236 242 0
36 35 37 -58 -59 0
-19 -17 -37 -39 0
219 21 22 24 26 28 0
103 102 104 106 107 603 604 0
252 34 -38 -247 260 0
-342 23 26 27 -28 225 -336 0
54 55 336 337 345 371 374 375 0
57 51 54 56 58 -313 0
35 -16 -17 -20 38 39 0
-35 -16 -17 -20 0
-51 336 337 340 341 342 343 344 0
-51 340 341 342 343 344 345 360 0
-229 -34 -243 270 281 284 287 0
-61 -11 -17 -82 -88 382 383 386 387 411 0
-75 -55 -74 -82 -84 -313 -428 0
-78 -28 -29 -43 80 432 436 0
38 -16 -17 -20 35 -108 -110 286 0
51 56 57 58 -313 346 0
59 51 53 58 346 374 377 0
62 382 383 387 398 402 409 410 411 421 422 0
81 43 -73 84 -103 -104 427 0
-52 336 345 346 351 352 0
35 37 38 -82 250 271 471 0
-105 101 103 571 591 592 593 594 0
-37 -23 -27 34 35 250 259 285 443 0
101 102 103 106 109 110 600 0
433 72 73 434 450 452 462 0
253 35 36 40 261 268 285 0
258 -32 35 259 260 0
421 -63 65 66 68 -403 0
70 62 65 66 69 383 391 420 0
409 62 63 65 67 68 70 0
386 62 63 64 387 411 0
422 61 62 65 -67 68 69 406 0
395 -61 62 67 -381 398 411 0
385 62 64 65 67 68 0
382 62 64 65 66 68 0
400 62 65 67 387 398 406 0
398 -51 -52 55 56 58 -59 -67 0
358 -59 343 346 347 360 378 0
-30 -27 52 53 56 -57 58 360 0
359 52 54 55 58 59 345 371 0
358 52 56 57 58 359 360 0
338 52 59 60 340 353 354 375 0
403 64 66 67 68 384 404 0
-90 -82 -102 -103 0
-90 -82 -102 -104 0
-68 61 395 398 423 424 0
-68 62 -64 383 398 423 424 0
-382 -61 62 63 -313 398 0
-72 -313 426 436 440 441 442 445 446 0
-72 -63 -64 426 436 441 442 0
-74 436 450 451 452 453 0
77 72 78 -319 427 456 0
54 -51 55 56 57 59 60 -319 0
399 61 -319 381 391 396 397 400 420 0
-163 62 63 72 73 74 -319 383 0
58 -16 -20 51 57 354 360 0
-215 51 -52 -240 354 360 373 374 0
56 53 54 55 336 375 0
-259 -52 55 56 -285 0
-396 -32 33 -34 35 36 38 81 83 0
61 -313 391 392 393 405 406 420 0
76 72 77 -319 432 435 444 0
-63 51 52 -55 56 62 -319 345 382 400 0
-76 73 430 436 442 449 455 463 0
71 73 79 436 442 449 455 0
-259 -37 38 258 261 262 277 0
-104 11 -13 15 16 -53 -55 -105 195 0
286 32 33 34 35 36 40 0
337 54 55 56 58 336 345 0
352 53 54 55 57 58 59 0
351 53 54 55 56 58 60 0
-70 61 -83 -90 0
491 -83 86 88 489 0
352 -52 59 342 345 346 347 349 0
421 61 63 64 65 66 422 0
454 -74 428 436 443 455 0
421 61 64 65 66 68 422 0
421 61 64 66 68 399 422 0
400 61 65 67 68 406 0
439 -72 76 78 437 0
469 72 73 76 432 434 436 441 454 457 0
431 72 73 76 428 429 450 451 452 0
110 101 105 106 107 109 0
251 34 -37 -38 -57 -59 255 0
-63 -83 -103 -104 382 472 0
-55 -51 -62 68 -71 -72 191 -319 390 440 0
37 35 38 39 284 0
-75 73 -82 -85 -101 -102 437 450 0
109 104 105 107 110 570 597 0
-71 73 78 429 431 438 451 0
-78 73 74 432 440 0
-61 381 382 383 386 387 411 0
-62 381 390 391 392 393 395 0
-62 381 390 391 396 397 0
-386 62 63 -319 383 421 422 0
-63 -319 382 390 399 400 401 0
413 62 63 66 67 -319 0
72 73 74 -313 433 434 0
-343 -11 15 -31 35 38 161 162 250 0
-585 104 -105 106 107 109 579 588 590 0
393 -62 67 68 -319 384 390 0
-63 -33 -36 220 382 390 403 404 0
-396 21 26 28 81 84 218 232 0
-351 21 26 28 81 84 218 232 0
-344 -11 15 -16 -31 35 38 162 191 0
-40 -37 51 54 -57 345 0
-53 55 57 355 357 0
268 35 36 40 251 261 267 270 273 0
571 101 103 106 109 600 602 604 0
-61 -319 381 384 386 387 400 0
346 51 55 58 -313 371 0
168 11 13 15 -16 -166 0
-63 -53 -54 -313 382 398 0
32 34 35 -37 38 250 277 -313 0
54 55 56 58 336 358 359 0
61 390 391 396 399 401 403 406 409 411 422 424 0
-72 -12 -17 214 426 436 441 442 0
61 -36 -37 62 -313 408 411 452 471 0
-72 51 -58 -82 -84 -313 437 438 439 0
-62 -16 -17 392 393 395 439 0
-63 61 -313 391 399 400 420 0
-63 -54 -313 337 346 -353 399 401 402 0
-390 -62 63 -313 381 0
-63 -28 -29 -43 399 400 401 0
61 51 -52 -62 63 64 83 345 346 471 0
64 62 68 -313 386 411 0
-63 62 382 398 403 404 0
-64 405 406 407 408 0
420 61 62 65 66 -319 0
-166 11 13 15 -16 84 -191 490 0
35 34 36 -37 38 246 268 269 0
-251 -51 55 58 -281 0
57 52 53 56 58 -319 0
-22 -16 -17 -27 -52 55 -240 0
-58 53 54 -68 -70 350 0
364 51 55 -56 -59 345 0
341 -51 52 56 58 -319 354 0
347 -51 56 58 -319 341 354 0
385 62 63 68 -319 386 0
391 -28 -30 61 63 -68 0
-81 34 35 36 37 -62 -63 -82 0
377 52 54 55 58 -62 -63 -81 -82 0
-336 -313 -338 0
-55 -319 339 347 354 0
-74 428 436 443 450 451 452 0
-74 -313 428 436 450 451 452 0
40 34 38 39 246 247 255 0
60 -28 -29 -43 51 59 346 354 371 0
-63 -319 382 390 399 400 420 0
106 105 107 109 110 561 563 600 0
-222 33 35 36 37 -38 -81 -82 -84 0
-253 63 73 84 -319 -344 -352 383 428 0
-59 52 57 343 354 363 373 0
-57 59 341 346 354 371 375 377 0
-72 -51 -53 -73 89 90 0
-65 -51 -55 63 -81 -82 -84 0
-342 73 -78 -319 -336 0
-52 338 345 347 349 350 351 352 0
-68 64 71 72 74 -78 387 390 424 0
68 63 65 67 381 405 406 0
-382 51 -56 -82 -340 -471 0
55 51 56 57 59 374 377 379 0
269 -33 35 38 268 281 0
269 31 32 34 38 268 0
261 -32 35 38 262 281 0
253 -31 38 40 249 251 0
-70 51 54 -57 -67 345 0
362 51 52 -56 58 355 360 0
421 62 63 -104 -105 -106 387 422 0
362 -51 -52 53 54 -338 347 363 0
63 -61 381 386 388 389 405 408 0
-60 52 344 359 365 0
-482 -82 489 495 0
84 31 35 38 40 81 90 281 0
-61 381 382 383 389 411 421 423 0
-51 336 337 340 342 360 376 377 0
-88 -73 -74 -78 -375 0
-56 -16 -20 52 -55 58 338 354 360 0
-51 336 341 342 343 344 353 354 360 0
65 62 64 66 67 382 0
429 73 74 -75 76 77 440 0
-337 51 59 60 -82 336 -471 0
-252 31 34 -38 246 247 0
63 66 -319 381 384 392 420 0
-379 -68 -365 387 395 423 0
-65 -313 384 392 405 0
53 51 52 -353 0
379 51 59 350 352 353 354 360 371 0
365 51 53 59 346 352 0
497 -84 85 88 496 0
-474 73 74 -75 -471 0
597 -104 107 109 110 563 571 578 0
555 -67 70 -77 -79 381 383 391 401 0
62 67 -319 384 386 387 400 411 413 0
-342 62 -68 -319 -337 0
53 51 52 -54 62 63 67 68 -82 83 -84 387 411 471 0
-313 51 52 -319 0
61 51 52 53 62 63 83 471 0
-447 -73 74 432 435 468 469 0
-63 -82 -83 -102 -104 382 403 404 0
228 26 29 30 201 -218 232 0
-67 -62 -72 76 191 -319 432 435 437 0
62 69 383 389 399 400 410 420 0
-63 62 -313 381 387 398 400 401 0
-216 35 37 38 83 250 -313 473 0
-31 35 38 251 253 284 0
-72 -313 426 436 438 439 440 0
-348 31 33 35 38 255 270 -371 0
572 -105 -561 581 582 585 594 595 0
-63 -28 -29 -43 62 386 400 405 0
-68 -28 -30 63 387 391 0
-78 -28 -29 -43 426 453 468 469 0
-73 -313 427 435 444 445 446 0
-181 -34 35 38 -191 0
61 -43 81 -82 -102 -103 -313 405 406 420 0
63 62 69 70 384 385 389 420 0
393 -62 64 65 68 -313 386 0
497 -84 86 88 495 0
266 32 -34 251 270 271 273 0
379 -28 -29 -43 -58 342 363 0
232 26 -27 28 -67 -69 0
62 -51 -55 -101 -104 -313 385 391 406 420 0
-351 35 37 38 83 250 -313 473 0
-20 -16 -17 52 -55 58 338 354 360 0
57 -28 -30 54 56 347 350 354 0
-102 -51 55 58 -82 -84 -101 358 359 371 0
-73 -53 -54 72 -101 -104 -313 338 364 365 0
-62 -313 381 391 394 395 411 0
-355 34 -36 38 250 -345 0
58 53 55 57 -319 348 0
-592 11 13 15 -16 -579 0
-90 34 35 39 -40 252 255 281 471 0
106 104 105 107 109 561 604 0
63 62 -319 384 385 420 0
-285 35 37 -38 39 281 287 0
-60 352 359 365 374 377 379 0
471 89 -103 -104 -319 0
-66 63 -82 -84 -102 -106 385 0
371 55 58 -82 -83 -101 -102 -319 345 0
58 52 55 56 59 352 353 359 365 0
394 -62 -313 384 391 393 395 0
398 -17 -20 61 62 -67 0
338 53 55 57 58 336 346 0
371 55 59 60 340 341 342 350 353 0
388 62 67 68 389 398 411 0
110 -81 82 -101 -102 -105 -106 109 0
-71 72 73 75 77 79 430 434 0
-495 -55 -353 -471 -473 0
-104 585 586 587 588 589 590 0
-103 562 579 580 581 582 583 0
-336 -51 52 345 346 347 352 376 0
-61 381 382 383 388 389 0
67 61 62 65 66 -313 0
-443 -73 74 -319 428 0
-61 381 382 384 386 387 406 0
63 -37 -38 -40 62 383 411 0
402 -63 399 400 -420 0
-74 73 -84 -88 285 450 451 452 0
-80 51 54 -58 -78 345 0
337 52 53 -54 -353 0
354 52 56 57 342 360 0
571 101 103 106 107 110 603 0
352 -51 53 57 58 59 338 339 0
339 -51 58 336 337 338 340 0
-169 -83 87 -182 471 490 0
364 -59 339 341 351 358 0
271 31 32 33 -36 0
-267 -63 65 -285 400 0
-67 -17 -20 62 386 401 0
-59 -28 -30 343 351 373 376 0
-63 382 390 401 402 411 471 0
-105 109 570 585 591 592 593 595 0
-42 0
-13 15 16 178 179 195 0
-78 -28 -30 72 73 74 0
-20 -17 51 55 56 -57 58 0
-39 35 38 283 286 0
-52 336 345 346 347 349 352 0
-381 -313 -383 0
68 67 384 385 390 391 398 411 0
-40 -34 -103 -105 -313 0
-51 56 -82 -84 -101 -102 339 375 0
-90 34 -40 269 -471 0
81 61 -62 -82 -102 -103 0
-396 84 -104 105 106 107 108 471 0
-55 82 -85 -102 -104 0
61 62 -313 398 407 408 411 0
67 63 65 66 -319 381 402 0
-102 -14 -20 -105 0
68 43 63 67 381 411 0
58 51 52 55 57 0
-345 43 -54 0
-85 -83 -84 -105 -110 0
56 43 53 55 58 349 365 0
56 43 52 53 55 58 365 0
58 51 52 56 57 0
58 43 52 53 55 371 0
66 61 62 63 65 420 0
-313 81 -319 0
35 -34 36 38 251 259 -495 0
65 62 66 386 387 420 0
-64 -38 -39 43 -68 0
-54 43 -55 -105 -110 0
-85 43 -84 -105 -110 0
-74 43 -75 -105 -110 0
-40 -34 43 585 0
-62 43 381 390 394 395 411 0
319 43 0
-54 -36 -39 43 -56 0
-57 -37 -39 43 -54 0
-360 -34 35 36 38 43 0
-39 -34 43 540 0
-39 -37 43 -64 -67 0
43 -104 -105 275 0
-70 43 -63 -103 -104 0
-90 -83 -103 -104 0
-70 43 -62 -102 -104 0
-80 43 -73 -103 -104 0
-218 -34 35 37 38 43 0
472 82 0
68 43 67 69 381 383 404 411 0
-423 -68 69 387 395 0
68 43 67 381 382 390 395 411 0
-398 -63 64 383 0
-405 -34 35 38 43 281 0
254 -40 43 262 269 585 0
-39 43 253 261 268 540 0
-72 43 -102 -104 426 435 441 0
65 -62 66 67 69 70 -84 382 0
-455 61 62 -70 0
-62 43 -102 -104 381 390 391 396 0
-360 -34 35 36 43 285 0
56 -43 -51 54 55 336 358 359 375 0
-20 -16 -17 43 51 58 270 345 0
281 -34 35 38 43 -173 0
-76 -61 -66 -72 89 90 -471 0
281 -34 35 38 43 -495 0
473 82 0
-51 43 55 336 337 342 371 0
540 -34 35 38 43 281 585 0
-64 -34 35 43 -65 285 316 0
408 62 -64 383 405 407 0
56 57 58 -84 -495 0
-450 -34 35 38 43 281 0
-64 -61 -84 -101 -102 0
-105 -103 -104 275 -319 0
271 -34 37 39 43 586 -591 0
-59 51 56 57 351 354 360 0
51 52 -319 354 356 357 0
58 51 52 57 -319 355 0
-336 -34 35 36 38 -341 -495 0
-103 43 -82 83 -84 -101 -105 -106 381 420 -473 0
-398 -409 0
-443 -449 0
-89 -448 0
-359 -353 0
-448 -443 0
-365 -353 0
-454 -443 0
-364 -353 0
268 31 34 -39 261 0
349 -17 -20 -57 341 353 0
344 -51 59 -82 -83 -101 -102 338 0
457 72 73 74 430 432 0
433 72 73 76 77 78 434 0
77 71 72 76 78 0
383 62 67 68 -313 398 411 0
43 -34 -40 83 -564 0
108 103 105 106 107 571 0
109 -84 103 105 106 107 110 604 0
-66 -81 -82 -101 -106 -319 400 0
-64 62 383 400 405 409 410 420 0
51 43 57 -255 -258 350 353 354 0
-52 -43 51 59 -102 -103 346 0
-70 397 404 406 415 422 424 0
-13 -14 -24 -27 -82 -84 86 -181 0
107 105 106 110 -471 603 0
438 73 78 429 431 436 451 457 0
110 104 106 107 108 109 561 0
-384 -55 72 73 -75 -82 -84 -313 0
61 69 70 -313 391 399 400 420 0
-101 -33 34 35 36 -81 -82 -103 286 287 0
-72 51 -53 59 60 426 436 441 442 0
62 43 386 387 399 400 411 420 0
-63 -27 -28 -29 -43 382 411 0
386 62 65 68 -313 406 411 0
-53 51 57 345 355 357 358 359 0
68 43 -53 -54 67 381 411 472 486 487 0
-30 -28 73 74 -78 426 0
-30 -28 51 53 -58 346 0
-62 -51 -55 -71 -72 191 -319 390 395 440 0
-258 -14 -16 -62 -65 0
-353 -313 -319 0
-443 -313 -319 0
-398 -313 -319 0
-578 -313 -319 0
-165 -313 -319 0
313 -23 -24 -33 -34 0
319 -23 -24 -33 -34 0
-363 -34 -38 -84 -85 0
-453 -34 -38 -84 -85 0
-408 -34 -38 -84 -85 0
352 -52 59 340 341 342 345 346 0
415 61 63 64 66 69 422 0
407 -61 66 -383 405 408 0
424 63 64 69 381 411 422 0
388 63 64 70 384 393 396 420 0
379 -60 344 345 374 377 472 0
79 71 80 435 436 443 0
-247 52 54 55 -269 376 0
64 62 63 65 66 -313 386 0
64 62 65 66 -313 387 0
62 68 -313 383 386 405 407 411 0
69 62 63 67 383 389 410 0
67 43 68 -319 381 382 390 411 0
-52 51 348 349 350 351 352 0
110 102 104 106 107 109 582 0
-54 -319 338 346 353 0
-74 -23 -27 -57 -58 73 450 451 452 0
455 35 38 -104 -108 281 283 284 286 0
253 35 38 -64 -67 -70 261 286 -497 0
266 31 34 -37 259 0
73 -38 -40 74 76 77 426 432 0
-336 -319 -337 0
338 -51 53 58 336 -360 377 0
-34 35 43 271 273 286 585 0
-62 68 -319 381 390 392 393 0
-61 -319 381 382 384 385 420 0
-319 61 62 -313 0
-63 -62 -82 -101 -103 313 0
393 -62 -313 381 391 -411 420 0
-58 -62 -68 83 -313 342 0
-74 73 -319 432 437 451 452 0
66 61 67 68 -313 384 391 0
-59 -58 63 -68 381 383 391 0
78 72 73 -313 427 428 431 432 452 456 0
110 -82 103 104 -105 107 108 109 571 0
444 -73 426 443 445 446 468 469 0
-55 59 339 346 354 370 0
-428 -426 493 494 0
43 -34 35 -84 -85 281 -495 0
-13 15 19 175 179 195 0
107 102 105 106 110 578 603 0
-61 63 381 383 388 389 0
-27 21 26 -28 30 215 221 225 241 0
-65 -319 384 392 399 0
-58 -28 -30 51 346 357 0
-30 -28 51 -58 345 346 353 0
258 31 34 -36 -255 0
-72 74 426 437 439 440 445 0
354 52 54 56 57 59 379 0
-22 26 28 216 217 232 0
71 -62 64 -72 74 75 76 191 -313 381 411 0
58 55 -313 336 338 346 353 371 0
-111 84 0
84 -255 0
-300 84 0
84 -345 0
-390 84 0
-435 84 0
-525 84 0
84 -570 0
-489 84 482 0
-486 84 493 0
-490 84 483 0
491 84 -484 0
-485 84 492 0
-492 84 485 0
-62 61 63 81 -82 -84 -217 0
495 -84 86 87 88 0
-597 -82 -84 87 -573 -591 0
-492 84 129 135 -142 0
-489 -75 84 -319 -426 0
-62 81 -82 -84 -262 381 390 0
-72 71 81 -82 -84 -217 435 0
-261 -72 81 -82 -84 426 435 0
-352 71 74 84 -350 -447 472 0
-411 61 62 63 67 -84 88 497 0
-489 56 57 58 84 0
-72 81 -82 -84 -216 426 435 0
313 81 -84 0
-442 -32 35 81 -84 260 281 0
61 63 64 81 -84 -262 0
24 21 26 28 -72 81 -82 -84 232 426 435 0
67 -61 62 63 68 -81 -84 87 88 0
-27 -13 -16 -26 -82 -84 85 86 0
71 -72 81 -82 -84 -262 435 0
-409 51 -54 81 -82 -84 353 0
432 -71 72 -81 -84 88 -385 427 0
491 84 483 489 492 0
-182 -84 87 -173 496 0
-32 35 81 260 281 -397 0
-81 -61 -84 87 88 381 382 386 387 0
-593 -84 -473 476 496 -564 0
-28 -23 34 -38 -82 -84 313 0
-60 81 -82 -84 344 486 0
71 72 73 75 -84 285 -406 495 0
-102 43 -72 84 -104 426 471 0
-69 81 -82 -84 90 -471 0
-33 -31 34 35 -73 74 84 252 281 471 0
34 35 -38 73 -78 84 250 285 -319 432 0
-68 -33 -38 84 -319 387 0
71 -51 53 -54 55 58 72 73 83 -84 371 0
-455 62 -64 -84 383 398 471 472 0
-191 -84 85 86 -176 0
-32 35 38 51 53 54 -82 -84 281 -313 471 0
343 -55 -84 86 87 88 89 347 354 0
-217 31 33 35 37 38 81 -84 0
-68 -51 -53 -58 84 -319 0
-105 -51 -82 -84 -101 -102 340 375 471 0
-33 -36 51 -54 -84 -87 -319 346 0
-21 -28 -83 -84 125 0
-70 81 -82 -84 -471 486 0
503 -84 85 -495 501 502 0
-216 -32 35 36 37 81 -84 0
-104 -34 -40 -84 -101 -105 0
-216 61 -62 63 81 -82 -84 381 0
43 53 55 59 -82 -84 336 338 374 376 377 0
-108 -81 -82 -84 103 -105 -106 107 109 -473 497 550 0
-102 84 -105 -106 -319 386 387 420 0
90 34 35 37 -39 84 250 471 0
-268 71 72 74 84 471 0
374 35 37 38 52 -55 -56 354 360 0
510 -84 88 495 -498 507 0
-101 -55 -84 -85 -104 -313 0
-217 35 36 37 -38 81 -260 0
132 -38 -81 83 -84 177 267 273 0
-102 -55 -83 -84 -85 -103 0
-346 -55 -83 -84 -495 0
90 -82 -84 471 486 0
-365 71 72 -84 443 471 472 0
89 81 90 0
370 51 52 54 58 59 371 0
-369 -62 63 -65 73 -75 -319 405 428 0
-439 -83 -426 -491 0
-101 -75 -84 -85 -104 0
-87 -77 -84 -101 -104 0
80 72 74 76 77 79 429 0
387 62 63 67 82 -85 421 422 0
-62 61 65 393 395 421 422 0
-313 71 -72 -73 76 77 78 0
-387 1 4 82 0
-252 35 -38 250 253 254 285 0
-351 31 34 -39 -345 0
381 -62 64 65 66 -313 420 0
81 -62 65 66 -82 381 420 0
-182 -34 36 39 -197 270 0
604 82 105 106 107 -108 109 0
-135 -34 38 39 40 0
68 -17 -20 61 64 65 -313 381 391 400 0
-66 61 393 400 406 0
-78 -63 -68 84 -319 432 447 0
-68 69 387 391 402 424 0
61 62 63 69 410 0
-62 -313 381 391 393 394 395 420 0
-51 -313 336 338 340 341 342 0
43 52 55 56 58 356 0
-11 -16 -17 -51 58 336 337 360 0
-409 -89 0
474 -85 -471 0
400 61 -319 390 392 393 399 420 0
388 62 -313 382 389 405 406 420 0
-101 -55 -82 -85 -102 -313 0
405 62 66 67 -313 387 0
406 61 62 65 -313 420 0
510 -67 -68 72 74 76 -313 429 0
76 71 74 75 78 -313 0
57 51 52 55 56 0
358 51 52 55 353 359 365 376 0
65 66 81 -82 381 383 391 403 404 420 0
-66 385 393 400 406 0
-62 51 59 60 -82 386 391 395 396 397 411 0
-62 -313 381 391 392 393 420 0
64 62 65 69 70 -313 385 420 0
64 62 -313 382 388 389 0
-63 65 -313 382 391 400 420 0
-62 382 385 386 391 395 396 397 399 400 420 0
-51 -82 -84 -101 -102 336 337 343 344 0
53 55 56 59 60 346 375 0
-73 427 444 445 446 448 469 0
-72 51 -53 59 -73 359 0
-30 -28 62 63 64 -68 0
-441 61 -62 63 83 471 0
-72 -54 -58 -82 -84 437 438 439 0
456 -72 74 77 78 -313 426 0
72 73 433 434 452 453 456 0
-350 -52 342 345 346 378 379 0
-68 62 -313 387 408 0
-53 -313 337 354 355 375 0
82 34 0
281 33 34 35 -38 -51 -58 -59 0
77 71 72 75 76 0
344 51 -56 59 336 338 -340 0
376 51 54 56 58 345 377 0
359 51 -52 53 61 64 70 -345 346 381 0
56 51 52 55 58 0
-40 -34 -103 -105 585 0
-51 55 -313 336 338 342 371 0
-54 55 56 -319 338 375 0
-60 -53 -103 -104 0
-252 -51 52 55 56 -267 338 0
-68 -38 -40 63 381 383 391 0
81 66 -82 -84 399 414 420 -471 486 0
-51 -43 55 336 338 340 358 359 375 0
-52 34 38 39 40 -53 -81 246 0
-564 72 73 -319 462 -592 0
108 105 106 109 110 561 581 602 0
110 106 107 108 109 561 562 0
-473 -472 -489 495 0
-473 -472 492 -498 0
-473 -472 489 -495 0
-473 -472 -492 498 0
472 -489 -495 0
-7 0
54 -51 56 58 60 341 345 351 358 0
-67 -56 -57 -66 0
-64 -54 -56 -66 0
-4 -36 -37 -101 -105 -108 0
-106 -36 -37 -101 -108 0
-67 -1 -36 -37 -62 0
-67 -2 -36 -37 -63 0
-35 -36 0
-76 -77 0
-431 -430 0
-497 -496 0
-70 -1 -26 -30 -62 0
-205 -204 0
-13 -15 -23 -26 0
-3 -23 -27 -106 -108 0
-23 -3 -27 -107 -108 0
-220 -219 0
-62 -52 -56 -66 0
-315 -316 0
-4 -16 -19 -101 -105 -110 0
-108 -16 -17 -101 -106 0
-4 -14 -17 -107 -108 0
-3 -13 -17 -106 -108 0
-4 -14 -17 -106 -108 0
-108 -3 -15 -17 -101 -104 0
-108 -2 -16 -17 -101 -103 0
-15 -16 0
-1 -11 -16 381 0
-21 -3 -11 -16 -23 0
-31 -11 -16 -35 0
-19 -2 -16 -101 -103 -110 0
-3 -16 -17 -81 -84 -88 0
-108 -3 -16 -17 -101 -104 0
-3 -16 -19 -101 -104 -110 0
-4 -16 -17 -101 -105 -108 0
-1 -11 -15 336 0
-2 -15 -17 -101 -103 -108 0
-107 -12 -15 -103 0
-107 -13 -15 -104 0
-107 -14 -15 -105 0
-3 -13 -17 -107 -108 0
-63 -3 -12 -13 -66 0
-3 -12 -13 -103 -107 0
-13 -4 -14 -84 -86 0
-87 -4 -13 -14 -84 0
-12 -2 -17 -106 -108 0
-2 -12 -17 -107 -108 0
-107 -4 -24 -27 -108 0
-4 -36 -39 -101 -105 -110 0
-1 -82 -88 -107 -108 0
-56 -51 385 0
-77 -2 -75 -103 -105 0
-77 -2 -74 -83 -84 0
-77 -1 -74 -82 -84 0
-77 -2 -75 -83 -85 0
-65 -4 -56 -57 -67 0
-61 -66 340 0
-61 -2 -63 205 0
-107 -4 -34 -37 -108 0
-4 -21 -26 -31 -34 0
-77 -3 -75 -84 -85 0
-65 -4 -61 295 0
-67 -3 -56 -57 -64 0
-61 -1 -62 160 0
-64 -3 -61 250 0
-67 -2 -56 -57 -63 0
-3 -31 -36 383 0
-69 -2 -36 -39 -63 0
-21 -2 -26 382 0
-67 -1 -26 -27 -62 0
-1 -82 -88 -106 -108 0
-76 -1 -73 -82 -83 0
-3 -51 -54 249 0
-76 -2 -75 -103 -105 0
-76 -2 -74 -103 -104 0
-66 -1 -64 -82 -84 0
-64 -2 -66 -103 -104 0
-66 -1 -63 -82 -83 0
-76 -1 -73 -102 -103 0
-76 -3 -75 -84 -85 0
-76 -1 -75 -102 -105 0
-66 -1 -63 -102 -103 0
-65 -1 -66 -102 -105 0
-65 -3 -66 -104 -105 0
-53 -2 -35 -37 -57 0
-4 -24 -27 -106 -108 0
-1 -51 -52 159 0
-108 -4 -26 -27 -101 -105 0
-53 -2 -51 204 0
-76 -2 -74 -83 -84 0
-64 -2 -66 -73 -74 0
-77 -1 -73 -102 -103 0
-69 -56 -59 -66 0
-70 -56 -60 -66 0
-66 -53 -56 -63 0
-70 -2 -56 -60 -63 0
-65 -2 -66 -103 -105 0
-65 -2 -66 -73 -75 0
-592 -591 0
-439 -438 0
-587 -586 0
-107 -106 0
-475 -476 0
-29 -3 -26 -101 -104 -110 0
-101 -4 -26 -29 -105 -110 0
-108 -26 -27 -101 -106 0
-14 -15 -24 -26 0
-225 -226 0
-167 -168 0
-159 -160 0
-108 -15 -17 -107 0
-400 -84 135 -496 0
78 71 73 75 79 80 0
80 73 74 75 78 433 0
-1 114 0
73 -58 -59 71 74 75 0
78 -34 -35 72 73 74 0
72 71 75 -122 -319 0
-142 -84 85 -129 0
32 31 33 38 39 40 0
266 38 39 40 246 270 271 0
-77 4 -73 -74 0
78 74 75 79 80 427 0
80 71 74 78 79 444 0
-62 -56 -63 -66 -319 0
72 73 432 436 443 454 455 456 457 0
22 21 24 28 232 236 0
72 73 -319 429 432 0
392 3 -62 135 381 391 395 421 422 0
255 34 38 39 246 247 287 0
39 -11 -16 34 38 40 255 0
-374 -16 17 -26 27 0
78 72 73 428 456 457 0
78 72 73 433 434 450 0
-374 11 14 15 -16 -36 37 38 165 195 0
78 72 73 75 80 433 0
72 73 -84 -88 285 433 434 450 0
-581 3 4 -570 0
-187 -13 -15 -84 495 0
33 31 38 40 261 277 281 0
29 30 207 215 218 232 236 0
-74 4 72 -319 432 450 0
74 72 -313 429 432 0
437 -1 -72 440 0
69 -55 -56 -60 61 62 398 420 0
73 74 -82 -88 195 433 434 456 457 0
-57 -11 -16 34 38 -59 255 0
437 -72 -82 -88 195 426 435 436 0
-31 251 252 253 254 0
-61 -4 67 68 295 340 0
78 73 75 -319 426 0
-64 -54 57 -66 360 363 0
3 4 84 -483 0
-74 4 -73 75 -319 427 0
-61 67 340 384 387 0
-76 3 4 -73 -82 -83 0
-72 73 426 440 441 442 450 0
-74 4 72 75 78 -319 0
269 31 34 37 38 39 0
65 -54 -56 61 62 67 -313 0
75 -1 71 -72 73 -319 0
-56 -53 -63 67 382 399 403 404 0
434 74 427 429 432 433 435 441 442 448 449 0
78 -1 -72 73 74 429 0
78 73 74 75 426 0
-63 3 62 67 -82 -83 382 398 402 0
78 72 73 75 451 452 0
440 71 73 -319 456 457 0
-66 51 -56 -63 -319 348 0
39 34 38 40 251 255 0
-56 31 34 -36 -59 255 0
4 -84 85 88 -103 -104 0
-64 -63 -66 -405 0
80 -72 78 427 436 437 441 0
-65 1 3 -61 -63 -160 0
-19 -17 -26 -56 -59 0
-65 1 3 -61 -63 -250 0
254 33 35 -36 38 251 258 274 286 287 0
-59 -16 17 -56 0
-74 71 72 -73 78 -319 0
72 74 427 433 448 456 457 469 0
-76 3 4 -82 -83 -319 430 438 0
-63 3 135 -313 382 399 420 0
-107 -34 38 -105 286 287 0
-74 73 83 -88 285 428 450 0
-71 426 427 428 432 433 460 0
39 38 40 251 -255 259 0
78 426 427 428 435 436 443 456 457 0
71 -73 -74 78 79 80 0
-69 -56 -59 63 381 383 391 414 420 0
-165 2 4 -84 85 -169 0
-66 4 62 -63 -313 340 0
-59 -16 -56 -108 -110 0
-62 3 -313 381 391 394 395 396 397 0
-61 -3 250 340 381 387 399 421 422 0
-63 -2 -22 -26 168 205 -319 399 400 420 0
581 3 101 104 108 109 110 0
-106 1 3 -103 -105 0
61 2 63 64 67 129 395 0
268 38 40 -201 -216 266 270 271 0
-398 61 62 -63 67 68 404 409 0
-59 23 24 -26 -56 201 0
-76 3 -75 84 492 0
-64 -2 -66 -104 571 585 587 588 0
-444 -86 -445 0
61 -54 -56 62 -313 405 408 0
61 -34 -36 -54 -56 62 63 67 -313 0
72 -319 426 429 432 445 446 458 0
64 62 -313 340 384 387 0
-56 -51 385 0
-63 -53 -56 399 401 402 0
255 31 38 270 271 273 286 287 0
39 34 38 251 255 262 269 0
33 -34 248 256 273 274 275 0
76 72 74 -313 432 457 0
72 73 -319 432 456 457 0
-74 -1 2 83 432 450 0
74 -43 429 432 436 437 438 439 0
-63 3 61 67 68 84 -319 0
-66 52 -56 -63 -319 385 0
61 -53 -56 62 -319 399 420 0
260 33 34 246 252 277 281 0
-476 2 4 -471 -473 0
-174 4 114 -165 0
33 34 37 38 246 0
72 71 74 444 468 469 0
39 -22 -23 -30 37 38 254 578 0
-66 -53 -63 354 356 357 0
-570 3 4 101 104 108 109 110 0
563 82 102 106 107 109 604 0
-102 82 -84 -104 -108 135 495 0
-71 73 75 426 430 432 452 0
-56 -319 348 355 385 0
458 -1 83 -313 429 432 436 450 0
72 -1 83 -313 429 432 450 0
-63 3 4 61 -62 67 -313 399 0
73 74 426 432 440 456 457 0
-56 -16 51 54 191 345 374 0
39 31 38 40 255 272 0
-187 -13 -15 -84 -180 0
-56 -16 53 191 340 346 374 0
-87 3 4 84 0
-87 2 4 -82 -84 86 0
62 67 68 -319 340 382 400 0
-64 2 4 -66 -82 -84 0
72 73 432 450 451 452 456 457 0
73 74 426 456 457 468 469 0
73 -319 426 432 440 456 457 0
-107 38 39 40 -108 0
-226 1 2 -218 0
-445 3 4 -435 0
-74 426 432 436 443 450 454 455 0
78 73 74 79 80 427 429 0
78 72 75 -319 427 0
-70 340 397 404 410 422 424 0
266 -33 38 -313 0
62 -1 84 -319 384 386 387 399 420 0
-61 -4 295 340 386 387 0
-73 3 84 85 86 240 -319 427 491 0
-69 -68 73 426 428 436 442 456 457 0
64 -2 62 205 -313 388 389 0
-64 4 -63 -66 0
-62 2 3 43 381 390 394 395 0
-66 -63 84 129 135 0
-74 4 -319 432 436 450 0
73 -14 -15 72 -319 432 0
73 -72 -313 426 436 437 442 468 0
-72 73 75 433 434 436 440 0
440 -1 84 -319 429 432 444 0
76 73 -313 426 432 440 450 452 457 0
-68 -69 71 73 74 456 457 0
-71 426 427 428 429 433 469 0
72 73 -319 428 434 459 468 0
-71 426 427 428 430 432 457 0
-69 31 38 -67 -135 255 0
78 -3 73 74 -104 -105 426 0
-76 2 4 -74 -82 -84 0
-374 -16 -26 27 191 0
-61 340 384 386 387 0
64 2 3 61 129 -313 394 395 0
72 3 4 75 84 85 -319 432 0
-72 3 75 135 426 436 440 0
437 71 73 78 -319 0
-74 426 443 450 453 454 455 0
-13 -15 -17 -84 85 0
-77 -34 40 -75 274 285 0
-266 34 37 38 246 286 287 0
-102 4 82 85 -106 -108 0
392 -1 65 -82 -84 -313 384 386 387 420 0
-102 4 82 88 -104 -105 0
578 3 104 107 108 109 110 561 562 0
-20 -14 -17 -34 38 -108 -110 0
437 -72 73 78 426 436 0
72 71 73 450 468 469 0
-72 3 4 427 429 436 440 441 442 0
71 3 72 -73 74 84 -319 449 468 0
-74 2 4 73 75 79 80 -82 -84 0
71 -72 73 74 75 78 -313 0
78 2 3 73 -319 426 456 457 0
431 73 78 -319 430 432 437 0
-102 -103 -106 129 135 0
-13 4 -12 -17 -102 -106 -108 0
-102 4 82 88 -104 495 0
-66 2 -82 -84 135 -313 385 393 0
71 -1 72 78 -82 -85 135 0
385 -51 339 341 342 0
-73 3 4 84 85 -319 432 444 0
-77 3 4 -73 -82 -83 0
78 72 74 -313 429 0
73 71 75 -319 426 440 0
437 -72 78 427 436 441 442 0
-80 72 73 75 434 469 0
-61 62 -319 340 382 384 420 0
-495 -1 -82 -84 -313 384 386 387 420 0
-114 -72 73 75 -319 432 0
78 -72 74 75 -313 426 0
74 72 75 -313 432 0
-64 -34 -36 -54 -56 407 408 0
39 -11 -16 -31 40 285 0
-63 -53 -56 64 382 390 401 402 0
-64 43 68 83 401 0
437 -53 -55 -58 -72 -82 -85 426 436 0
-73 -12 -15 432 435 444 0
78 -34 -35 72 74 -313 0
72 -28 -30 432 433 434 443 444 447 448 449 450 0
-581 1 4 -578 0
255 -11 -16 -17 34 35 38 0
440 71 73 74 456 457 0
74 72 -313 432 456 457 0
-72 433 435 436 440 442 456 457 0
-72 -1 73 426 436 440 0
78 -72 427 429 436 441 442 444 0
84 2 3 4 -51 -55 -58 -319 0
-58 -1 -51 -55 -82 83 -84 -313 0
460 72 73 -313 428 433 454 469 0
442 72 74 -313 433 445 446 454 455 458 460 469 0
471 34 -84 0
-56 -57 61 63 65 68 391 0
-64 4 61 -63 65 83 391 403 420 471 0
-61 62 63 340 383 386 387 0
64 62 -313 340 384 420 0
-66 -54 -56 62 -313 340 0
-71 -319 426 427 429 432 0
-74 -72 -83 -84 135 437 440 0
437 73 433 434 436 440 450 451 452 0
-74 83 -88 285 428 443 450 0
-72 -14 -17 304 -313 426 436 440 0
453 -1 72 -82 -84 -313 429 432 0
453 72 -313 428 429 432 450 0
72 -38 -40 73 428 429 450 0
-72 -54 -58 -82 -84 -313 426 436 437 0
78 -72 73 83 -262 429 471 0
-72 3 -83 -84 135 426 437 440 0
437 3 -72 135 426 436 440 0
-69 43 -68 72 73 75 428 0
452 72 -313 429 432 451 458 0
-62 3 -313 381 391 392 394 395 0
68 -54 -56 62 63 67 340 405 407 0
-246 34 37 38 261 262 0
266 -33 267 268 269 0
482 1 -75 -76 -84 -85 0
-71 75 79 80 426 427 432 0
-74 72 73 75 -432 453 0
-72 21 28 71 74 81 84 218 221 227 435 471 0
62 -1 68 -82 -84 -85 -313 386 0
385 -51 55 57 342 0
-135 -34 -57 -59 0
-169 4 84 86 -191 489 0
566 102 103 104 106 109 604 0
-107 2 4 -82 -84 85 -108 0
-74 -1 78 -82 -84 428 0
78 72 -313 428 456 457 0
-3 -84 495 498 0
-61 -4 62 295 -313 340 383 391 420 0
-384 -1 -82 83 -84 -313 -387 0
69 -34 -36 -54 -56 62 63 67 -313 389 0
62 2 68 -82 -84 135 -313 386 405 411 0
439 -51 -55 -58 73 -319 435 438 0
439 74 -313 -339 -342 436 438 0
22 24 27 28 219 220 0
62 -319 340 382 384 399 400 420 0
78 -2 -73 443 444 0
78 -2 74 -103 -105 -319 426 444 0
78 3 71 -73 75 135 0
78 73 75 433 434 436 440 0
73 72 -84 -88 285 428 432 456 457 0
72 71 443 456 457 468 469 0
77 4 72 -73 75 79 80 432 0
-11 2 4 -16 -21 -23 381 0
339 43 -51 58 336 337 385 0
-72 -1 -313 429 432 436 458 0
-106 1 -12 -13 -103 -105 0
-129 -84 85 88 0
-129 3 112 120 128 0
110 -34 -35 103 -105 108 109 571 0
-64 -61 -84 -101 103 105 603 0
432 -34 -35 72 74 -313 0
-73 3 4 -82 -83 427 435 444 0
-63 -28 -29 -43 62 -313 382 401 0
32 -4 -11 -16 33 -34 36 0
82 85 88 -102 -103 -495 498 0
452 72 75 -313 432 451 0
453 72 -313 428 432 456 457 0
452 72 -313 432 443 450 451 456 457 0
78 72 73 428 429 432 450 0
-102 82 88 -104 135 495 0
61 4 -28 -30 -62 63 67 82 392 0
453 72 -313 432 433 434 445 446 450 0
-66 -53 -54 -56 62 340 0
76 72 77 78 -313 428 0
420 -4 -61 63 -250 -319 381 0
79 71 72 73 460 469 0
600 104 105 -107 574 581 0
-497 -84 87 502 510 0
78 72 73 -84 433 456 457 486 0
72 73 -339 -342 451 452 0
-1 -72 73 74 75 432 0
78 -34 -35 74 -313 426 0
-313 -1 -82 -84 429 432 440 450 0
-570 3 4 101 -102 -103 105 109 604 0
78 71 72 75 0
-29 -28 -43 73 75 432 433 434 436 440 469 0
-66 3 4 -65 84 88 0
-102 82 88 -103 135 495 0
-72 -14 -15 73 78 -319 426 0
62 -51 -57 63 -319 340 384 0
-30 -28 72 73 74 -313 429 0
-72 426 435 436 440 456 457 0
78 72 75 -313 428 429 0
-74 428 436 450 453 0
453 -52 -55 72 -82 -84 -313 428 429 432 0
-64 -68 -72 73 -82 -84 426 437 0
-570 3 -103 -105 -107 0
-114 -73 75 -122 432 443 0
-138 -34 -105 277 281 -313 564 571 591 592 593 0
-114 1 4 111 112 124 0
-102 82 88 -103 -105 135 0
452 73 426 432 440 450 451 456 457 0
-64 -3 65 67 250 -319 0
-74 -2 73 75 78 82 0
62 61 65 67 68 -82 -84 0
78 -34 -35 71 -72 73 74 0
-108 -3 -84 85 -106 0
2 1 4 -26 -27 -81 -84 85 0
-491 3 4 84 0
-73 -1 82 85 88 -313 0
78 -72 73 75 -82 -84 -217 0
-102 4 -12 -13 -103 -106 0
-163 -31 72 74 251 252 262 -313 427 0
-63 62 135 -313 381 382 405 420 0
69 -56 -60 63 64 381 415 420 0
431 72 74 76 -313 432 0
78 -72 73 74 75 -313 -427 0
-72 78 83 -216 427 436 437 473 0
70 61 62 69 135 405 420 0
-585 104 -105 109 110 563 571 582 0
-63 62 135 -313 381 383 399 400 420 0
-271 -135 0
-114 -574 0
-83 -82 -84 0
-497 -129 0
-497 83 484 0
-482 -83 -495 0
-482 83 495 0
-281 -142 0
500 83 -487 0
485 83 -498 0
-64 -31 -36 -61 129 0
-61 -11 -16 -62 114 0
122 -2 0
135 -4 0
83 -346 0
-67 -61 -71 -77 142 0
-592 -135 0
-439 -114 0
-446 -122 0
83 -391 0
-587 -129 0
-122 -581 0
-484 83 497 0
-112 83 0
-436 83 0
-526 83 0
-571 83 0
-496 83 483 0
482 83 -495 0
-483 83 496 0
499 83 -486 0
-473 83 471 0
-485 83 498 0
-114 -484 0
-135 -226 0
-129 -220 0
-236 -142 0
-457 -135 0
-142 -371 0
-483 -83 -496 0
-129 -452 0
-542 -129 0
-491 -122 0
-510 -142 0
-502 -135 0
-191 -142 0
-135 -181 0
-175 -129 0
-168 -122 0
-142 -122 124 0
-124 122 -142 0
-142 -129 131 0
-142 -135 137 0
-122 121 -135 0
-129 128 -135 0
-129 112 -114 0
-114 111 -122 0
-116 -114 142 0
-449 61 62 64 -83 472 0
-114 -135 -482 0
-66 83 400 -473 -496 0
-439 -1 0
122 1 3 4 0
-114 1 111 112 135 0
-77 -74 -82 -84 122 135 0
129 -3 0
-76 83 430 445 -496 0
-65 61 83 -313 -495 0
-142 1 124 131 135 0
43 81 -84 0
70 61 66 83 399 420 -486 0
252 34 35 36 -38 40 84 90 -285 472 0
-142 35 39 40 -150 0
-67 -61 72 73 76 142 -319 458 0
83 82 0
53 51 55 58 83 377 -471 0
78 72 73 74 -135 0
-73 -78 -83 240 489 490 491 0
489 -12 -15 -17 -83 0
122 -11 -16 129 135 381 0
-142 -82 -84 124 137 495 0
-129 -84 88 -135 0
106 83 103 107 109 -471 604 0
-496 83 86 501 507 0
-69 83 388 403 -486 0
-497 2 4 83 0
-439 4 129 -435 0
-150 51 55 59 -142 345 365 0
-393 3 4 -390 0
342 -51 56 57 83 -313 -471 0
-61 -31 -36 62 129 382 388 411 422 424 0
-498 43 83 103 107 109 110 -473 594 0
-108 83 103 104 106 107 -473 -498 0
-55 51 83 -313 -495 0
-67 -61 72 74 76 142 -313 430 458 0
-61 -2 -11 -16 114 205 -319 340 384 420 0
-69 -34 -67 -135 0
78 2 4 73 75 83 426 0
-65 -55 83 384 -471 -473 -495 0
-75 83 444 -473 -495 0
-77 62 63 -71 142 -319 387 411 0
62 61 83 -84 88 -313 398 421 423 -487 497 0
-64 62 135 386 405 408 409 410 0
492 -83 85 490 491 0
73 122 129 135 -319 429 432 458 0
-129 -84 88 495 0
-65 83 399 -473 -495 0
59 -43 -55 83 -105 -110 -471 0
-102 -11 -16 -43 -62 81 -82 -103 114 0
-483 83 313 475 0
57 51 56 58 81 83 0
-65 -52 -55 83 -313 384 392 0
-586 1 135 -578 0
-122 -83 88 489 0
135 83 -84 122 495 498 0
-73 -83 -404 427 443 472 0
129 1 11 13 15 -16 -166 0
-73 135 -313 427 435 450 0
88 4 83 -84 -103 -104 -105 0
-38 34 35 36 37 -84 -471 -589 0
-12 4 -17 -84 85 -103 -104 0
-122 -103 105 109 -471 604 0
135 1 101 -103 -104 105 109 604 0
486 81 90 0
-63 -21 -26 122 390 398 403 404 0
-60 83 344 -487 0
-497 83 122 135 0
381 -11 -16 -31 -34 122 129 0
-367 -55 83 356 376 377 -471 0
83 84 0
-83 81 -84 0
4 1 121 128 -135 0
-217 53 54 55 56 83 375 471 0
-454 61 62 83 -313 398 471 0
-58 -38 -40 83 357 -471 0
82 -443 0
82 -398 0
82 -353 0
82 -165 0
82 -578 0
82 -120 0
82 -16 0
36 34 35 37 -52 -53 -84 0
370 -60 84 340 375 -487 0
-269 71 -73 74 -83 472 0
89 -83 472 487 0
203 -26 27 28 -29 216 223 0
236 -26 -56 -59 0
247 32 34 39 40 285 0
255 31 34 35 36 37 0
285 31 34 39 40 255 0
90 81 486 0
-487 23 24 28 -30 -471 0
69 -54 -58 -60 62 -64 67 398 411 0
388 62 63 65 66 67 389 0
415 62 63 66 382 383 420 421 423 0
65 61 62 66 68 0
385 -61 384 386 387 0
-565 -51 -56 0
21 23 24 27 28 0
22 21 27 28 218 0
-201 34 -313 0
411 -57 -59 63 68 83 -319 0
403 -319 382 386 387 390 396 397 404 405 406 411 420 0
71 -62 -66 -76 -82 -84 -313 0
-83 -16 -84 0
-33 -23 -28 -38 84 0
-12 -13 -83 86 87 -104 -105 -108 471 0
382 3 -63 83 135 -313 420 -495 0
109 -84 105 106 107 110 562 604 0
-107 -16 -104 -105 381 -578 0
471 34 -313 0
51 55 -62 83 -313 371 381 392 394 420 471 0
-34 38 -103 104 -105 108 -135 274 563 0
-32 -33 -81 -82 -103 104 107 109 110 597 0
72 71 -122 -319 444 0
432 -1 73 84 -88 195 -319 429 444 0
432 -1 2 -82 -84 -88 195 -313 429 -585 0
-107 -12 -17 -82 -84 85 -105 -108 0
440 74 -313 429 431 432 436 438 457 0
-469 72 -313 428 429 434 450 455 0
-122 -101 104 110 -564 572 593 594 0
-591 1 -578 -585 0
-74 2 4 -82 -84 -88 285 450 0
74 -34 -35 -201 -207 -313 456 0
-74 4 83 -103 -104 -313 432 443 450 0
1 4 101 -104 -105 108 109 110 561 -578 0
75 73 -319 426 432 438 439 0
-85 -55 -84 -103 -104 -471 0
72 43 71 74 -103 -104 448 0
85 1 -82 -84 101 102 -103 104 -105 -108 109 110 0
-107 1 -103 -105 129 0
66 65 68 -319 381 401 0
35 34 36 38 246 269 286 0
-313 4 72 -73 432 444 0
386 62 68 -82 -84 -102 -105 -313 406 411 0
-1 72 -73 75 -102 -103 432 0
40 34 38 39 -72 -73 -81 -82 285 0
-72 -1 3 74 -82 -88 135 195 426 444 0
-114 -82 -84 482 498 0
495 4 -82 -84 86 -106 -108 122 497 0
-55 53 -319 339 347 0
-135 2 4 128 -482 0
-72 -55 -81 -82 -313 360 436 440 0
61 62 65 -313 406 407 0
-73 -1 72 74 -102 -103 432 444 0
-58 51 52 -53 74 -78 -82 -84 -319 359 432 0
74 -2 73 78 -103 -105 426 0
75 73 78 426 428 436 0
-73 426 428 436 444 445 446 448 449 0
-61 -313 340 381 383 384 386 0
110 106 107 109 -471 -485 588 0
-89 35 36 40 -88 268 285 -477 0
-73 -12 -15 -313 427 444 445 0
106 4 -28 -30 81 -84 -102 -103 104 -105 107 108 110 444 0
85 2 4 -82 -84 86 -106 -108 497 0
-272 -105 106 109 -286 570 585 592 0
489 3 4 84 -169 0
-482 -1 84 -319 384 386 387 420 0
-75 2 3 -82 -88 195 -319 429 444 0
-73 4 34 37 38 -83 246 -319 427 435 444 472 0
195 -1 73 84 -88 -319 429 -440 444 0
72 -2 73 -83 -85 -319 432 444 0
73 74 -81 -82 -101 -105 -319 426 432 440 0
109 -16 -17 -84 87 103 104 -105 107 -108 110 561 0
-3 -16 -17 -81 -84 495 0
-74 4 -82 -84 -102 -105 -319 436 472 0
4 71 -72 76 122 129 -135 -313 -435 0
-52 -22 -29 51 -103 -110 -313 337 346 351 352 0
-86 2 4 -82 -84 0
-483 2 4 83 0
74 -1 2 4 -71 72 78 -82 83 -85 -313 450 0
-62 51 -58 83 -313 386 392 393 0
110 103 105 106 107 571 603 0
68 61 65 -313 386 391 394 406 411 0
-217 -62 63 68 81 386 391 411 0
-216 -62 63 68 81 386 391 411 0
-72 -15 -17 73 349 432 436 441 442 457 0
-74 2 4 72 -82 -84 -88 -101 -102 285 482 0
-575 83 -84 484 496 -593 0
74 72 -122 -313 432 433 434 0
-72 -11 -17 116 438 439 440 441 442 0
-442 31 -34 35 37 81 271 -313 0
-72 -22 -27 71 169 436 441 442 0
-79 433 441 448 454 0
-33 -23 -28 -38 83 0
-216 -72 81 429 430 432 435 436 0
-1 -72 73 78 429 450 0
73 -28 -30 72 74 -313 440 454 456 457 469 0
61 65 83 -313 381 420 -496 0
72 -28 -30 74 -313 427 429 0
-74 4 -28 -30 -313 429 432 434 436 444 454 460 0
78 -34 -35 -72 74 -313 426 0
73 -34 -35 74 78 79 80 428 0
-114 73 -80 434 437 455 0
-104 4 -84 85 88 105 107 571 589 590 597 0
78 3 -72 135 -313 436 437 441 442 0
-46 0
-1 3 -43 83 -84 -85 -313 432 444 0
-75 429 437 444 450 0
-59 55 351 358 364 376 0
74 72 76 -313 431 458 0
-319 71 72 -74 -84 -313 472 0
-78 -313 432 440 453 0
-442 -62 81 381 390 391 0
-73 4 72 -74 75 432 0
-261 61 -62 63 83 471 0
-74 4 -82 -84 122 135 432 440 450 0
-434 -11 -16 35 -38 191 -252 285 0
61 51 -54 -55 -62 63 -65 81 -82 83 -84 353 354 473 0
432 72 -313 429 450 451 452 0
-220 1 14 -16 135 160 0
-262 51 54 -55 81 -313 354 0
-443 4 72 73 -74 75 -82 -84 -313 0
-73 43 432 440 444 445 446 0
-43 -1 83 429 432 437 450 0
38 34 35 37 -81 -84 -104 -110 284 0
-73 -12 -15 427 435 444 445 0
102 101 104 106 107 109 563 604 0
-38 -15 20 37 -471 0
-85 4 43 101 -103 -105 106 107 109 -471 0
495 4 87 -103 106 -108 109 110 -471 496 0
73 -319 426 430 432 438 440 457 0
109 4 87 -103 106 107 110 -471 476 496 604 0
-15 37 -471 0
72 -1 73 -82 -84 -88 285 -313 429 432 0
-76 -51 -71 142 342 -456 0
406 62 -313 340 386 387 405 420 0
4 1 2 72 -82 -84 88 -313 432 498 0
-443 36 -37 38 51 -57 59 -84 251 268 270 277 341 349 -362 471 0
38 35 250 251 261 262 281 -313 0
-39 35 38 84 90 274 281 471 0
-103 -2 84 -105 -336 0
-160 -4 -61 63 84 381 0
-74 -13 -15 84 428 450 0
-446 1 129 -444 0
427 72 -73 78 -313 0
110 4 43 -84 101 -103 -104 106 107 109 -471 0
-54 -71 -73 83 313 0
-38 -23 -28 83 273 313 0
-103 -72 -73 -81 -101 0
-78 -38 -40 73 432 436 0
-3 72 75 -313 432 0
-74 73 428 436 454 455 0
58 52 53 -55 56 57 61 62 63 -64 83 -313 471 0
-16 13 160 168 181 0
-75 72 -313 429 450 0
-384 72 -122 -319 -387 435 0
-135 71 72 78 443 0
3 2 78 84 -319 426 427 429 0
-342 -21 -72 81 84 -129 -201 205 232 -319 -339 429 0
-107 -65 -70 -105 0
34 -37 251 259 -313 0
-110 -35 -108 0
31 32 36 38 -313 0
77 -55 -57 73 74 426 432 440 0
-45 8 0
82 -469 0
84 319 0
84 -472 0
84 -81 0
84 -313 0
-471 -472 0
-471 473 0
-301 -82 0
-286 -277 0
-277 -287 0
-241 -232 0
-197 -15 0
-196 -15 0
-242 -232 0
-500 -486 0
-455 -90 0
-410 -90 0
-365 -90 0
-499 486 0
473 -81 0
77 72 76 -313 432 450 0
446 72 -73 75 76 432 0
594 83 -105 -473 -495 579 0
-486 -59 -471 0
60 53 59 -471 0
580 102 104 105 107 110 603 0
581 104 105 110 561 580 603 0
571 103 105 106 107 603 604 0
571 101 103 105 109 604 0
589 -104 563 571 578 585 0
396 -43 -62 -102 -103 391 392 393 420 0
381 -17 -20 63 64 -67 0
394 61 -63 68 399 400 0
433 72 73 434 450 453 0
433 72 73 76 434 450 452 0
-427 -71 72 73 75 447 0
433 72 74 75 78 80 0
373 -59 343 347 376 378 0
-71 -66 -74 -76 83 0
379 -51 52 53 54 55 336 341 0
343 -51 55 60 337 340 346 375 0
-43 -52 59 -102 -103 336 0
60 -51 56 57 59 342 345 360 0
448 71 -72 73 -435 449 0
-444 73 -75 427 435 0
439 71 73 74 437 438 0
436 -4 78 426 427 428 435 0
499 83 -429 487 -495 0
-192 -45 0
-282 -45 0
-582 4 -84 85 -103 -104 0
-76 -62 -66 -74 -84 0
2 -65 -66 -82 -84 88 496 0
341 -51 56 -82 -84 -101 -102 342 0
2 -23 -24 83 -84 88 0
75 71 -72 78 84 0
-101 51 -55 82 -105 -313 0
-381 34 -313 0
393 -51 -55 -62 -101 -102 -313 420 0
75 78 84 426 427 0
-40 33 43 254 262 585 0
-336 73 75 84 -342 0
78 73 -319 426 456 457 0
-54 -51 -52 -64 -319 0
-347 43 73 -75 78 -336 0
73 -38 -40 74 75 426 0
-54 -51 -52 -74 -319 0
-40 -38 -51 -52 84 0
-396 71 -72 73 75 81 453 0
-261 73 74 75 78 81 -426 0
-40 31 34 262 269 0
78 -1 43 73 75 429 0
84 -38 -432 0
75 4 72 -73 78 79 80 0
3 4 -82 84 88 122 -319 432 0
88 -1 -55 -82 -84 86 87 -313 340 342 387 398 420 497 0
71 -1 4 72 73 -82 -84 458 0
-85 2 3 4 83 432 474 0
-206 32 35 38 -205 -313 0
-218 -84 87 -227 496 0
-74 -129 -313 432 436 450 0
-85 2 3 4 -34 35 83 -84 281 432 503 0
72 3 71 78 -82 -85 129 135 -444 450 0
-102 -1 72 73 -75 78 -105 -319 0
56 51 55 58 -313 346 0
4 2 3 81 83 -84 88 -313 426 432 0
4 2 3 -43 -82 -84 88 432 498 0
80 74 75 79 426 427 438 439 443 0
-72 -82 -88 195 427 429 436 441 442 444 0
-104 4 -74 83 -103 -105 -313 428 443 0
-102 -1 72 74 -75 -105 -313 432 0
35 31 33 -34 38 256 272 0
2 4 -82 -84 85 88 0
-72 83 426 438 439 442 444 468 471 0
78 3 4 72 74 75 84 0
-108 3 4 -82 84 85 -104 105 603 604 0
-85 -55 -84 -105 106 -471 0
-105 564 571 580 592 593 594 595 0
3 4 -82 84 122 -169 382 386 420 0
-261 71 73 74 81 455 0
-1 65 84 384 386 387 392 420 0
429 3 4 43 72 78 -82 -83 -319 0
-217 -72 74 84 429 432 0
-104 -72 78 -82 84 -102 429 0
88 -13 -14 21 -26 27 28 -82 -84 85 86 0
-51 -8 -313 336 338 340 341 475 0
21 22 23 -28 34 -45 -84 -313 0
-347 -2 -26 -45 -55 -81 -82 -103 104 105 -108 -110 336 346 350 376 591 0
-85 -55 59 60 -81 -84 -471 0
360 -45 51 -55 59 60 -81 -82 -103 104 105 336 0
-495 1 3 -45 -55 83 -471 0
-64 65 -313 383 391 406 420 0
102 -2 -45 83 -84 85 88 105 588 604 0
220 21 -26 28 -34 -43 -45 -103 -108 201 216 229 449 -582 0
-63 -2 205 -313 391 399 420 0
-103 4 -84 85 102 105 -108 110 580 581 583 0
-62 -313 384 386 391 393 395 412 0
-72 3 -122 135 -313 429 436 440 441 442 0
63 3 -62 -72 81 83 -122 135 -313 381 429 440 471 0
387 -43 -51 55 56 62 -313 336 340 386 405 406 0
-66 83 -313 340 -496 0
-441 25 26 28 -83 206 218 472 0
-73 74 440 444 445 446 448 449 0
561 -2 4 26 28 -45 -84 85 88 105 449 588 0
101 26 28 -45 -102 104 105 449 580 581 583 0
429 3 4 -82 -84 122 285 -313 432 438 439 440 495 0
-88 3 4 -21 -27 -45 -51 57 62 63 84 195 240 336 360 381 386 426 457 0
38 23 26 28 -34 36 -45 81 -83 472 0
-341 -61 371 384 387 0
-73 3 4 72 75 79 80 -82 -83 443 0
-78 55 56 -58 -72 -82 84 375 0
420 -1 3 4 -82 84 340 386 387 393 399 -482 0
-61 -313 340 381 386 387 405 0
71 -72 74 76 78 -313 457 0
-1 4 -82 -84 88 -313 386 387 420 0
67 61 62 63 68 -84 88 398 497 0
342 -51 56 57 -313 347 360 0
22 23 -26 -34 -45 203 206 0
-53 -2 -43 -45 -51 -55 203 0
437 4 -72 129 426 436 438 440 0
-45 -18 0
-13 -15 -84 85 88 0
-74 4 -55 -82 -84 313 428 0
-66 -64 -82 -84 -103 -104 135 0
20 -16 -17 18 -26 35 -36 38 -45 161 165 166 173 195 236 0
-166 4 -8 11 -16 -73 84 -221 427 432 0
-32 -16 -17 -22 -27 38 -45 0
426 73 78 -135 -319 0
-262 73 74 78 84 429 432 0
-397 71 -72 73 75 84 453 0
-68 -72 -78 84 387 395 0
4 3 84 88 -135 0
429 -1 3 73 78 84 432 0
72 73 84 142 342 426 432 457 0
72 73 84 430 432 457 0
-52 -55 78 -82 84 427 0
-381 73 78 -319 -385 457 0
-78 31 34 -38 73 -82 -83 -319 432 0
-78 34 -38 -68 -72 -82 84 0
-579 -103 105 -471 591 592 594 604 0
75 74 -122 -319 432 440 -471 0
-73 4 -64 -66 -84 -313 426 429 437 445 446 0
-69 -62 -65 -68 74 -319 426 427 428 434 440 449 0
-495 83 106 109 110 -473 561 -579 600 0
101 1 3 102 104 -105 109 563 581 604 0
-25 0
-86 -8 -105 -106 -471 -597 0
206 26 28 -45 -84 -85 -105 -108 216 218 0
72 26 -28 71 206 215 227 427 428 432 443 456 457 469 0
495 26 -28 -45 82 -84 103 104 -105 -106 206 457 0
-106 3 -34 38 -62 103 104 0
-73 3 26 27 71 135 426 443 444 469 0
-85 3 16 -34 38 -45 103 104 106 313 -561 0
313 3 16 -34 38 -62 103 104 0
561 3 16 -34 38 -62 85 103 104 0
-105 3 16 -34 38 -62 85 103 104 0
360 -2 -43 -45 52 -55 59 203 -313 341 374 475 0
57 -2 -45 -51 54 55 336 359 0
57 -2 3 15 16 26 37 38 -45 51 53 -55 56 -62 -82 85 103 104 105 106 107 135 226 -313 400 457 -561 0
63 61 -62 69 -82 192 -313 415 422 495 498 0
-59 51 -82 90 -313 471 0
-55 3 16 -34 38 51 -62 -68 -82 103 104 471 0
-272 16 -34 38 -45 281 -313 -386 0
-138 -34 35 38 -45 103 -105 108 319 561 0
202 3 -23 24 26 27 -28 74 77 81 -82 -122 135 218 240 -313 429 430 436 450 471 0
-23 3 -12 -13 16 24 26 -28 39 40 -45 83 -104 -313 398 443 471 578 -585 0
-32 35 37 261 262 282 0
16 -45 158 169 176 0
-27 -8 -21 -28 55 -313 346 0
135 3 -73 75 -313 427 0
220 -4 -22 24 -26 27 28 -34 -40 -82 215 269 273 0
22 14 -16 24 -26 27 28 -45 169 0
102 -45 -103 104 105 109 -603 604 0
36 -12 -16 26 28 38 -45 -103 105 -603 0
-471 -2 -8 -14 -16 -20 -26 -27 -43 -45 230 588 592 604 0
-34 -14 -16 -27 -29 -45 0
218 -14 -16 21 26 -27 34 -38 -45 214 0
-83 -14 -16 21 26 -27 34 -38 -45 214 -218 0
-604 12 13 14 15 26 28 -45 -161 195 0
-4 1 -23 -24 -45 -84 0
-23 -16 -24 34 -38 -45 83 0
-228 -24 28 -45 240 0
-495 -1 -16 34 -38 -45 83 -105 252 -319 432 0
102 11 15 -45 -84 -88 101 -103 -105 108 176 182 -579 0
-593 -45 105 561 564 572 -582 585 0
-1 -16 -24 34 -38 -45 83 0
-51 -8 -31 34 -38 -313 338 341 0
-43 -4 34 -38 -45 83 -313 375 0
11 -16 -24 28 34 -38 -45 83 0
-108 -16 -17 -24 28 -45 -105 0
-17 -16 -24 28 34 -38 -45 83 0
-72 -313 426 436 437 440 0
-103 105 106 108 109 581 584 0
45 0
-58 -51 475 0
-89 -3 -58 -59 -84 0
-56 -58 0
-59 -13 -15 -54 0
-274 -270 0
-275 -270 0
-35 -38 0
-39 -35 0
-604 -597 0
-109 -106 0
-603 -597 0
-107 -109 0
-110 -106 0
-70 -3 -68 -84 -90 0
-589 -587 0
-204 -207 0
-208 -204 0
-204 -209 0
472 -2 -21 -28 0
-31 -21 -28 -36 0
-224 -219 0
-222 -219 0
-223 -219 0
22 21 24 28 29 30 0
24 21 23 26 28 0
27 21 23 24 26 0
-265 -267 0
-270 -273 0
-355 -357 0
-281 -285 0
-258 -260 0
-271 -273 0
-250 -252 0
-68 -64 -84 -87 0
-361 -363 0
315 -319 0
-228 -225 0
-228 -226 0
-87 -62 -68 -82 0
-172 -167 0
-20 -15 0
-19 -15 0
-109 -12 -16 -103 0
-109 -13 -16 -104 0
-14 -16 -105 -109 0
-23 -13 -16 -28 0
-38 -14 -16 -34 0
-109 -12 -15 -103 0
-13 -15 -54 -60 0
-60 -12 -15 -53 0
-16 -14 -24 -28 0
-14 -15 -24 -28 0
-13 -15 -23 -28 0
-23 -4 -13 -14 -28 0
117 -1 0
125 -2 0
-86 -68 -70 -90 0
-63 -2 -64 -84 -86 0
-56 -21 -28 -51 0
-79 -1 -78 -82 -89 0
-73 -2 -74 -84 -86 0
162 -1 -81 -82 0
-86 -81 342 0
-79 -3 -78 -84 -89 0
-80 -1 -78 -82 -90 0
-81 -3 -84 252 0
-31 -3 -38 473 0
-56 -31 -38 -51 0
-87 -2 -73 -74 -84 0
-56 -37 -38 -57 0
-56 -27 -28 -57 0
-109 -34 -35 -105 0
-87 -81 387 0
-90 -1 -58 -60 -82 0
-109 -34 -36 -105 0
-70 -1 -68 -82 -90 0
-30 -1 -28 -82 -90 0
476 -61 -68 0
-109 -23 -26 -104 0
-80 -78 -87 -90 0
-55 -4 -51 0
-52 -1 -60 0
-3 -54 -60 0
-59 -1 -52 0
-59 -2 -53 0
-60 -2 -53 0
-21 -4 -28 -31 -34 0
-54 -3 -59 0
-104 -3 -28 -29 -101 -110 0
-90 -2 -58 -60 -83 0
-89 -2 -38 -39 -83 0
-40 -1 -38 -82 -90 0
-29 -1 -28 -82 -89 0
-89 -1 -38 -39 -82 0
-106 -52 -60 -102 0
-60 -55 591 0
-59 -55 546 0
-60 -51 -101 -106 0
-60 -53 -103 -106 0
-379 -374 0
-373 -378 0
-36 -38 0
-288 -283 0
-254 -249 0
-53 -43 -55 225 0
-80 -75 -105 -108 0
-315 319 0
-106 -105 370 0
-577 -573 0
-107 -61 -70 -101 0
-603 -600 0
-580 -584 0
-583 -580 0
-58 -54 -84 -86 0
-591 -595 0
-591 -594 0
-244 -239 0
-110 -4 -28 -29 -101 -105 0
22 21 23 26 27 0
26 21 22 23 28 0
29 21 22 23 26 30 0
26 27 28 0
22 21 23 27 28 0
-207 -205 0
-225 -230 0
-38 -24 -26 -34 0
-240 -232 0
-212 -215 0
-222 -220 0
-215 -213 0
-243 -238 0
-249 -252 0
-253 -249 0
-132 129 0
-340 -342 0
-311 -313 0
-187 -195 0
-191 -195 0
-181 -183 0
-174 -177 0
-175 -177 0
-168 -170 0
-164 -159 0
-159 -162 0
-160 -162 0
-142 -152 0
117 -114 0
-117 114 0
-142 150 0
132 -129 0
-125 122 0
13 11 12 15 17 0
17 11 12 14 15 0
19 15 16 20 0
16 12 13 14 15 0
20 12 13 14 15 19 0
13 11 12 14 0
13 11 14 15 17 0
22 21 24 29 30 236 0
164 12 13 15 19 158 185 0
20 3 4 13 14 -15 16 196 336 0
240 30 201 220 226 241 243 0
-67 -2 28 29 30 -63 0
236 -29 208 216 226 227 243 0
277 31 39 40 255 271 273 0
20 3 4 13 14 -15 336 0
-218 26 28 201 221 0
160 12 13 15 182 0
-57 15 16 -59 0
240 21 26 30 216 218 0
-69 15 16 -67 0
-59 27 28 -56 0
24 23 26 201 240 0
20 15 19 191 0
27 26 201 -218 228 0
-37 -27 -28 -36 0
55 54 57 -60 336 359 0
52 60 337 343 354 360 371 375 0
-381 26 28 218 -386 0
498 -61 -81 -84 381 382 388 422 424 0
20 11 12 16 19 173 0
-37 -14 -34 -36 0
-354 -24 -43 236 240 0
253 37 38 254 261 262 268 269 0
-205 -21 26 236 0
27 28 29 -201 209 218 0
579 21 23 26 29 -43 214 0
-424 26 27 37 -38 0
12 11 14 16 0
255 31 34 281 285 0
29 24 30 201 207 215 220 0
-270 54 -55 336 337 345 0
17 -2 -12 0
-57 26 28 -59 0
-267 35 37 -38 -313 0
-270 -43 52 -55 360 0
24 23 27 201 0
206 22 26 30 218 243 0
216 26 30 208 218 240 0
54 -2 51 52 0
-59 26 27 -58 0
-432 2 -82 -84 -85 89 90 0
-59 15 17 -56 0
-56 28 29 -37 -40 -57 0
-57 21 28 -59 220 226 0
229 21 26 30 -218 240 241 0
-57 11 13 14 15 -59 0
-165 14 15 17 175 0
29 28 205 220 226 242 0
19 11 12 15 20 173 0
254 38 249 253 255 271 272 281 0
30 28 29 236 0
30 21 28 220 226 241 0
240 29 30 236 0
240 21 30 216 218 220 226 0
-69 26 27 -68 0
239 28 236 238 241 242 0
-377 15 16 26 28 0
240 21 22 26 218 0
29 27 30 0
244 26 29 240 242 0
19 11 12 13 20 0
20 16 19 187 0
27 21 28 -218 226 0
-39 15 20 -26 -27 -36 0
-109 -110 0
27 26 30 243 0
15 16 161 166 176 0
-271 -34 36 281 0
52 59 337 341 342 346 356 359 360 374 377 0
-103 15 -16 -105 -107 191 381 0
55 52 54 57 337 0
161 16 166 176 0
53 -3 51 52 0
243 24 26 30 201 221 0
60 53 59 338 341 346 347 0
-17 -19 -28 -29 35 40 -56 -59 0
195 15 -56 -59 161 165 166 173 0
360 -55 347 354 -411 0
227 21 22 28 220 226 0
-277 -285 0
180 -15 167 174 0
-57 28 30 -43 -53 -56 0
-388 14 15 17 72 73 74 165 0
-389 14 15 17 72 73 74 165 0
-57 15 -20 -37 -40 -56 0
36 31 32 34 38 0
-31 38 -252 285 0
-285 -24 -34 -38 0
-288 26 30 -285 0
-40 254 262 269 270 287 0
-456 -43 52 54 -55 0
216 30 208 229 236 240 0
34 36 37 -38 246 267 0
27 24 28 29 -201 209 0
27 26 29 209 215 218 0
-582 15 16 176 -579 0
-26 -28 0
-187 15 -17 0
-206 26 28 72 73 74 -163 0
13 11 16 166 0
-161 13 14 15 169 194 196 0
-444 62 -63 67 -83 88 382 398 0
181 15 160 168 196 197 0
253 -31 35 254 281 285 0
39 35 40 251 255 272 0
20 17 19 0
-595 -28 -34 35 -228 240 273 281 0
277 39 254 262 269 281 285 0
-252 -4 -81 -85 0
33 34 38 246 281 0
-162 -4 -81 -85 0
277 36 39 40 285 0
-30 209 217 218 239 242 0
352 -60 344 359 360 377 0
14 11 13 15 191 0
-20 -11 -13 33 35 -40 281 285 571 0
-13 15 16 -23 195 236 240 -590 0
-104 -34 35 -105 274 281 285 319 0
-230 -14 15 16 -34 0
-14 15 16 -34 -595 0
236 21 23 211 240 0
55 54 57 336 337 345 0
195 11 12 15 173 191 0
281 -34 35 -103 -105 274 285 585 0
-313 -1 51 58 354 360 371 0
-595 -24 -34 35 236 240 281 285 0
-289 35 38 -40 285 0
-426 -28 218 240 -432 0
27 -11 -13 23 24 26 -82 -84 0
370 54 58 336 354 359 371 373 376 377 0
-352 -22 26 27 -32 38 258 277 0
11 16 -103 -104 -105 187 0
-349 -22 215 -371 0
60 53 55 57 59 337 346 0
56 -51 52 54 55 337 375 0
-35 -16 26 28 0
-3 -23 221 0
214 21 23 24 26 0
24 23 28 201 236 0
-162 -81 83 85 88 0
187 11 12 13 16 0
55 52 59 60 353 371 375 0
104 101 102 -103 -125 604 0
-30 209 215 228 239 242 0
26 28 206 216 227 242 0
209 205 207 213 215 218 241 242 0
27 26 207 215 218 0
-51 339 341 -565 0
-17 -14 -15 -34 0
260 31 -38 285 -313 0
236 -26 205 213 220 0
213 -26 205 220 241 242 0
26 28 206 217 227 241 0
230 21 22 229 236 240 0
-30 23 209 230 236 240 0
-60 -1 344 359 365 0
37 34 246 247 255 0
-58 -82 -86 342 0
215 -28 207 228 240 0
22 23 24 26 208 209 0
28 21 22 218 236 0
-374 17 -36 37 38 0
-4 -34 -106 -108 0
-264 -313 0
236 28 30 -201 216 218 0
244 -28 207 215 222 229 0
285 -38 -201 -215 -313 0
239 -24 227 228 229 0
39 -34 270 275 281 285 0
-107 561 563 571 592 600 0
-411 -55 339 345 360 0
-56 -21 -51 206 0
161 -11 160 0
57 52 54 -135 337 0
216 23 24 28 205 217 0
-432 1 4 -83 -84 0
27 22 -26 205 218 0
267 -38 252 260 272 0
105 103 108 561 0
39 33 34 40 246 0
-56 -21 27 -51 0
34 -38 252 260 268 269 0
29 22 23 30 207 226 0
-79 3 4 -78 -82 -83 -89 0
-3 -21 26 27 84 125 0
27 22 205 207 226 228 0
-90 3 4 -38 -40 -82 -83 0
228 26 27 201 207 215 0
55 51 57 -319 345 0
62 63 -319 -342 386 0
-58 -51 72 73 74 457 0
-135 -34 37 0
256 31 -35 38 264 0
32 31 33 37 0
84 15 16 0
57 -1 51 55 58 0
206 21 205 213 215 218 221 227 0
236 -26 201 220 226 0
214 21 23 26 211 227 0
-176 21 28 -182 216 217 0
-176 21 22 -173 240 0
216 -22 26 214 217 0
-19 -17 26 -37 -38 242 244 0
55 51 52 59 353 377 0
-109 -34 37 -105 0
383 -3 -31 37 473 0
-63 -54 -64 360 362 364 365 0
-37 -38 51 53 54 55 0
-51 -37 -38 52 54 55 337 0
-37 -38 51 52 55 353 0
-37 -27 -36 241 242 0
-54 -3 55 58 336 337 371 0
-272 21 23 26 -259 0
-30 28 209 217 230 242 0
-36 23 28 -34 -37 201 0
-4 -34 36 37 0
-441 21 28 84 218 221 227 472 0
375 -54 -319 336 337 360 371 0
33 34 -38 -252 260 285 0
206 -21 29 209 0
-51 339 340 341 475 0
-29 238 241 243 0
236 24 201 220 221 222 240 0
-434 -11 16 -31 36 162 187 251 0
36 37 38 0
-54 51 57 -319 360 0
-38 34 252 255 285 0
108 -3 -104 105 106 110 0
22 24 26 27 202 0
236 -26 205 213 218 0
227 23 26 -27 -28 29 207 217 0
24 23 28 201 236 0
217 -22 27 28 216 0
206 26 29 30 214 218 0
208 28 209 216 217 218 236 0
29 21 24 30 83 215 495 496 0
26 22 28 206 218 0
14 13 -15 167 195 0
-57 21 22 24 28 -59 0
-53 27 30 -43 -58 238 0
-59 17 -56 0
-344 -51 52 53 55 365 377 0
52 57 59 60 337 360 0
54 52 55 57 59 60 0
-59 -28 -58 240 0
-57 11 14 -59 165 0
206 24 -27 221 236 240 0
36 34 38 246 247 255 0
255 31 34 38 281 0
37 34 38 250 255 0
161 -16 168 175 181 0
-51 -319 336 337 339 341 342 0
15 17 160 175 181 0
40 37 253 261 268 0
55 51 -58 59 345 365 375 0
240 -28 207 215 218 0
165 16 161 166 173 0
16 161 166 176 0
-110 16 -102 -108 196 442 0
-102 15 16 -108 196 442 0
247 34 38 246 255 281 0
-4 -27 -28 -34 0
-432 -81 85 88 0
-342 26 27 218 -336 0
26 -3 -14 -16 21 22 28 0
227 26 28 201 221 240 0
232 21 22 24 26 240 0
15 16 20 196 0
-225 -24 228 232 0
22 21 23 26 30 241 0
29 21 23 26 30 211 0
54 15 16 52 53 56 342 377 0
267 34 35 36 -38 252 261 262 0
26 27 28 0
229 21 22 26 27 30 0
217 26 27 -215 216 0
-150 -37 40 286 0
281 34 246 247 255 285 0
191 -16 135 181 -220 381 0
-357 51 52 58 -319 375 0
-166 -24 26 27 -43 0
-434 -11 15 -21 26 27 161 162 0
379 -60 352 359 365 371 591 0
240 -3 201 226 228 241 242 0
55 54 59 60 341 345 0
60 59 336 338 346 354 371 375 0
244 -28 29 -36 -37 0
15 16 196 197 0
244 -28 207 215 218 241 0
26 23 28 30 208 216 236 0
-341 26 29 30 218 -336 0
211 21 23 26 241 242 0
27 21 23 26 -28 228 0
11 13 17 166 0
285 -33 281 -313 0
241 21 22 26 218 242 0
-30 28 239 242 0
-57 -35 -54 451 0
-57 -28 -58 -59 0
165 11 15 166 173 191 195 0
-37 247 259 272 277 286 287 0
29 23 24 28 201 226 242 0
402 -68 -319 395 476 0
-109 -34 -105 272 0
-106 573 580 586 591 0
27 22 23 26 203 215 225 0
12 11 14 15 17 0
-240 -4 -227 0
55 51 59 60 371 375 0
347 -52 336 337 345 346 371 375 0
-33 -34 268 269 272 0
37 -4 246 247 255 0
-225 -24 227 0
-593 -24 -34 271 0
-57 -16 -20 -30 -56 244 0
103 102 -105 564 585 0
22 21 24 26 27 0
22 23 24 27 0
27 26 63 64 -68 381 424 0
-27 22 26 201 207 -218 227 0
-342 1 4 -83 -84 0
284 15 16 35 38 281 283 -377 0
84 -13 174 175 0
15 16 161 169 176 0
53 -1 51 54 -313 336 0
-15 161 174 182 0
223 28 -29 201 226 227 236 0
-343 -11 15 -16 -21 26 27 162 191 0
-388 -11 15 -16 -21 26 27 162 191 0
-389 -11 15 -16 -21 26 27 191 0
60 -43 51 -55 225 346 546 0
-69 -38 -68 285 0
-57 31 34 -56 255 0
-40 38 284 287 0
254 -38 262 269 285 288 0
-67 26 28 -69 0
-67 21 22 23 26 -27 -69 0
-32 -16 -36 160 166 196 197 391 0
597 -13 -16 105 561 578 581 583 604 0
-59 -38 -58 285 0
-267 -33 38 285 0
26 21 23 28 211 0
-17 -14 -16 -34 35 0
-54 55 -104 -106 338 346 353 375 0
-67 -27 62 236 240 386 398 422 0
26 28 -104 -105 -108 201 0
26 24 28 201 221 0
-51 55 336 337 338 373 374 475 0
12 13 14 16 195 0
11 12 13 16 0
-60 344 346 359 377 591 0
165 12 15 16 161 173 0
165 11 14 16 195 0
28 22 24 26 202 218 0
-109 1 3 -103 -105 0
103 102 104 105 0
-109 3 4 -102 -103 0
-471 105 108 563 0
588 -1 103 105 563 603 604 0
40 -34 37 38 -105 106 108 -471 0
105 103 104 108 0
562 104 108 561 570 0
597 105 -106 571 580 0
105 103 108 571 0
103 83 108 109 -471 0
597 104 105 -106 570 0
262 31 35 37 38 283 -313 0
-35 -27 0
206 24 -27 214 221 0
213 21 28 214 218 236 0
-35 16 0
104 102 -103 105 -125 604 0
-110 -107 0
55 -37 -38 51 -313 346 0
-27 -11 15 -21 -26 0
-422 15 16 35 36 38 0
16 15 35 36 38 -604 0
-421 15 16 35 36 38 0
-37 -22 26 27 -32 36 38 83 -84 257 471 0
-236 -26 27 206 214 226 0
251 -13 -17 35 36 38 -313 436 0
-430 -51 52 53 57 360 0
-51 -101 -105 -106 341 0
-388 -31 72 73 250 251 450 451 452 0
-20 -12 24 27 28 29 209 570 0
-270 -34 35 0
28 24 26 216 217 221 0
-85 51 83 -84 -313 371 375 0
-34 -24 27 36 272 0
55 -52 59 337 346 349 352 0
206 23 26 28 214 0
32 31 -35 36 38 39 264 0
60 59 336 337 345 360 371 375 0
343 27 28 -59 351 376 378 0
-57 26 28 341 349 353 377 0
216 26 208 209 217 218 240 0
84 -26 -34 0
55 51 -313 346 371 375 0
-104 2 4 -28 -29 -82 -89 -101 -110 0
-261 -22 27 28 81 0
251 34 -38 260 267 0
211 21 23 27 0
-54 -3 55 249 362 0
-73 29 30 -78 205 221 226 492 0
194 13 -16 160 181 193 0
-22 26 214 215 0
-56 -11 -51 159 161 0
288 -38 40 285 0
232 -24 26 228 229 242 0
103 101 102 105 0
-106 103 108 573 586 0
564 -105 570 585 593 0
-142 -34 -135 0
209 -21 206 208 0
55 54 59 60 345 371 375 0
239 21 28 216 218 221 227 241 0
-207 2 4 -81 83 0
165 15 16 163 164 182 0
39 35 37 254 262 269 0
26 28 206 216 217 218 0
216 24 -29 208 241 0
177 -38 222 252 273 285 0
11 1 4 14 15 17 0
13 11 166 191 0
-587 4 14 15 -16 17 381 0
169 -12 168 0
106 107 108 109 -471 595 0
-107 105 570 587 600 0
194 -20 197 0
27 23 -28 -201 207 226 0
161 12 14 16 -17 0
-43 -53 225 337 357 371 0
-28 -27 51 55 -313 346 0
228 23 27 -28 201 0
-34 -4 21 23 26 -28 0
22 21 23 24 0
-27 -28 -34 -105 -109 0
29 -11 -14 23 24 26 -102 -105 242 0
-240 26 27 241 242 0
222 -28 201 228 241 242 0
-344 -11 15 -16 -21 26 161 162 206 0
222 24 26 201 221 240 0
236 29 30 201 222 226 227 0
-357 26 27 -28 82 -85 201 0
-396 -22 27 28 81 -82 -84 0
-102 11 14 15 19 -108 165 442 0
26 23 24 28 201 0
343 -55 347 354 360 591 0
29 21 24 28 217 232 236 0
-102 3 -103 104 105 110 129 138 561 600 0
13 14 15 -16 17 129 135 381 0
103 104 108 561 0
-20 -13 36 39 -103 -104 254 277 285 0
103 102 104 593 0
-102 -104 105 561 575 0
-108 -16 -17 103 104 105 -106 0
-106 104 105 565 570 0
103 102 107 110 563 597 603 0
-40 254 262 269 284 287 0
-191 -40 -194 289 0
-196 38 -39 -191 0
-57 28 -59 201 220 226 0
230 -28 -228 229 240 0
-371 -33 38 -356 0
-103 101 -125 579 604 0
201 -28 -104 -105 -109 240 0
30 22 23 24 26 29 0
26 21 24 28 -32 35 36 37 -38 81 -82 -84 0
374 17 -56 340 348 353 0
-87 61 67 -68 -82 -84 398 402 411 0
-58 26 -51 -52 218 241 242 0
-51 22 23 24 -28 55 340 0
-225 21 22 27 -28 220 0
29 21 26 30 211 221 0
24 21 23 26 30 216 0
223 26 -29 206 216 218 228 0
-107 14 15 -16 17 -103 -104 0
230 27 28 -226 229 0
-578 11 15 17 -579 0
-19 14 15 191 195 -578 -584 0
27 22 24 -26 205 0
-260 31 -32 33 38 270 285 0
216 -22 213 214 217 0
239 -26 205 213 218 238 0
218 21 -28 215 240 0
239 22 -26 205 218 238 0
239 -26 205 221 226 238 0
-240 26 -28 206 214 221 227 0
-218 1 2 21 27 28 0
-218 1 2 -228 0
-73 -2 -74 83 -84 85 88 0
-249 -31 35 281 285 0
103 102 105 108 0
-35 11 14 15 -16 165 195 0
-14 -12 -34 -43 0
27 21 22 26 218 0
173 11 14 -16 166 -181 0
265 -36 250 258 281 0
32 31 33 38 277 281 0
273 31 35 -38 260 286 287 0
35 34 37 247 261 262 0
37 34 38 246 265 0
-374 -16 27 28 160 165 181 195 0
-285 -14 181 -273 0
285 -38 252 260 540 585 0
379 -28 -58 240 342 350 353 0
24 21 23 26 216 217 0
-109 570 589 594 603 0
-13 -16 -17 -23 0
-13 175 176 0
236 21 22 23 28 0
-34 -24 -26 -27 0
84 15 -17 -26 -27 0
239 -26 236 238 0
-57 21 22 23 26 -59 0
-57 26 -58 -59 0
-59 11 12 15 -16 -56 173 0
-36 -16 31 191 -238 255 271 285 0
-30 205 217 226 242 244 0
-19 -16 -24 -26 -34 227 228 270 281 285 0
-54 -3 58 249 346 354 371 0
-35 -34 43 360 0
-105 572 579 585 593 0
36 34 38 247 259 285 0
266 35 36 38 251 259 0
240 1 2 -28 207 215 0
165 11 14 15 17 0
105 -12 -17 -84 -88 561 582 0
-214 21 -22 27 213 221 227 0
-54 43 -55 270 0
-197 26 28 34 35 36 -38 252 255 0
-196 26 28 31 34 36 232 255 277 0
36 15 16 35 38 -241 0
-72 -1 -73 82 85 88 0
195 -14 15 16 -34 35 -229 281 285 0
259 31 34 35 38 265 0
32 -16 31 34 -36 38 191 -374 0
-72 -1 -74 82 85 88 0
-354 21 22 -24 -43 218 236 0
-240 -236 0
29 23 24 30 201 0
27 22 23 28 203 0
236 21 23 24 28 0
32 31 35 36 39 40 272 0
29 24 -26 205 220 239 240 0
24 23 27 201 0
194 17 193 0
371 58 -60 336 359 365 591 0
353 52 56 57 58 -411 0
53 -1 -52 56 57 58 346 0
365 52 53 57 59 336 339 359 360 0
243 -28 201 222 228 242 0
266 34 -36 38 250 258 0
11 15 -16 17 -34 -43 175 0
238 -26 201 220 226 239 0
-37 31 34 35 -38 39 255 287 0
243 21 22 26 -28 30 219 220 221 0
223 -23 220 221 244 0
215 26 -28 207 221 228 0
108 101 102 103 0
-54 -51 -82 -84 -101 103 105 0
109 -82 -84 103 107 108 313 0
-261 -22 26 27 81 83 0
-262 -22 26 27 81 0
39 33 38 246 270 271 287 0
56 51 57 58 -135 0
-60 336 359 365 377 591 0
272 -37 39 246 266 287 0
-286 -16 194 -281 0
-343 -11 15 17 62 63 64 0
-344 -11 15 17 62 63 64 0
585 -105 370 564 572 579 0
-56 -31 -51 251 0
-33 266 -313 0
-342 2 4 -81 472 0
255 34 36 38 251 0
236 -29 -104 -105 -110 201 240 0
277 -16 17 -24 27 -28 -34 -181 225 0
244 26 27 207 216 218 0
22 21 23 26 241 242 0
12 13 14 161 0
240 21 26 -218 227 228 0
-433 15 16 -17 35 -38 -161 -252 0
14 -15 167 174 191 195 0
-377 -51 54 55 59 344 345 0
-135 -43 -55 56 57 58 346 0
351 -59 341 358 364 546 0
-150 55 -319 336 337 345 0
27 1 2 28 201 -218 0
120 3 112 -129 135 0
-244 -28 30 242 0
26 28 241 242 0
15 11 12 16 173 0
52 51 -313 346 360 371 375 0
-375 34 -38 -51 55 56 255 0
55 56 59 60 345 346 353 375 0
209 -21 206 207 238 0
-60 374 377 379 591 0
34 -38 252 260 285 0
259 -37 251 266 286 287 0
580 105 -106 573 578 588 0
-570 83 -106 -496 591 0
-351 -22 26 27 81 0
39 37 40 0
20 11 14 -15 19 85 0
229 27 30 208 216 241 0
164 -11 15 163 191 0
-195 -15 16 19 0
-39 38 251 261 268 271 0
-399 -24 27 -43 0
-107 105 561 581 587 0
-164 -21 72 73 78 206 450 0
-220 -23 26 236 0
230 21 22 23 26 241 0
-21 4 -28 43 83 0
55 -313 340 341 342 346 371 375 0
-375 -371 0
-351 21 24 26 27 -32 35 260 281 0
602 -103 562 570 578 579 0
24 23 -26 201 236 0
55 51 54 57 345 0
240 -28 207 215 222 0
222 24 -28 215 240 0
244 -28 240 243 0
-89 -1 -28 -82 240 244 0
19 3 4 13 14 15 -16 20 381 0
-495 83 103 -105 106 -473 0
-109 571 583 594 603 0
-106 105 573 580 586 0
55 51 53 57 346 0
11 14 17 165 0
108 104 105 570 0
-161 2 4 -81 83 -285 0
26 -24 28 -34 35 36 285 -595 0
-444 -24 27 -43 0
-85 2 -81 83 162 -387 0
-379 52 58 -60 342 353 375 0
82 28 38 0
411 -62 -82 -87 384 385 390 391 394 0
-242 15 16 35 36 38 0
11 1 15 16 82 471 0
-602 15 17 35 37 38 0
-110 -14 -17 -24 28 30 -108 227 0
195 12 13 14 15 163 197 0
-277 35 -37 0
227 -24 28 226 0
-17 15 16 -24 26 -27 28 -105 -110 0
82 28 38 0
-388 -11 15 35 -38 161 251 -252 0
26 28 201 206 216 217 221 0
-17 16 -26 -27 -34 -36 0
26 -11 -16 -17 28 -32 -36 218 0
-135 -43 51 -55 346 0
-55 -4 -43 346 0
-270 -43 51 -55 346 0
51 -1 -55 82 -103 -105 0
-15 -14 43 -55 337 360 0
345 -4 43 -55 0
347 -4 -55 353 0
206 24 26 28 214 215 0
345 43 51 -55 -135 0
-101 -2 -55 -81 -82 -84 -105 0
53 51 -55 346 546 591 0
54 17 52 53 55 374 375 0
-319 52 53 55 57 0
-52 -1 51 53 346 0
55 -1 -51 -52 53 346 349 0
14 3 4 13 15 -16 17 381 0
-16 -17 102 103 104 109 110 0
108 102 105 578 0
101 104 105 108 0
375 -1 -52 336 348 354 360 0
-135 43 -55 339 345 0
-456 43 -55 339 345 0
-51 -31 -37 -84 -88 337 339 341 351 352 0
390 -12 -16 23 24 -26 28 236 0
103 102 104 108 0
195 -11 12 16 -22 -27 -34 37 176 268 269 0
108 102 104 105 0
19 11 12 14 15 197 0
169 11 16 -17 -166 0
-570 -1 101 -103 579 604 0
253 -38 261 268 285 289 0
26 -24 28 -103 -105 229 313 0
-450 -34 35 37 43 0
15 16 62 68 382 383 386 398 411 422 0
-12 -13 24 26 28 -31 -33 120 201 255 0
82 28 38 0
230 26 28 201 221 241 0
-604 26 28 35 36 38 0
56 -1 -51 54 55 337 375 0
-15 -14 -55 337 338 353 0
281 -36 250 258 -313 0
101 102 105 578 0
160 -2 4 15 -16 176 181 0
165 11 14 15 191 0
13 11 166 196 197 0
14 16 -26 -34 0
191 12 13 14 15 0
101 102 103 588 0
-441 -22 27 28 84 0
-12 -16 -103 105 106 -471 604 0
-102 105 107 561 570 571 597 0
213 23 24 -26 -201 0
229 -24 30 227 0
27 28 201 220 226 0
285 -34 38 -273 0
-197 28 29 -191 0
29 21 26 -218 221 244 0
424 26 27 62 -68 387 400 405 420 0
-109 -28 84 -105 0
165 17 160 166 173 0
-21 -28 -51 339 341 342 0
-313 -43 -53 225 337 346 371 375 0
1 3 -81 -83 138 207 0
-35 246 266 270 0
-51 -31 -38 336 337 338 339 475 0
206 23 28 205 213 214 236 0
209 22 24 27 28 208 0
-2 -53 54 55 345 371 375 0
-53 3 4 -52 -59 0
-57 -38 -56 -68 -69 0
576 -23 -26 105 -109 562 0
-15 -13 51 52 -313 346 353 0
28 21 30 216 229 236 0
-31 38 250 251 0
-87 62 -68 -84 403 404 476 0
243 21 24 27 201 217 220 0
238 30 201 221 227 243 0
222 -23 220 223 224 0
88 -81 85 -385 417 0
600 104 106 562 570 572 594 602 603 604 0
213 -26 -201 218 236 0
-19 -11 23 24 26 27 -102 -110 0
216 -22 -191 -197 215 0
55 81 340 341 342 345 371 375 0
-214 26 -27 215 216 217 0
-20 -11 13 14 15 -16 -17 -68 159 162 175 206 251 341 386 0
-59 31 34 -56 255 285 0
206 23 24 26 28 0
-161 -31 38 -191 0
117 4 125 129 0
-594 3 -570 -579 0
-587 14 -16 17 -578 0
-39 15 17 -24 -26 -34 -230 0
261 -38 252 268 285 289 0
-218 -34 43 281 285 0
-161 15 16 -31 35 37 38 -389 0
24 23 26 201 207 215 0
20 14 15 -16 169 176 193 0
236 21 23 24 27 0
88 27 -84 86 201 -218 222 0
55 -313 336 338 346 371 375 0
60 52 57 59 337 339 354 0
-58 51 336 337 339 -342 375 0
-275 -40 271 272 273 0
-354 -24 27 -43 0
-103 105 106 -471 563 600 603 604 0
103 105 109 110 561 586 600 0
213 -26 205 220 226 0
164 -11 17 163 0
227 -24 28 -105 -109 0
600 102 104 105 106 109 604 0
26 28 208 216 229 242 0
230 -24 227 229 0
-17 12 15 16 -23 -24 -84 -88 0
-4 -24 27 0
59 -55 336 338 346 -579 580 0
-240 -26 -27 0
221 21 22 24 0
-288 -17 -20 26 -37 -38 0
-38 -28 31 -34 35 37 -84 207 -313 0
206 -21 26 207 0
-38 -37 51 55 59 60 0
-377 26 28 35 36 38 0
37 31 32 34 36 0
-56 32 -38 -57 252 267 0
-31 -3 38 251 383 0
216 21 23 217 236 240 0
-349 -26 205 218 -371 0
55 51 -313 346 349 353 376 377 0
-60 51 54 55 345 377 0
55 -51 54 57 336 358 359 0
216 21 26 217 218 240 0
-106 105 561 562 570 586 0
582 103 -105 570 578 -579 0
206 26 -27 221 227 241 242 0
347 -52 59 60 337 346 349 0
-240 26 28 207 215 218 0
101 102 105 106 582 0
38 31 33 37 258 0
-3 73 -74 75 -319 432 0
-51 -21 -27 -28 55 0
345 43 51 -55 -411 0
52 -2 54 55 57 58 0
63 43 51 -55 62 67 68 -319 345 0
-343 -11 15 -21 26 28 161 162 0
-344 -11 15 35 -38 161 162 251 -252 0
-590 -13 15 17 -23 28 220 0
-411 43 -55 56 57 58 345 0
-180 52 53 54 -55 0
-180 43 51 53 -55 -319 345 0
34 37 -313 0
-58 51 -82 -84 -86 -313 0
-31 -36 -37 -51 55 58 0
-51 55 58 -342 375 0
471 34 -84 0
-252 -81 85 88 0
-207 -81 -84 88 495 0
-388 15 16 -21 -161 0
58 1 3 51 54 56 57 0
-377 15 16 35 36 38 0
103 105 571 575 588 0
-434 -11 15 16 -21 206 0
217 21 26 27 216 218 0
24 21 23 26 217 241 0
-225 -24 26 0
-27 -28 51 55 -319 337 345 0
-27 -28 51 52 55 353 0
103 102 -105 -173 -176 0
-252 24 26 27 -28 -83 -84 247 0
216 22 -26 205 -213 217 218 0
236 21 22 29 30 218 0
38 -11 15 32 34 -37 266 0
-105 563 572 579 593 0
39 -38 285 289 0
564 -105 571 579 593 0
597 -105 561 580 585 -591 0
-65 -2 -66 -105 572 585 593 0
564 -105 572 579 593 0
-13 -11 -17 -32 -82 -84 162 258 0
-51 -31 -37 -38 55 0
33 34 36 38 246 0
55 -1 51 58 -319 371 0
-399 -24 -43 236 240 0
-53 1 3 4 51 -52 55 58 371 0
-389 15 16 -21 -28 -161 0
-411 -43 52 54 -55 0
-251 -11 15 -281 0
-261 26 27 -215 473 0
-441 -22 27 28 83 473 0
-433 -11 15 -21 26 27 161 162 0
-19 -16 -22 26 27 -32 -36 217 0
180 11 13 -15 0
20 3 13 -15 336 -411 0
-433 15 16 -21 -161 0
-55 -4 51 52 0
-28 21 23 26 215 240 0
174 -15 -34 167 0
-274 -14 15 16 -24 0
39 34 40 246 266 0
84 -11 0
52 -2 56 57 58 360 0
159 -15 -34 167 0
-39 35 40 253 261 268 281 285 0
253 35 37 40 261 268 285 286 0
-585 103 104 -105 571 588 0
26 23 28 201 227 0
-23 -13 -16 221 0
240 -13 -16 23 24 -82 -84 -88 201 0
240 23 24 26 -28 35 -38 285 -313 0
-39 -37 43 -54 -319 338 360 0
-108 11 15 16 -103 -105 0
-109 -13 -15 -17 -104 0
165 14 -17 -108 -110 164 191 0
-240 26 27 206 214 218 0
29 27 30 0
281 31 33 35 252 261 262 285 -313 0
564 -105 572 579 585 0
105 104 108 561 0
108 104 105 106 561 0
103 101 102 104 0
103 108 561 563 571 0
229 -24 27 -103 -105 313 0
-102 -14 -105 182 184 0
37 -23 -26 34 38 246 398 0
110 -105 108 109 -471 563 571 580 592 0
-232 -27 28 0
-227 -34 38 -236 0
32 34 38 247 281 0
-33 -32 -82 -84 107 108 109 313 570 578 0
-85 2 -81 83 -387 0
39 -27 -28 40 0
573 -106 580 585 597 0
34 246 247 255 286 287 0
55 51 57 59 60 0
-594 3 -81 -82 162 -579 0
20 14 15 19 161 165 0
11 14 16 165 0
103 104 105 -106 561 0
103 561 563 571 578 593 0
-75 -34 35 43 -74 -319 0
-444 23 -43 201 236 240 0
-17 16 -26 -27 -34 35 38 0
285 -38 83 177 252 268 269 0
-29 15 16 -17 -24 -27 -34 35 38 0
-30 26 218 240 -471 -487 0
-432 2 -81 -82 -84 88 89 90 0
251 -21 -28 -31 38 0
232 22 24 26 201 202 240 0
-31 38 -206 -236 0
-17 -14 -16 23 28 201 0
-242 -28 29 244 0
82 1 -81 -85 -387 0
-356 31 34 35 38 -355 0
223 -23 27 -103 -104 269 0
-23 26 221 222 0
-206 26 28 208 209 0
-33 -27 -28 268 269 0
-36 34 250 255 283 284 0
29 21 23 24 26 242 0
-36 21 -37 213 214 215 218 0
34 38 247 258 259 281 0
-35 34 38 246 264 0
-107 105 571 581 600 0
-225 51 -55 345 360 0
173 11 12 17 0
60 51 59 345 349 356 360 0
12 13 14 17 0
56 51 52 55 -319 375 0
-163 -21 26 27 62 63 64 0
-374 15 16 35 38 283 -371 0
-51 -82 337 371 375 -471 472 546 591 0
184 -14 16 -102 -105 187 0
187 -14 16 184 185 0
-164 26 27 -28 -162 216 229 0
-79 37 -38 -78 0
566 -105 574 579 587 -592 603 0
-381 26 27 218 -395 0
206 22 23 28 29 30 0
22 21 23 -26 28 -34 0
14 -16 17 -103 -104 -109 0
-85 -24 26 -43 -83 0
-592 17 175 -579 0
-56 -11 -51 -57 164 0
53 -4 -55 346 0
-456 -43 51 -55 346 0
-456 -43 52 -55 338 0
80 26 -28 73 74 76 78 218 240 441 457 0
59 -43 51 -55 -105 -110 346 0
-52 3 4 51 55 56 346 375 0
-313 34 38 246 281 0
56 53 55 57 -319 350 0
55 51 56 -81 -82 -101 -103 -319 346 375 0
36 34 38 -313 0
36 31 34 38 255 0
216 1 2 26 -28 207 217 240 0
-21 -28 -81 83 138 0
-319 43 52 53 55 371 375 0
-51 55 -319 336 337 338 375 377 0
52 -313 338 339 346 360 371 375 0
229 -28 -215 217 -228 240 0
281 35 38 39 248 262 269 0
12 11 14 15 176 0
-289 -38 40 287 0
-43 2 3 51 -52 -55 346 354 0
17 13 15 -16 -103 -105 -107 0
-281 -31 38 250 0
-261 26 27 84 -215 0
26 -24 -27 28 -103 -105 106 107 109 313 561 578 0
-51 336 337 371 -473 -495 496 0
216 23 24 27 28 209 0
-396 -22 26 83 214 473 0
390 -12 -16 -26 205 220 226 0
-12 -14 21 23 28 236 300 0
255 -12 -13 21 24 27 28 0
165 15 160 166 173 196 197 0
12 14 15 157 161 176 0
-62 15 16 -61 -82 -88 176 0
374 15 17 -56 355 -471 0
31 32 35 36 -38 273 286 287 0
232 -11 15 -16 -21 35 -38 -252 0
55 54 57 58 337 348 0
-191 15 17 196 197 0
-263 -34 268 269 270 281 285 0
-57 -1 -34 -52 150 -270 281 0
216 21 217 218 236 240 0
103 105 561 588 0
103 83 105 -471 0
103 104 561 593 0
103 561 563 571 593 0
105 102 562 578 588 0
-129 -104 108 109 -471 595 0
103 -3 102 -104 108 110 0
-28 23 26 -34 -38 201 241 242 0
39 35 40 251 259 266 0
-16 82 0
52 -3 -51 55 56 337 375 0
-381 -62 -82 -87 386 392 393 0
-4 246 247 255 286 287 0
33 34 36 -38 252 285 0
-29 23 26 201 228 241 0
-595 -28 -34 35 37 38 -228 240 287 0
236 23 24 201 240 0
227 23 26 28 214 0
-81 -71 -78 85 142 0
-51 336 337 338 339 371 375 0
-51 -21 -28 55 341 0
-221 -26 201 226 236 0
236 -26 201 220 226 0
-284 15 17 27 28 0
-17 13 14 16 169 187 0
-252 -81 -84 88 150 495 0
161 -11 159 160 0
-104 101 571 578 588 0
-109 105 570 589 603 0
105 102 104 582 0
209 26 27 -207 208 0
106 -105 107 109 -471 -498 595 0
-456 43 -55 336 337 345 0
-17 -20 51 52 55 -57 353 0
20 4 14 -15 16 -23 -28 196 336 0
-286 15 16 -17 -28 -161 162 -203 226 -228 -272 0
29 -12 -17 21 26 30 218 435 0
59 -43 -55 -105 -110 339 346 0
206 23 26 -27 214 241 242 0
214 21 23 -24 26 -43 -218 223 -578 0
32 31 34 -313 0
-39 21 24 27 -38 81 -84 201 220 544 0
345 52 54 55 57 343 344 0
172 -12 19 -22 -27 435 0
-106 108 561 580 586 0
-108 -81 -82 83 -84 85 86 -105 -107 110 313 581 0
600 105 106 110 562 563 578 603 0
101 103 104 105 110 603 0
603 103 106 110 561 563 571 600 0
-315 -34 -38 -84 -85 0
-285 35 37 -38 286 287 0
-85 -43 -82 83 -84 -101 -102 -313 336 371 375 0
101 103 105 571 600 604 0
-173 -34 43 150 272 0
26 22 24 28 206 219 0
227 -4 -24 0
29 21 -26 214 218 239 0
214 23 -26 205 226 0
-110 -28 -34 -38 -105 240 244 0
-110 15 -16 17 -34 35 37 38 -105 0
51 84 0
-173 -34 36 38 84 471 0
255 34 -38 252 285 0
347 -2 51 -55 360 0
-13 -4 -16 26 -28 -34 201 0
-17 -16 -34 38 -105 -108 0
-591 -105 106 108 -471 0
284 37 38 283 0
214 -22 26 84 170 0
-108 24 26 -104 -109 201 0
103 102 105 106 563 578 0
179 -13 15 17 178 0
-238 15 17 35 37 38 0
51 84 0
-360 -34 37 84 0
-388 15 16 -17 -31 35 -161 162 281 285 0
285 -21 -31 -35 38 0
-35 -34 -55 -313 336 354 0
-135 -43 52 54 -55 0
-21 -31 -36 206 0
165 11 14 15 169 176 0
209 26 -28 208 216 217 228 240 0
39 33 34 35 36 246 287 0
476 -61 384 385 386 0
-61 62 -319 -342 382 384 0
-38 31 34 -58 -59 255 281 0
56 -51 52 54 -313 339 375 0
-27 236 240 241 242 0
108 105 570 571 578 0
-79 21 22 -78 218 236 0
216 28 205 217 218 221 227 0
285 -38 252 261 262 -313 0
-17 -16 -19 -35 38 0
169 17 158 -160 -161 176 0
-110 -15 -108 0
-109 103 571 594 603 0
-194 -31 37 -160 253 0
-578 104 105 561 563 0
-471 84 0
498 11 15 -16 -84 168 191 496 0
16 15 -24 -105 -110 226 228 0
27 -2 24 26 -28 84 472 0
-104 -24 26 -105 227 229 578 0
-83 1 4 -84 207 252 0
28 -11 -13 23 24 26 -82 -84 0
-387 43 -313 0
285 -38 273 -313 0
-106 -35 561 562 591 0
-222 -23 28 240 0
-102 -51 55 57 84 -101 -319 0
-102 34 35 84 -101 281 285 0
228 23 -28 201 240 0
579 -24 -43 227 534 0
111 -11 -12 23 24 26 27 0
206 -21 205 207 0
285 -38 252 260 -313 0
259 31 36 38 -313 0
84 24 26 27 -28 34 35 36 37 0
55 -54 -319 336 337 371 375 0
550 84 -90 -110 603 604 0
-79 27 -28 -78 0
216 21 24 28 217 236 0
20 11 13 15 19 84 490 0
-15 14 82 85 0
-218 -34 43 271 277 285 0
358 -1 51 54 345 359 0
-40 -13 15 -32 178 191 571 0
-387 -51 -313 -319 0
469 26 27 73 74 -78 432 0
597 -82 103 -105 -106 107 571 586 0
-35 37 0
28 -11 -12 24 26 111 221 0
103 104 105 561 0
-27 -29 -43 51 55 -313 346 377 0
-495 59 60 83 371 375 -471 0
55 52 -313 338 371 375 0
59 51 -55 346 354 591 0
-55 51 52 -411 0
-17 11 21 24 26 28 182 435 0
271 -34 38 270 285 286 287 0
-343 -11 15 -21 160 195 206 0
26 22 23 28 203 0
28 -23 26 -103 -104 223 269 0
20 15 -16 17 163 165 166 173 0
27 1 2 21 26 -28 -218 0
55 51 59 60 346 356 0
-180 51 52 -55 0
110 1 3 -103 -105 107 108 -471 0
180 13 -15 167 191 195 0
-109 1 -103 -104 -105 0
-158 -81 -82 -103 -104 -105 -109 0
22 23 24 26 241 242 0
240 -24 26 -103 -105 229 313 0
239 -26 -34 -36 -105 -110 236 0
-106 102 103 565 586 0
55 -2 56 -319 336 338 375 0
-51 336 337 338 339 341 0
-273 -82 -84 125 -158 -319 0
-51 336 338 343 344 354 371 375 0
-162 35 -38 83 157 285 -313 0
-490 84 104 105 -106 0
-19 14 17 171 178 0
-342 2 -81 -85 472 0
-208 -11 15 81 83 -84 191 195 -473 0
-254 -11 15 81 83 -84 191 195 -473 0
-377 -33 34 39 246 -356 0
-201 23 26 28 206 240 0
213 24 28 201 205 221 0
26 27 28 0
236 26 28 206 214 221 0
-270 -34 35 0
39 31 32 33 35 40 0
35 34 246 247 255 286 287 0
35 31 -34 259 268 269 271 273 0
-60 54 55 344 345 377 0
59 55 57 -313 336 338 346 0
55 51 57 -313 346 0
-51 55 337 338 341 351 352 0
31 34 38 -83 281 0
-411 53 -55 -471 0
81 -22 26 28 -34 37 38 250 -313 473 0
-40 -34 -105 108 -313 319 561 0
16 15 26 28 -604 0
26 16 28 -104 -110 187 201 227 240 0
187 -15 0
169 11 13 14 0
169 16 24 26 28 182 0
81 11 16 -34 176 0
11 16 166 176 0
84 11 16 -129 0
363 -2 51 -58 350 0
-54 -34 -38 -58 -84 87 88 0
-60 52 342 374 377 591 0
165 11 15 166 169 176 181 0
-105 4 -17 -83 -84 85 -104 -108 166 176 196 0
105 -12 -16 561 563 571 582 0
-78 -28 30 -73 243 492 0
-15 -3 -81 -84 85 0
-57 28 -43 -53 -56 239 242 0
-81 2 4 -82 -84 -432 0
-37 -38 -81 -84 85 -432 0
498 73 -84 85 -319 437 438 456 -471 496 0
369 -55 339 346 354 591 0
-286 11 13 15 26 28 166 0
-336 11 13 0
-285 -1 -22 -38 -39 81 -82 213 0
53 -1 43 55 58 338 345 371 0
-17 1 3 -16 102 104 -105 -106 109 0
-51 -11 54 55 159 161 336 337 342 0
33 34 246 281 285 0
35 38 246 247 254 255 259 269 270 271 286 0
14 11 13 16 0
14 16 161 176 0
24 -2 26 201 215 221 472 0
206 26 29 30 221 227 0
428 26 27 73 -78 440 469 0
26 28 201 223 227 240 242 0
469 26 27 72 73 -78 428 0
-78 26 27 73 426 428 436 469 0
80 26 27 71 72 73 75 0
442 26 27 73 74 75 426 434 0
-442 21 26 81 218 240 0
26 28 206 214 218 240 0
-22 21 26 -27 28 -32 -34 35 36 -38 81 -82 -84 0
80 26 27 71 72 75 -319 426 443 0
24 21 23 26 240 0
27 23 24 201 0
24 23 26 207 209 216 244 0
232 21 23 24 28 30 216 0
240 23 -28 207 228 0
216 -22 28 214 217 0
-21 4 -28 -81 83 472 0
-17 -12 -16 -22 -83 0
240 24 -26 205 216 217 220 0
-26 1 2 4 83 85 220 313 472 497 580 585 0
-56 37 84 -135 250 0
-13 -16 -23 27 0
17 16 0
-272 -34 37 38 251 259 -313 0
-272 -34 37 251 259 263 0
209 26 28 217 227 241 0
19 11 13 14 20 0
206 -26 217 220 226 238 0
26 24 28 214 221 222 0
255 34 35 -104 -108 246 247 286 455 0
53 -4 12 -16 35 -51 -84 87 132 162 -175 176 207 255 272 -319 345 -471 0
-17 -16 -24 28 -34 227 0
-225 -24 0
236 21 -26 213 226 0
217 21 28 218 236 238 241 0
230 21 23 216 218 236 240 0
236 23 -26 205 226 0
-51 55 -313 371 -471 483 0
63 62 -319 384 386 476 0
-79 -78 85 88 -89 471 0
-51 55 59 60 337 341 346 0
341 -2 -21 -28 -51 338 342 343 344 0
593 102 -103 104 562 0
35 31 255 261 268 270 273 -275 281 284 287 0
105 104 570 575 582 0
105 -2 -12 -17 103 571 603 604 0
102 82 105 0
-104 105 563 571 578 0
105 1 4 561 562 570 588 0
105 104 561 562 570 0
-498 83 103 105 0
101 102 105 580 582 0
101 102 104 105 0
-2 105 -471 604 0
-336 13 28 105 600 0
-108 -35 -37 105 106 561 562 603 0
603 -35 102 104 105 -108 0
-498 83 103 -471 -473 591 592 0
101 4 -16 43 -85 -103 -105 106 109 110 -471 564 572 578 0
-473 83 105 -471 -498 0
-561 105 -106 565 578 0
565 -106 573 580 586 0
-106 561 563 571 580 591 0
101 104 105 575 0
562 105 107 108 561 570 0
-14 16 -34 102 103 105 106 107 -108 109 270 0
564 103 108 571 0
230 -43 104 108 561 0
-135 -105 108 110 562 563 0
101 -12 -17 -84 -88 102 108 0
595 1 101 -103 -104 -105 108 -471 -578 0
562 14 -16 -103 -104 105 -107 0
-103 34 38 -81 -101 281 0
-108 -11 12 13 17 28 -34 -103 -313 0
277 -35 0
169 16 176 182 0
-59 26 27 55 336 337 345 364 0
230 26 201 221 222 229 240 0
-56 -31 35 -51 253 254 0
229 21 22 23 26 30 0
371 51 55 -82 -84 -85 345 375 0
-83 21 26 27 -82 170 218 0
82 4 85 88 105 498 561 582 0
105 104 561 582 0
101 102 104 582 0
584 -12 -15 104 105 106 575 582 0
600 1 3 -103 -105 110 132 561 564 572 578 0
105 -103 562 575 588 0
-19 15 171 178 184 191 0
-19 14 15 171 178 191 0
-110 27 -28 -34 -38 -105 -230 0
104 102 105 -125 604 0
-108 16 20 102 103 105 106 107 109 0
-104 4 -51 53 55 -101 102 103 108 109 110 122 587 0
108 101 102 -104 110 -129 0
-102 34 35 38 -101 281 0
-102 3 4 -103 104 105 108 110 0
125 -122 0
103 561 563 567 571 575 588 0
-127 -122 0
-319 -2 -74 -82 -84 85 88 0
102 104 105 562 0
-102 3 4 -103 105 561 604 0
34 -27 -28 -84 -313 0
84 -13 -23 -28 0
38 -27 -28 34 246 247 255 0
-495 -27 -28 -34 43 0
22 21 23 -28 228 0
-336 -4 13 -28 105 0
-164 -21 26 27 -28 -31 0
561 -34 38 104 -105 106 -108 110 582 0
-270 -34 35 38 0
271 -11 -14 -16 -22 -26 -34 38 -313 0
-35 251 255 270 0
-456 52 -55 337 338 0
447 -73 0
-108 26 28 -103 241 449 0
-15 169 176 180 0
180 -15 169 174 0
254 34 35 37 247 255 261 0
-313 34 37 0
-349 26 -27 218 240 -336 0
255 27 28 31 34 35 37 0
-441 26 27 -82 -84 -215 471 0
-15 3 4 13 -17 51 -55 336 0
-135 138 0
-207 -4 -81 88 0
-4 103 -471 604 0
-4 -84 -88 103 -471 -473 0
281 -33 34 38 -52 -53 -81 0
-287 15 16 26 28 0
182 16 -578 -588 0
12 13 16 182 0
-108 13 16 -17 -103 -105 0
11 13 16 -34 -43 0
-191 -24 28 -181 0
-57 26 51 54 55 -59 345 0
-142 -23 -129 0
-218 -24 -129 221 222 0
-343 -11 15 16 -21 26 206 0
-344 -11 15 16 -21 26 27 0
85 1 4 -81 -83 -84 492 0
-585 -3 -26 83 313 562 0
-85 -3 24 -43 -104 -108 201 241 336 346 561 571 586 0
473 -3 -34 -82 -273 285 -313 0
-73 -24 -43 -75 311 0
26 51 52 54 55 60 337 353 0
-255 -33 38 -260 285 0
22 23 24 26 240 0
22 23 24 26 241 244 0
217 23 24 27 207 216 0
222 -23 27 220 0
-17 -14 -16 -34 0
27 -14 -16 -24 0
206 22 -26 28 205 220 241 242 0
27 -24 226 228 0
-17 -16 -24 -26 -34 0
22 21 23 26 240 0
27 21 26 215 228 0
-38 252 260 273 286 287 0
11 12 13 182 0
-336 11 13 0
-17 -16 24 28 -104 -108 201 221 0
-19 -17 26 31 32 33 -37 -38 0
-195 -17 84 0
-15 3 4 13 14 336 0
-196 105 -169 561 586 587 589 600 0
-135 -34 272 0
-20 -12 21 23 24 26 29 570 0
-207 34 -38 -206 255 0
-262 -22 27 81 215 0
-593 -3 11 -579 0
-593 -34 83 -84 122 -585 0
-104 103 105 -129 561 604 0
108 1 4 -103 -104 105 -109 0
-108 11 13 -103 -105 0
184 -14 16 -102 -105 180 0
-4 102 -103 104 -105 110 582 0
-108 -82 -84 103 104 -105 -129 -473 0
-109 101 104 570 603 0
-138 135 0
-150 142 0
110 -14 -15 104 -105 106 561 582 0
-107 16 84 -108 0
-107 12 -16 -34 -104 -108 176 0
-102 101 105 110 -114 0
-34 37 43 -495 0
-56 34 -57 246 247 255 0
103 101 104 106 108 0
108 101 102 104 0
-29 3 -28 -82 -83 -89 135 0
55 54 57 59 60 337 0
281 31 -36 -345 -355 0
-150 -15 0
-15 17 0
101 -35 104 105 109 0
-65 -55 -64 -66 354 0
-495 83 103 -105 108 0
105 102 103 588 0
103 101 104 105 106 0
108 101 103 106 571 0
600 106 561 562 570 585 603 604 0
52 11 -13 15 -55 83 -84 86 87 194 339 360 498 0
-285 34 37 -38 -51 55 255 0
-430 -51 55 57 0
-2 23 -28 84 170 228 0
-52 -38 -51 55 73 74 84 0
-57 34 35 -37 -38 40 55 56 58 84 252 0
11 1 4 14 17 0
55 -37 -38 53 84 336 0
-53 31 -33 34 35 -37 55 58 84 252 281 336 338 0
101 104 108 570 0
-411 52 53 54 -55 0
238 24 30 201 -218 222 227 240 0
-411 43 52 53 -55 0
-34 11 13 -43 168 0
-17 -16 28 -34 -84 -88 216 217 221 227 0
-55 -1 51 82 358 359 -495 0
82 88 -103 138 495 593 0
-85 -37 -38 51 -82 -84 -313 0
101 105 108 570 0
14 -1 11 15 -16 -38 40 81 -82 -84 101 -105 108 109 122 138 432 -579 0
-205 -26 -34 -38 122 0
81 23 -24 26 -34 -38 -82 -84 177 -313 -471 -498 567 575 0
-579 83 -105 -473 -482 -498 561 0
-273 -3 26 -28 -38 83 207 222 -313 437 453 -495 0
-285 -22 26 -38 -40 81 -84 589 0
-34 -1 -22 23 -24 26 28 -38 -82 -84 207 218 -313 0
259 -1 2 -22 26 31 32 -34 -38 -82 -84 213 252 267 -285 -432 0
81 23 24 27 28 37 -38 217 -260 0
349 -82 -84 -85 -313 342 371 432 440 -471 0
34 38 246 250 258 -313 0
101 3 4 104 108 109 110 0
-71 -73 432 0
564 -82 -84 -471 561 572 -579 585 593 0
105 -82 -84 -471 -473 -498 0
-215 21 -34 38 -72 -82 -84 218 221 240 270 -313 432 437 440 473 0
262 31 35 37 261 -313 0
-241 21 22 24 -27 -37 38 -43 55 56 58 240 277 281 0
-285 34 -37 38 246 267 0
72 2 74 -82 -84 -85 -313 432 0
207 -4 -28 -34 215 0
205 27 28 31 33 35 81 -84 207 215 226 228 252 281 285 -313 0
105 -81 -82 -84 -88 0
105 -82 -84 -471 -498 0
258 26 -27 28 31 -32 33 -34 35 38 221 0
259 34 -38 252 -313 0
-230 -4 26 28 -34 38 0
-108 23 24 26 -27 28 -103 -105 -313 0
88 -81 83 -84 -103 -105 108 -162 0
36 34 38 -81 -82 -101 -103 246 0
-34 -24 -26 37 0
339 -1 -55 -319 346 354 0
-1 -37 -38 51 55 -56 0
103 -3 -84 -471 484 0
108 -82 103 -105 107 109 110 571 586 0
82 103 105 -492 0
105 -82 -84 -473 582 0
88 -2 51 -55 -74 -82 -84 -313 428 451 452 0
-495 -34 43 272 0
-338 -84 -104 105 109 571 582 0
-55 84 87 104 105 490 0
108 101 103 109 571 0
-104 34 35 37 38 84 105 108 471 0
122 2 4 101 103 -104 108 109 110 0
223 30 216 229 236 240 0
-55 -82 84 -85 105 108 0
-287 43 101 -105 -182 570 0
-85 -55 -82 -105 -471 603 0
103 -4 -33 34 35 38 43 -55 287 -471 0
360 53 -55 -135 336 0
-89 -1 -28 -36 -37 -82 244 0
-54 -53 -82 84 105 0
582 -103 104 562 570 0
103 -84 104 472 -473 476 484 496 561 0
247 34 -52 55 -81 -82 -101 -103 246 260 336 346 350 0
55 52 56 57 -319 357 0
72 62 63 73 -319 386 432 0
337 34 55 58 84 -319 336 0
392 3 4 -51 52 55 -82 84 -319 340 341 354 381 384 393 399 0
-79 3 4 -82 84 -89 429 0
74 34 35 37 71 73 84 247 0
37 34 38 -62 84 175 247 0
-456 34 84 336 337 375 0
-73 3 4 52 56 57 -82 84 432 0
103 -105 -173 -176 561 0
-80 3 4 -31 34 35 38 -78 84 281 -432 0
101 104 570 575 582 0
58 34 36 38 52 -72 74 84 247 277 354 0
1 2 3 73 -82 -84 150 313 426 440 0
-78 73 -81 83 85 142 -319 440 0
55 52 57 337 338 0
-371 34 38 246 -356 0
27 -13 -14 21 -26 28 -82 -84 85 86 88 0
