p cnf 616 24565
-114 -122 111 0
-123 -115 111 0
-116 -124 111 0
-111 -125 117 0
-125 -117 111 0
-114 -129 112 0
-131 -116 112 0
-132 -117 112 0
-114 -141 115 0
-115 -114 141 0
-115 -141 114 0
-114 -142 116 0
-142 -116 114 0
-114 -143 117 0
-143 -117 114 0
-115 -146 116 0
-115 -116 146 0
-116 -146 115 0
-115 -147 117 0
-115 -117 147 0
-147 -117 115 0
-150 -117 116 0
-129 -122 120 0
-120 -132 125 0
-132 -125 120 0
-135 -122 121 0
-123 -136 121 0
-125 -138 121 0
-122 -141 123 0
-123 -141 122 0
-122 -142 124 0
-122 -124 142 0
-142 -124 122 0
-122 -143 125 0
-125 -122 143 0
-125 -143 122 0
-122 127 -145 0
-127 122 -145 0
-123 -146 124 0
-123 -124 146 0
-124 -146 123 0
-123 -125 147 0
-125 -147 123 0
-127 -123 149 0
-150 -124 125 0
-125 -150 124 0
-135 -129 128 0
-130 -136 128 0
-129 -141 130 0
-129 -130 141 0
-130 -141 129 0
-129 -142 131 0
-129 -131 142 0
-131 -142 129 0
-129 -143 132 0
-132 -129 143 0
-132 -143 129 0
-134 129 -145 0
-130 -146 131 0
-131 -146 130 0
-130 -147 132 0
-132 -130 147 0
-132 -147 130 0
-130 134 -149 0
-134 -149 130 0
-131 -150 132 0
-132 -131 150 0
-132 -150 131 0
-131 134 -152 0
-135 -141 136 0
-135 -136 141 0
-136 -141 135 0
-135 -142 137 0
-137 -142 135 0
-135 -143 138 0
-135 -138 143 0
-143 -138 135 0
-136 137 -146 0
-147 -136 138 0
-147 -138 136 0
-137 -150 138 0
-137 -138 150 0
-150 -138 137 0
143 -147 -141 0
-143 -141 147 0
-147 -143 141 0
-141 -148 144 0
-144 -141 148 0
-149 -141 145 0
149 -141 -145 0
-150 -142 143 0
-143 -142 150 0
-143 -150 142 0
-142 -151 144 0
-142 -152 145 0
-142 152 -145 0
-143 -144 153 0
-150 -146 147 0
-147 -146 150 0
-147 -150 146 0
-146 -151 148 0
-146 -148 151 0
-151 -148 146 0
-152 149 -146 0
-149 -146 152 0
-153 -147 148 0
-156 -165 157 0
-157 -156 165 0
-156 -166 158 0
-156 -167 159 0
-159 -156 167 0
156 -159 -167 0
-168 -156 160 0
-160 -156 168 0
156 -160 -168 0
-169 -156 161 0
-156 -161 169 0
156 -169 -161 0
-170 -156 162 0
170 -162 -156 0
156 -162 -170 0
-156 -163 171 0
-156 -172 164 0
156 -172 -164 0
-157 -158 173 0
-157 -174 159 0
-157 -159 174 0
-159 -174 157 0
-175 -157 160 0
-160 -157 175 0
-160 -175 157 0
-157 -176 161 0
-157 -161 176 0
-176 -161 157 0
-177 -157 162 0
-157 -162 177 0
-177 -162 157 0
-157 -178 163 0
-163 -178 157 0
-157 -179 164 0
-179 157 -164 0
-180 -158 159 0
-159 -158 180 0
-159 -180 158 0
-181 -158 160 0
-160 -158 181 0
-160 -181 158 0
-182 -158 161 0
-161 -158 182 0
-182 -161 158 0
-183 -158 162 0
-162 -158 183 0
-183 -162 158 0
-184 -158 163 0
-163 -158 184 0
-163 -184 158 0
-185 -158 164 0
-158 185 -164 0
-185 158 -164 0
-159 -186 160 0
-160 -159 186 0
-160 -186 159 0
-187 -159 161 0
-159 -161 187 0
-187 -161 159 0
-188 -159 162 0
-159 -162 188 0
-188 -162 159 0
-159 -189 163 0
-159 -163 189 0
-163 -189 159 0
-159 -190 164 0
-159 -164 190 0
-164 -190 159 0
-160 -191 161 0
-160 -161 191 0
-191 -161 160 0
-192 -160 162 0
-160 -162 192 0
-192 -162 160 0
-160 -193 163 0
-160 -163 193 0
-163 -193 160 0
-160 -194 164 0
-160 194 -164 0
-194 160 -164 0
-195 -161 162 0
-162 -161 195 0
-195 -162 161 0
-196 -161 163 0
-163 -161 196 0
-197 -161 164 0
-161 197 -164 0
-197 161 -164 0
-162 -198 163 0
-162 -163 198 0
-163 -198 162 0
-162 -199 164 0
-162 199 -164 0
-199 162 -164 0
-173 -165 166 0
-165 -166 173 0
-173 -166 165 0
-174 -165 167 0
-165 -167 174 0
-174 -167 165 0
-175 -165 168 0
-168 -165 175 0
-168 -175 165 0
-176 -165 169 0
-169 -165 176 0
-169 -176 165 0
170 -177 -165 0
-170 -165 177 0
-177 -170 165 0
-178 171 -165 0
-171 -165 178 0
172 -179 -165 0
-172 179 -165 0
-179 -172 165 0
-180 -166 167 0
-166 -167 180 0
-180 -167 166 0
-181 -166 168 0
-168 -166 181 0
-168 -181 166 0
-166 -182 169 0
-169 -166 182 0
-169 -182 166 0
170 -183 -166 0
-170 -166 183 0
-183 -170 166 0
-171 -166 184 0
-185 -172 166 0
-167 -186 168 0
-168 -167 186 0
-168 -186 167 0
-187 -167 169 0
-169 -167 187 0
-187 -169 167 0
170 -188 -167 0
-170 -167 188 0
-188 -170 167 0
-172 -167 190 0
-191 -168 169 0
-169 -168 191 0
-169 -191 168 0
-192 170 -168 0
-168 -170 192 0
-192 -170 168 0
-168 -193 171 0
-168 -171 193 0
-168 172 -194 0
-168 -172 194 0
-194 -172 168 0
-195 170 -169 0
-169 -170 195 0
-195 -170 169 0
-169 -196 171 0
-169 172 -197 0
-169 -172 197 0
-197 -172 169 0
-170 -198 171 0
-170 -171 198 0
-170 172 -199 0
-170 -172 199 0
170 -199 -172 0
-173 -180 174 0
-174 -173 180 0
-174 -180 173 0
-181 -173 175 0
-175 -173 181 0
-175 -181 173 0
-173 -182 176 0
-176 -173 182 0
-176 -182 173 0
-183 -173 177 0
-177 -173 183 0
-177 -183 173 0
-184 -173 178 0
-178 -173 184 0
-174 -186 175 0
-175 -174 186 0
-175 -186 174 0
-187 -174 176 0
-176 -174 187 0
-187 -176 174 0
-188 -174 177 0
-177 -174 188 0
-188 -177 174 0
-189 -174 178 0
-178 -174 189 0
-190 179 -174 0
-191 -175 176 0
-175 -176 191 0
-191 -176 175 0
-192 -175 177 0
-175 -177 192 0
-192 -177 175 0
-175 -193 178 0
-175 -194 179 0
-175 -179 194 0
-195 -176 177 0
-177 -176 195 0
-195 -177 176 0
-176 -196 178 0
-176 -178 196 0
-178 -196 176 0
-176 -197 179 0
-176 -179 197 0
-179 -197 176 0
-177 -198 178 0
-177 -178 198 0
-178 -198 177 0
-177 -199 179 0
-177 -179 199 0
-180 181 -186 0
-181 -180 186 0
-181 -186 180 0
-187 -180 182 0
-180 -182 187 0
-187 -182 180 0
-188 -180 183 0
-183 -180 188 0
-188 -183 180 0
-189 -180 184 0
-184 -180 189 0
-190 -180 185 0
-185 -180 190 0
-185 -190 180 0
-191 -181 182 0
-181 -182 191 0
-191 -182 181 0
-192 -181 183 0
-181 -183 192 0
-192 -183 181 0
-181 -193 184 0
-181 -184 193 0
-184 -193 181 0
-181 -194 185 0
-181 -185 194 0
-185 -194 181 0
-195 -182 183 0
-183 -182 195 0
-195 -183 182 0
-196 -182 184 0
-184 -182 196 0
-184 -196 182 0
-197 -182 185 0
-185 -182 197 0
-185 -197 182 0
-183 -198 184 0
-183 -184 198 0
-184 -198 183 0
-183 -199 185 0
-183 -185 199 0
-185 -199 183 0
-192 188 -186 0
-188 192 -186 0
-192 -188 186 0
-186 -193 189 0
-189 -186 193 0
-194 -186 190 0
-190 194 -186 0
-190 -194 186 0
-195 -187 188 0
-187 -188 195 0
-195 -188 187 0
-187 -196 189 0
-187 -189 196 0
-189 -196 187 0
-187 -197 190 0
-187 -190 197 0
-190 -197 187 0
-188 -198 189 0
-188 -189 198 0
-189 -198 188 0
-188 -199 190 0
-188 -190 199 0
-190 -199 188 0
-195 -191 192 0
-192 -191 195 0
-192 -195 191 0
-191 -196 193 0
-191 -193 196 0
-191 -197 194 0
-191 -194 197 0
-194 -197 191 0
-192 -198 193 0
-192 -193 198 0
-193 -198 192 0
-192 -199 194 0
-192 -194 199 0
-194 -199 192 0
-195 -198 196 0
-195 -196 198 0
-196 -198 195 0
-195 -199 197 0
-195 -197 199 0
-197 -199 195 0
-201 -211 203 0
-201 -212 204 0
-201 -204 212 0
-204 -212 201 0
-201 -213 205 0
-201 -205 213 0
-205 -213 201 0
-201 -214 206 0
-206 -201 214 0
-206 -214 201 0
-215 -201 207 0
-207 -201 215 0
-215 -207 201 0
-201 -216 208 0
-201 -208 216 0
-216 -208 201 0
-201 -217 209 0
-201 -209 217 0
-217 -209 201 0
-202 203 -218 0
-219 -202 204 0
-204 -202 219 0
-204 202 -219 0
-220 -202 205 0
-205 -202 220 0
-205 -220 202 0
-202 -221 206 0
-206 -202 221 0
-206 202 -221 0
-222 -202 207 0
-207 -202 222 0
-207 -222 202 0
202 -223 -208 0
202 -224 -209 0
-225 -203 204 0
-204 -203 225 0
-225 -204 203 0
-226 -203 205 0
-205 -203 226 0
-205 -226 203 0
-203 -227 206 0
-206 -203 227 0
-206 203 -227 0
-228 -203 207 0
-207 -203 228 0
-207 -228 203 0
-229 -203 208 0
-203 -208 229 0
-230 -203 209 0
-203 -209 230 0
-230 -209 203 0
-204 -231 205 0
-205 -204 231 0
-205 -231 204 0
-204 -232 206 0
-206 -204 232 0
-206 -232 204 0
-233 -204 207 0
-207 -204 233 0
-233 -207 204 0
-204 -234 208 0
-204 -208 234 0
-234 -208 204 0
-204 -235 209 0
-204 -209 235 0
-235 -209 204 0
-205 -236 206 0
-205 -206 236 0
-206 -236 205 0
-205 -237 207 0
-207 -205 237 0
-207 -237 205 0
-205 -238 208 0
-205 -208 238 0
-238 -208 205 0
-205 -239 209 0
-205 239 -209 0
-239 -209 205 0
-240 -206 207 0
-207 -206 240 0
-240 -207 206 0
-206 -241 208 0
-206 -208 241 0
-241 -208 206 0
-206 -242 209 0
-206 -209 242 0
-242 -209 206 0
-207 -243 208 0
-207 -208 243 0
-243 -208 207 0
-207 -244 209 0
-207 -209 244 0
-244 -209 207 0
-210 -218 211 0
-211 -210 218 0
-219 -210 212 0
-212 -210 219 0
210 -212 -219 0
-220 -210 213 0
-213 -210 220 0
-214 -210 221 0
-222 -210 215 0
-215 -210 222 0
-215 210 -222 0
-223 -210 216 0
-216 223 -210 0
-224 -210 217 0
-217 224 -210 0
210 -217 -224 0
-225 -211 212 0
-211 -212 225 0
-225 -212 211 0
-226 -211 213 0
-211 -213 226 0
-226 -213 211 0
-211 -227 214 0
-214 -211 227 0
-214 -227 211 0
-228 -211 215 0
-215 -211 228 0
-215 -228 211 0
-211 -229 216 0
-216 -211 229 0
-216 -229 211 0
-211 -230 217 0
-211 -217 230 0
-230 -217 211 0
-231 -212 213 0
-213 -212 231 0
-213 -231 212 0
-232 -212 214 0
-214 -212 232 0
-214 -232 212 0
-233 -212 215 0
-215 -212 233 0
-215 -233 212 0
-234 -212 216 0
-216 -212 234 0
-235 -212 217 0
-217 -212 235 0
-217 -235 212 0
-236 -213 214 0
-214 -213 236 0
-214 -236 213 0
-213 -237 215 0
-215 -213 237 0
-215 -237 213 0
-213 -238 216 0
-216 -213 238 0
-216 -238 213 0
-213 -239 217 0
-213 -217 239 0
-217 -239 213 0
-240 -214 215 0
-215 -214 240 0
-215 -240 214 0
-214 -241 216 0
-214 -216 241 0
-216 -241 214 0
-214 -242 217 0
-214 -217 242 0
-217 -242 214 0
-215 -243 216 0
-215 -216 243 0
-216 -243 215 0
-215 -244 217 0
-215 -217 244 0
-217 -244 215 0
-225 -218 219 0
-219 -218 225 0
-225 -219 218 0
-226 -218 220 0
-220 -218 226 0
-220 -226 218 0
-227 -218 221 0
-221 -218 227 0
-221 -227 218 0
-228 -218 222 0
-222 -218 228 0
-222 -228 218 0
-229 223 -218 0
-223 -218 229 0
-229 -223 218 0
-230 224 -218 0
-224 -218 230 0
-230 -224 218 0
-231 -219 220 0
-220 -219 231 0
-220 -231 219 0
-232 -219 221 0
-219 232 -221 0
-232 -221 219 0
-233 -219 222 0
-222 -219 233 0
-233 -222 219 0
223 -234 -219 0
-219 -223 234 0
-234 -223 219 0
224 -235 -219 0
-224 -219 235 0
-224 -235 219 0
-236 -220 221 0
-220 -221 236 0
-236 -221 220 0
-220 -237 222 0
-222 -220 237 0
-222 -237 220 0
-220 -238 223 0
-220 -223 238 0
-220 -239 224 0
-239 -224 220 0
-240 222 -221 0
-222 -221 240 0
-240 -222 221 0
-241 223 -221 0
-223 -221 241 0
-241 -223 221 0
-242 224 -221 0
-224 -221 242 0
-242 -224 221 0
-222 -243 223 0
-222 -223 243 0
-243 -223 222 0
-222 -244 224 0
-222 -224 244 0
-244 -224 222 0
-225 -231 226 0
-225 -226 231 0
-226 -231 225 0
-225 -232 227 0
-225 -227 232 0
-232 -227 225 0
-233 -225 228 0
-228 -225 233 0
-233 -228 225 0
-225 -234 229 0
-225 -229 234 0
-229 -234 225 0
-225 -235 230 0
-225 -230 235 0
-230 -235 225 0
-236 -226 227 0
-226 -227 236 0
-236 -227 226 0
-226 -237 228 0
-228 -226 237 0
-228 -237 226 0
-226 -238 229 0
-226 -229 238 0
-229 -238 226 0
-226 -239 230 0
-226 -230 239 0
-230 -239 226 0
-240 -227 228 0
-228 -227 240 0
-240 -228 227 0
-241 -227 229 0
-229 -227 241 0
-229 -241 227 0
-242 -227 230 0
-230 -227 242 0
-230 -242 227 0
-228 -243 229 0
-228 -229 243 0
-229 -243 228 0
-228 -244 230 0
-228 -230 244 0
-230 -244 228 0
-237 -231 233 0
-233 -231 237 0
-233 -237 231 0
-238 -231 234 0
-234 -231 238 0
-238 -234 231 0
-239 -231 235 0
-235 -231 239 0
-239 -235 231 0
-240 -232 233 0
-233 -232 240 0
-240 -233 232 0
-232 -241 234 0
-232 -234 241 0
-241 -234 232 0
-232 -242 235 0
-232 -235 242 0
-242 -235 232 0
-233 -243 234 0
-233 -234 243 0
-243 -234 233 0
-233 -244 235 0
-233 -235 244 0
-244 -235 233 0
-240 -236 237 0
-236 -237 240 0
-240 -237 236 0
-236 -241 238 0
-236 -238 241 0
-238 -241 236 0
-236 -242 239 0
-236 -239 242 0
-239 -242 236 0
-237 -243 238 0
-237 -238 243 0
-243 -238 237 0
-237 -244 239 0
-237 -239 244 0
-239 -244 237 0
-240 -243 241 0
-240 -241 243 0
-243 -241 240 0
-240 -244 242 0
-240 -242 244 0
-242 -244 240 0
-255 -246 247 0
-246 -247 255 0
-255 -247 246 0
248 -246 -256 0
256 -246 -248 0
-248 -256 246 0
-257 -246 249 0
-246 -249 257 0
-257 -249 246 0
-258 -246 250 0
-250 -246 258 0
-250 -258 246 0
-259 -246 251 0
-251 -246 259 0
-259 -251 246 0
-260 -246 252 0
-252 -246 260 0
-252 -260 246 0
-261 -246 253 0
-253 -246 261 0
-253 -261 246 0
-246 -262 254 0
-254 -246 262 0
-254 -262 246 0
-264 -247 249 0
-247 -249 264 0
-264 -249 247 0
-265 -247 250 0
-250 -247 265 0
-250 -265 247 0
-266 -247 251 0
-251 -247 266 0
-266 -251 247 0
-247 -267 252 0
-252 -247 267 0
-252 -267 247 0
-268 -247 253 0
-253 -247 268 0
-269 -247 254 0
-254 -247 269 0
-269 -254 247 0
-248 -270 249 0
-249 -248 270 0
248 -249 -270 0
-271 -248 250 0
-250 -248 271 0
-271 248 -250 0
-272 -248 251 0
-251 -248 272 0
248 -251 -272 0
-248 -273 252 0
273 -252 -248 0
248 -252 -273 0
-274 -248 253 0
-253 -248 274 0
-253 -274 248 0
-248 -275 254 0
-254 248 -275 0
-276 -249 250 0
-250 -249 276 0
-276 -250 249 0
-277 -249 251 0
-251 -249 277 0
-251 -277 249 0
-278 -249 252 0
-252 -249 278 0
-278 -252 249 0
-279 -249 253 0
-253 -249 279 0
-279 249 -253 0
-280 -249 254 0
-254 -249 280 0
-254 -280 249 0
-281 -250 251 0
-250 -251 281 0
-281 -251 250 0
-282 -250 252 0
-250 -252 282 0
-282 -252 250 0
-283 -250 253 0
-253 -250 283 0
-253 -283 250 0
-284 -250 254 0
-254 284 -250 0
-284 -254 250 0
-285 -251 252 0
-252 -251 285 0
-285 -252 251 0
-286 -251 253 0
-253 -251 286 0
-253 -286 251 0
-251 -287 254 0
-254 -251 287 0
-254 -287 251 0
-288 -252 253 0
-253 -252 288 0
-288 -253 252 0
-289 -252 254 0
-254 -252 289 0
-289 -254 252 0
256 -255 -263 0
263 -255 -256 0
-255 -264 257 0
-257 -255 264 0
-257 -264 255 0
-265 -255 258 0
-258 -255 265 0
-265 -258 255 0
-255 -266 259 0
-255 -259 266 0
-266 -259 255 0
-255 260 -267 0
-255 -260 267 0
-260 -267 255 0
-268 -255 261 0
-261 -255 268 0
-261 -268 255 0
-269 -255 262 0
-255 -262 269 0
-269 -262 255 0
-256 -270 257 0
-257 270 -256 0
-257 256 -270 0
-271 -256 258 0
-258 271 -256 0
-271 256 -258 0
-272 -256 259 0
-259 272 -256 0
256 -259 -272 0
-256 260 -273 0
273 -260 -256 0
256 -260 -273 0
-274 -256 261 0
-261 -256 274 0
256 -274 -261 0
-275 -256 262 0
-262 275 -256 0
256 -262 -275 0
-257 -276 258 0
-257 -258 276 0
-276 -258 257 0
-257 -277 259 0
-257 -259 277 0
-259 -277 257 0
-257 -278 260 0
-257 -260 278 0
-278 -260 257 0
-257 -279 261 0
-257 -261 279 0
-257 -280 262 0
-257 -262 280 0
-281 -258 259 0
-258 -259 281 0
-281 -259 258 0
-282 -258 260 0
-258 -260 282 0
-282 -260 258 0
-283 -258 261 0
-258 -261 283 0
-283 -261 258 0
-284 -258 262 0
284 -258 -262 0
-284 -262 258 0
-285 -259 260 0
-259 -260 285 0
-285 -260 259 0
-286 -259 261 0
-261 -259 286 0
-286 -261 259 0
-259 -287 262 0
-259 -262 287 0
-287 -262 259 0
-288 -260 261 0
-261 -260 288 0
-288 -261 260 0
-289 -260 262 0
-260 -262 289 0
-289 -262 260 0
-270 -263 264 0
-264 270 -263 0
263 -264 -270 0
-271 -263 265 0
-272 -263 266 0
-266 272 -263 0
263 -266 -272 0
-273 -263 267 0
-267 273 -263 0
-273 263 -267 0
-274 -263 268 0
-275 -263 269 0
263 -269 -275 0
-276 -264 265 0
-265 -264 276 0
-277 -264 266 0
-266 -264 277 0
-266 -277 264 0
-278 -264 267 0
-264 -267 278 0
-278 -267 264 0
-279 -264 268 0
-268 -264 279 0
-280 -264 269 0
-269 -264 280 0
-269 -280 264 0
-281 -265 266 0
-265 -266 281 0
-281 -266 265 0
-282 -265 267 0
-265 -267 282 0
-282 -267 265 0
-283 -265 268 0
-265 -268 283 0
-283 -268 265 0
-284 -265 269 0
-269 284 -265 0
-269 -284 265 0
-266 -285 267 0
-266 -267 285 0
-285 -267 266 0
-286 -266 268 0
-268 -266 286 0
-286 -268 266 0
-266 -287 269 0
-269 -266 287 0
-269 -287 266 0
-288 -267 268 0
-268 -267 288 0
-288 -268 267 0
-289 -267 269 0
-269 -267 289 0
-289 -269 267 0
-276 271 -270 0
-271 -270 276 0
-271 -276 270 0
-277 272 -270 0
-272 -270 277 0
-277 -272 270 0
-278 273 -270 0
-270 -273 278 0
-278 270 -273 0
-279 -270 274 0
-274 -270 279 0
-279 -274 270 0
-280 275 -270 0
-275 -270 280 0
-280 -275 270 0
-281 -271 272 0
-271 -272 281 0
-281 -272 271 0
-282 -271 273 0
-271 -273 282 0
-282 271 -273 0
-271 -283 274 0
-271 -274 283 0
-283 -274 271 0
-271 -284 275 0
-271 284 -275 0
-284 -275 271 0
273 -285 -272 0
-272 -273 285 0
-285 272 -273 0
-286 -272 274 0
-274 -272 286 0
-286 -274 272 0
-287 275 -272 0
-272 -275 287 0
-287 272 -275 0
-288 -273 274 0
-274 -273 288 0
-288 -274 273 0
-289 275 -273 0
-275 -273 289 0
-289 273 -275 0
-282 -276 278 0
-276 -278 282 0
-282 -278 276 0
-276 -283 279 0
-279 -276 283 0
-279 -283 276 0
-276 -284 280 0
-276 284 -280 0
-285 -277 278 0
-278 -277 285 0
-278 -285 277 0
-286 -277 279 0
-279 -277 286 0
-287 -277 280 0
-280 -277 287 0
-288 -278 279 0
-278 -279 288 0
-279 -288 278 0
-289 -278 280 0
-278 -280 289 0
-289 -280 278 0
-281 -285 282 0
-282 -281 285 0
-282 -285 281 0
-281 -286 283 0
-281 -283 286 0
-281 284 -287 0
-281 -284 287 0
-282 -288 283 0
-282 -283 288 0
-288 -283 282 0
-282 -289 284 0
-282 -284 289 0
-289 -284 282 0
-288 -285 286 0
-286 -285 288 0
-288 -286 285 0
-289 -285 287 0
-285 -287 289 0
-289 -287 285 0
-321 294 -295 0
-303 -316 301 0
-321 302 -303 0
-308 -319 313 0
-308 -313 319 0
308 -319 -313 0
-328 -310 313 0
328 -310 -313 0
310 -328 -313 0
-311 -331 313 0
-311 331 -313 0
311 -331 -313 0
-321 316 -315 0
-316 321 -315 0
323 -318 -315 0
-324 -315 319 0
315 -319 -324 0
-316 -328 319 0
328 -316 -319 0
316 -319 -328 0
-321 324 -328 0
-324 -328 321 0
-326 328 -331 0
-326 331 -328 0
326 -328 -331 0
-336 -345 337 0
-336 -337 345 0
-345 -337 336 0
-336 -346 338 0
-338 -336 346 0
-338 -346 336 0
-336 -347 339 0
-336 -339 347 0
-339 -347 336 0
-336 -348 340 0
-340 -336 348 0
-340 -348 336 0
-336 -349 341 0
-336 -341 349 0
-341 -349 336 0
-336 -350 342 0
-336 -342 350 0
-350 -342 336 0
-336 -351 343 0
-336 -343 351 0
-343 -351 336 0
-336 -352 344 0
-336 -344 352 0
-344 -352 336 0
-337 -353 338 0
-338 -337 353 0
-338 -353 337 0
-337 -354 339 0
-339 -337 354 0
-339 -354 337 0
-337 340 -355 0
-340 -337 355 0
-340 -355 337 0
-337 -356 341 0
-341 -337 356 0
-341 -356 337 0
-357 -337 342 0
-337 -342 357 0
-357 -342 337 0
-358 -337 343 0
-343 -337 358 0
-343 -358 337 0
-359 -337 344 0
-344 -337 359 0
-344 -359 337 0
-338 -360 339 0
-338 -339 360 0
-339 -360 338 0
-338 -361 340 0
-338 -340 361 0
-340 -361 338 0
-362 -338 341 0
-338 -341 362 0
-362 -341 338 0
-338 -363 342 0
-338 -342 363 0
-363 -342 338 0
-338 -364 343 0
-338 -343 364 0
-338 -365 344 0
-338 -344 365 0
-344 -365 338 0
-339 340 -366 0
-340 366 -339 0
-340 -366 339 0
-339 -367 341 0
-341 -339 367 0
-341 -367 339 0
-339 -368 342 0
-339 368 -342 0
-342 -368 339 0
-369 -339 343 0
-343 -339 369 0
-369 -343 339 0
-339 -370 344 0
-344 -339 370 0
-344 -370 339 0
-340 -371 341 0
-340 -341 371 0
-341 340 -371 0
-340 -372 342 0
-340 -342 372 0
-372 -342 340 0
-340 -373 343 0
-340 -343 373 0
-340 -374 344 0
-340 -344 374 0
-344 -374 340 0
-341 -375 342 0
-341 -342 375 0
-342 -375 341 0
-341 -376 343 0
-341 -343 376 0
-343 -376 341 0
-341 -377 344 0
-341 -344 377 0
-344 -377 341 0
-378 -342 343 0
-343 -342 378 0
-378 -343 342 0
-342 -379 344 0
-344 -342 379 0
-344 -379 342 0
-345 -354 347 0
-345 -347 354 0
-347 -354 345 0
-345 -355 348 0
-345 -348 355 0
-348 -355 345 0
-345 -356 349 0
-345 -349 356 0
-349 -356 345 0
-357 -345 350 0
-345 -350 357 0
-357 -350 345 0
-358 -345 351 0
-351 -345 358 0
-359 -345 352 0
-352 -345 359 0
-352 -359 345 0
-346 -360 347 0
-346 -347 360 0
-360 -347 346 0
-346 -361 348 0
-346 -348 361 0
-361 -348 346 0
-362 -346 349 0
-362 -349 346 0
-346 -363 350 0
-346 -350 363 0
-350 -363 346 0
-351 -346 364 0
-364 -351 346 0
-365 -346 352 0
-352 -346 365 0
-352 -365 346 0
-347 -366 348 0
-348 366 -347 0
-348 -366 347 0
-347 -367 349 0
-349 -347 367 0
-349 -367 347 0
-347 350 -368 0
368 -350 -347 0
-350 -368 347 0
-369 -347 351 0
-351 -347 369 0
-369 -351 347 0
-347 -370 352 0
-352 -347 370 0
-352 -370 347 0
-348 -371 349 0
-348 -349 371 0
-349 -371 348 0
-372 -348 350 0
-350 -348 372 0
-372 -350 348 0
-373 -348 351 0
-351 -348 373 0
-373 -351 348 0
-374 -348 352 0
-352 374 -348 0
-374 -352 348 0
-349 350 -375 0
-350 -349 375 0
-350 -375 349 0
-376 -349 351 0
-351 -349 376 0
-349 -377 352 0
-352 -349 377 0
-352 -377 349 0
-378 -350 351 0
-351 -350 378 0
-378 -351 350 0
-350 -379 352 0
-352 -350 379 0
-352 350 -379 0
-360 -353 354 0
-353 -354 360 0
-360 -354 353 0
-361 -353 355 0
-353 -355 361 0
-362 -353 356 0
-353 -356 362 0
-362 -356 353 0
-363 -353 357 0
-357 -353 363 0
-357 -363 353 0
-364 -353 358 0
-358 -353 364 0
-365 -353 359 0
-359 -353 365 0
-354 -366 355 0
-366 -355 354 0
-354 -367 356 0
367 -354 -356 0
-367 -356 354 0
-354 -368 357 0
-357 368 -354 0
-357 -368 354 0
-369 -354 358 0
-358 369 -354 0
-369 -358 354 0
-354 -370 359 0
-359 -354 370 0
-359 -370 354 0
-355 -371 356 0
-356 -355 371 0
-356 -371 355 0
-372 -355 357 0
-357 372 -355 0
-357 -372 355 0
-373 -355 358 0
-374 -355 359 0
-359 374 -355 0
-374 -359 355 0
-375 -356 357 0
-357 -356 375 0
-357 -375 356 0
-376 -356 358 0
-358 -356 376 0
-377 -356 359 0
-359 -356 377 0
-359 -377 356 0
-357 -378 358 0
-357 -358 378 0
-378 -358 357 0
-357 -379 359 0
-357 -359 379 0
-359 -379 357 0
-360 -366 361 0
-361 -366 360 0
-360 -367 362 0
-362 367 -360 0
-362 -367 360 0
-360 -368 363 0
-363 368 -360 0
-363 -368 360 0
-369 -360 364 0
-369 -364 360 0
-360 -370 365 0
-365 -360 370 0
-365 -370 360 0
-361 -371 362 0
-362 -371 361 0
-372 -361 363 0
-361 -363 372 0
-364 -361 373 0
-374 -361 365 0
-365 374 -361 0
-362 -375 363 0
-362 -363 375 0
-363 -375 362 0
-362 -376 364 0
-362 -364 376 0
-362 -377 365 0
-362 -365 377 0
-365 -377 362 0
-378 -363 364 0
-364 -363 378 0
-363 -379 365 0
-365 -363 379 0
-365 -379 363 0
367 -366 -371 0
-366 -367 371 0
366 -367 -371 0
-366 -368 372 0
-372 366 -368 0
-369 -366 373 0
366 -369 -373 0
-374 -366 370 0
374 -366 -370 0
368 -367 -375 0
-368 -367 375 0
-369 -367 376 0
-377 -367 370 0
-370 -367 377 0
-377 367 -370 0
-369 -368 378 0
-378 -369 368 0
-379 -368 370 0
-370 -368 379 0
-379 368 -370 0
-375 372 -371 0
-372 -371 375 0
-372 -375 371 0
-376 -371 373 0
-373 -371 376 0
-373 -376 371 0
374 -377 -371 0
-374 -371 377 0
-374 -377 371 0
-372 -378 373 0
-372 -373 378 0
-378 -373 372 0
-372 374 -379 0
-372 -374 379 0
-374 -379 372 0
-378 -375 376 0
-376 -375 378 0
-378 -376 375 0
-379 -375 377 0
-377 -375 379 0
-379 -377 375 0
-390 -381 382 0
-382 -381 390 0
-390 -382 381 0
-391 -381 383 0
-383 -381 391 0
-383 -391 381 0
-381 -392 384 0
-381 -384 392 0
-384 -392 381 0
-393 -381 385 0
-381 -385 393 0
-393 -385 381 0
-394 -381 386 0
-386 -381 394 0
-394 -386 381 0
-381 -395 387 0
-387 -381 395 0
-387 -395 381 0
-381 -396 388 0
-388 -381 396 0
-388 -396 381 0
-397 -381 389 0
-389 -381 397 0
-389 -397 381 0
-398 -382 383 0
-383 -382 398 0
-383 -398 382 0
-382 -399 384 0
-382 -384 399 0
-399 -384 382 0
-382 -400 385 0
-382 -385 400 0
-400 -385 382 0
-382 -401 386 0
-382 -386 401 0
-386 -401 382 0
-382 -402 387 0
-387 -382 402 0
-387 -402 382 0
-382 -403 388 0
-388 -382 403 0
-388 -403 382 0
-404 -382 389 0
-389 -382 404 0
-404 -389 382 0
-383 -405 384 0
-383 -384 405 0
-384 -405 383 0
-383 -406 385 0
-383 -385 406 0
-385 -406 383 0
-383 -407 386 0
-383 -386 407 0
-386 -407 383 0
-383 -408 387 0
-383 -387 408 0
-387 -408 383 0
-383 -409 388 0
-383 -388 409 0
-388 -409 383 0
-383 -410 389 0
-383 -389 410 0
-410 -389 383 0
-384 -411 385 0
-385 -384 411 0
-385 -411 384 0
-384 -412 386 0
-386 -384 412 0
-386 -412 384 0
-413 -384 387 0
-387 -384 413 0
-387 -413 384 0
-384 -414 388 0
-388 -384 414 0
-415 -384 389 0
-389 -384 415 0
-389 -415 384 0
-416 -385 386 0
-416 -386 385 0
-417 -385 387 0
-387 417 -385 0
-417 -387 385 0
-385 -418 388 0
-388 -385 418 0
-419 -385 389 0
-389 -385 419 0
-386 -420 387 0
-387 -386 420 0
-387 -420 386 0
-421 -386 388 0
-388 -386 421 0
-388 -421 386 0
-422 -386 389 0
-389 -386 422 0
-389 -422 386 0
-387 -423 388 0
-387 -388 423 0
-388 -423 387 0
-387 -424 389 0
-387 -389 424 0
-424 -389 387 0
-390 -399 392 0
-390 -392 399 0
-399 -392 390 0
-390 -400 393 0
-393 -390 400 0
-393 -400 390 0
-390 -401 394 0
-390 -394 401 0
-394 -401 390 0
-390 -402 395 0
-390 -395 402 0
-402 -395 390 0
-390 -396 403 0
-403 -396 390 0
-390 -404 397 0
-390 -397 404 0
-404 -397 390 0
-391 -405 392 0
-391 -392 405 0
-405 -392 391 0
-391 -406 393 0
-393 -391 406 0
-393 -406 391 0
-391 -407 394 0
-391 -394 407 0
-394 -407 391 0
-391 -408 395 0
-391 -395 408 0
-395 -408 391 0
-391 -396 409 0
-391 -410 397 0
-391 -397 410 0
-410 -397 391 0
-411 -392 393 0
-393 -392 411 0
-393 -411 392 0
-412 -392 394 0
-394 -392 412 0
-394 -412 392 0
-413 -392 395 0
-392 -395 413 0
-413 -395 392 0
-392 -414 396 0
-392 -415 397 0
-397 -392 415 0
-397 -415 392 0
-393 -417 395 0
-393 417 -395 0
-417 -395 393 0
-393 -418 396 0
-393 -419 397 0
-419 -397 393 0
-394 -420 395 0
-394 -395 420 0
-395 -420 394 0
-394 -421 396 0
-394 -396 421 0
-394 -422 397 0
-394 -397 422 0
-395 -423 396 0
-395 -396 423 0
-423 395 -396 0
-395 -424 397 0
-397 -395 424 0
-424 -397 395 0
-398 -405 399 0
-398 -399 405 0
-399 -405 398 0
-398 -406 400 0
-398 -400 406 0
-400 -406 398 0
-398 -407 401 0
-398 -401 407 0
-401 -407 398 0
-398 -408 402 0
-398 -402 408 0
-402 -408 398 0
-398 -409 403 0
-398 -410 404 0
-410 -404 398 0
-399 -411 400 0
-400 -399 411 0
-400 -411 399 0
-399 -412 401 0
-399 -401 412 0
-401 -412 399 0
-413 -399 402 0
-399 -402 413 0
-413 -402 399 0
-399 -414 403 0
414 -399 -403 0
-415 -399 404 0
-404 -399 415 0
-404 -415 399 0
-416 -401 400 0
-417 -400 402 0
-400 417 -402 0
-417 -402 400 0
-400 -418 403 0
-400 -403 418 0
-419 -400 404 0
-401 -420 402 0
-401 -402 420 0
-402 -420 401 0
-421 -401 403 0
-401 -403 421 0
-422 -401 404 0
-404 -401 422 0
-402 -423 403 0
-402 -403 423 0
-403 -423 402 0
-424 -402 404 0
-404 -402 424 0
-411 -405 406 0
-405 -406 411 0
-411 -406 405 0
-405 -412 407 0
-405 -407 412 0
-412 -407 405 0
-413 -405 408 0
-405 -408 413 0
-413 -408 405 0
-405 -414 409 0
-415 -405 410 0
-410 -405 415 0
-410 -415 405 0
416 -406 -407 0
-417 -406 408 0
417 -406 -408 0
-417 -408 406 0
-406 -418 409 0
-406 -419 410 0
-410 -406 419 0
-407 -420 408 0
-407 -408 420 0
-408 -420 407 0
-421 -407 409 0
-422 -407 410 0
-410 -407 422 0
-410 -422 407 0
-423 -408 409 0
-409 -408 423 0
-424 -408 410 0
-410 -408 424 0
-416 -411 412 0
-416 -412 411 0
-415 -411 419 0
-415 -419 411 0
-413 -420 412 0
-422 -412 415 0
-415 -412 422 0
-422 -415 412 0
-413 -424 415 0
-413 -415 424 0
-424 -415 413 0
-416 -422 419 0
-424 -419 417 0
-423 -420 421 0
-421 -420 423 0
-421 -423 420 0
-424 -420 422 0
-422 -420 424 0
-424 -422 420 0
-426 -435 427 0
-427 -426 435 0
-427 -435 426 0
-436 -426 428 0
-428 -426 436 0
-428 -436 426 0
-437 -426 429 0
-429 -426 437 0
-437 -429 426 0
-426 -438 430 0
-426 -430 438 0
-438 -430 426 0
-439 -426 431 0
-426 -431 439 0
-439 -431 426 0
-426 -440 432 0
-432 -426 440 0
-432 -440 426 0
-426 -441 433 0
-426 -433 441 0
-441 -433 426 0
-426 -442 434 0
-426 -434 442 0
-442 -434 426 0
-427 -443 428 0
-428 -427 443 0
-428 -443 427 0
-444 -427 429 0
-429 -427 444 0
-444 -429 427 0
-445 -427 430 0
-427 -430 445 0
-445 -430 427 0
-446 -427 431 0
-427 -431 446 0
-446 -431 427 0
-447 -427 432 0
-432 -427 447 0
-432 -447 427 0
-427 -448 433 0
-427 -433 448 0
-448 -433 427 0
-427 -449 434 0
-427 -434 449 0
-434 -449 427 0
-428 -450 429 0
-428 -429 450 0
-429 -450 428 0
-428 -451 430 0
-428 -430 451 0
-430 -451 428 0
-428 431 -452 0
-428 -431 452 0
-431 -452 428 0
-453 -428 432 0
-428 -432 453 0
-453 -432 428 0
-428 -454 433 0
-428 -433 454 0
-454 -433 428 0
-428 -455 434 0
-428 -434 455 0
-455 -434 428 0
-429 -456 430 0
-429 456 -430 0
-456 -430 429 0
-429 -457 431 0
-429 457 -431 0
-457 -431 429 0
-458 -429 432 0
-432 -429 458 0
-458 -432 429 0
-459 -429 433 0
-429 459 -433 0
-429 -460 434 0
-429 -434 460 0
-434 -460 429 0
-430 431 -461 0
-430 -431 461 0
-431 -461 430 0
-462 -430 432 0
-432 462 -430 0
-432 -462 430 0
-430 -433 463 0
-464 -430 434 0
-434 -430 464 0
-431 -465 432 0
465 -432 -431 0
-432 431 -465 0
-431 -433 466 0
-434 -431 467 0
-432 -468 433 0
-432 -433 468 0
-468 -433 432 0
-432 -469 434 0
-432 -434 469 0
-434 -469 432 0
-444 -435 437 0
-437 -435 444 0
-437 -444 435 0
-445 -435 438 0
-435 -438 445 0
-445 -438 435 0
-446 -435 439 0
-439 -435 446 0
-446 -439 435 0
-447 -435 440 0
-435 -440 447 0
-447 -440 435 0
-435 -448 441 0
-435 -441 448 0
-435 -449 442 0
-435 -442 449 0
-442 -449 435 0
-436 -450 437 0
-437 -436 450 0
-437 -450 436 0
-436 -451 438 0
-436 -438 451 0
-438 -451 436 0
-436 -452 439 0
-439 -436 452 0
-439 -452 436 0
-453 -436 440 0
-436 -440 453 0
-453 -440 436 0
-436 -441 454 0
-454 -441 436 0
-436 -442 455 0
-455 -442 436 0
-437 -456 438 0
-437 -438 456 0
-456 -438 437 0
-437 -457 439 0
-437 -439 457 0
-439 -457 437 0
-458 -437 440 0
-437 -440 458 0
-458 -440 437 0
-459 -437 441 0
-437 -441 459 0
-437 -460 442 0
-437 -442 460 0
-442 -460 437 0
-438 -461 439 0
-439 -438 461 0
-439 -461 438 0
-438 -462 440 0
-438 462 -440 0
-440 -462 438 0
-441 -438 463 0
-464 -442 438 0
-439 440 -465 0
-440 -465 439 0
-468 -440 441 0
-441 -440 468 0
-440 442 -469 0
-442 -440 469 0
-442 440 -469 0
-443 -450 444 0
-444 -443 450 0
-444 -450 443 0
-443 -451 445 0
-445 -443 451 0
-445 443 -451 0
-443 446 -452 0
-446 -443 452 0
-446 443 -452 0
-453 -443 447 0
-447 -443 453 0
-453 -447 443 0
-454 -443 448 0
-443 -448 454 0
-443 -455 449 0
-443 -449 455 0
-444 -456 445 0
-444 -445 456 0
-445 -456 444 0
-444 -457 446 0
-446 -444 457 0
-446 -457 444 0
-458 -444 447 0
-444 -447 458 0
-458 -447 444 0
-444 -459 448 0
-444 -448 459 0
-459 -448 444 0
-444 -460 449 0
-444 -449 460 0
-449 -460 444 0
-445 446 -461 0
-446 -445 461 0
-446 -461 445 0
-445 -462 447 0
-445 -447 462 0
-447 -462 445 0
-445 -448 463 0
-447 446 -465 0
-447 -468 448 0
-447 -448 468 0
-447 449 -469 0
-447 -449 469 0
-449 447 -469 0
-456 -450 451 0
-450 456 -451 0
-456 -451 450 0
-450 -457 452 0
-450 457 -452 0
-457 -452 450 0
-458 -450 453 0
-453 -450 458 0
-453 -458 450 0
-459 -450 454 0
-454 -459 450 0
-450 -460 455 0
-450 -455 460 0
-455 -460 450 0
-451 452 -461 0
-452 461 -451 0
-452 -461 451 0
-462 453 -451 0
-453 462 -451 0
-453 -462 451 0
-463 454 -451 0
-464 -451 455 0
453 -465 -452 0
-453 452 -465 0
-467 -452 455 0
-453 -468 454 0
-453 -454 468 0
-453 -469 455 0
-453 -455 469 0
-455 453 -469 0
-456 457 -461 0
-456 -457 461 0
-457 456 -461 0
-458 -462 456 0
-459 -456 463 0
-457 458 -465 0
465 -458 -457 0
-457 -467 460 0
457 -460 -467 0
-458 -469 460 0
-458 -460 469 0
-460 458 -469 0
462 -465 -461 0
-462 468 -463 0
472 -480 -471 0
480 -472 -471 0
-472 -480 471 0
473 -481 -471 0
481 -471 -473 0
-481 -473 471 0
-482 474 -471 0
482 -474 -471 0
475 -483 -471 0
483 -475 -471 0
-483 -475 471 0
476 -471 -484 0
484 -476 -471 0
-476 -484 471 0
477 -485 -471 0
485 -477 -471 0
-477 -485 471 0
478 -471 -486 0
-478 486 -471 0
-478 -486 471 0
-487 -471 479 0
-479 487 -471 0
473 -488 -472 0
488 -472 -473 0
472 -488 -473 0
474 -489 -472 0
-472 489 -474 0
472 -489 -474 0
475 -472 -490 0
490 -472 -475 0
472 -475 -490 0
476 -491 -472 0
491 -476 -472 0
472 -491 -476 0
477 -472 -492 0
492 -477 -472 0
478 -472 -493 0
-478 -472 493 0
-494 -472 479 0
-479 494 -472 0
474 -495 -473 0
495 -474 -473 0
473 -474 -495 0
475 -496 -473 0
496 -475 -473 0
473 -496 -475 0
476 -497 -473 0
-476 497 -473 0
-476 473 -497 0
477 -473 -498 0
-477 498 -473 0
473 -477 -498 0
478 -499 -473 0
-478 499 -473 0
-478 473 -499 0
-473 -500 479 0
501 -474 -475 0
-502 -476 474 0
-506 476 -475 0
-476 506 -475 0
-507 477 -475 0
507 -477 -475 0
-477 510 -476 0
481 -488 -480 0
488 -480 -481 0
480 -488 -481 0
-489 482 -480 0
-482 489 -480 0
483 -480 -490 0
490 -480 -483 0
480 -483 -490 0
484 -491 -480 0
491 -480 -484 0
480 -491 -484 0
485 -480 -492 0
492 -485 -480 0
480 -485 -492 0
-480 486 -493 0
-480 493 -486 0
487 -494 -480 0
494 -487 -480 0
482 -495 -481 0
-482 495 -481 0
481 -482 -495 0
483 -496 -481 0
496 -483 -481 0
481 -496 -483 0
484 -497 -481 0
497 -481 -484 0
485 -481 -498 0
498 -485 -481 0
481 -485 -498 0
486 -499 -481 0
499 -481 -486 0
487 -481 -500 0
500 -487 -481 0
-503 485 -482 0
503 -482 -485 0
-503 482 -485 0
505 -482 -487 0
-506 483 -484 0
507 -485 -483 0
-507 483 -485 0
487 -509 -483 0
509 -487 -483 0
-510 484 -485 0
-488 489 -495 0
-488 495 -489 0
488 -489 -495 0
490 -488 -496 0
-488 496 -490 0
491 -488 -497 0
-491 -488 497 0
488 -491 -497 0
492 -488 -498 0
-488 498 -492 0
488 -498 -492 0
-488 493 -499 0
-488 499 -493 0
494 -488 -500 0
500 -488 -494 0
-501 490 -489 0
501 -489 -490 0
502 -491 -489 0
503 -489 -492 0
505 -494 -489 0
-506 491 -490 0
-491 506 -490 0
-510 492 -491 0
-491 510 -492 0
-501 496 -495 0
501 -496 -495 0
-501 495 -496 0
-502 497 -495 0
502 -497 -495 0
-502 -497 495 0
-503 498 -495 0
503 -495 -498 0
505 -495 -500 0
-506 497 -496 0
-497 506 -496 0
-506 496 -497 0
-507 498 -496 0
507 -496 -498 0
-507 496 -498 0
510 -497 -498 0
-510 497 -498 0
-516 -531 523 0
-517 -534 519 0
-518 -540 519 0
-518 523 -544 0
-534 -525 527 0
-540 -526 527 0
-540 -527 526 0
-531 -544 526 0
-546 -527 528 0
-547 -527 529 0
-527 549 -531 0
-550 -527 532 0
-531 -556 529 0
-531 -558 530 0
-533 -540 534 0
-533 -534 540 0
-533 -545 539 0
-533 -539 545 0
-546 -534 535 0
-547 -534 536 0
-534 -548 537 0
-534 -550 539 0
-540 -546 541 0
-540 546 -541 0
-547 -540 542 0
-540 -548 543 0
-540 -550 545 0
-542 -551 541 0
-542 -545 557 0
-546 -550 554 0
-547 -550 557 0
-550 -548 559 0
-570 562 -561 0
-562 570 -561 0
-570 -562 561 0
-571 563 -561 0
-563 571 -561 0
-571 -563 561 0
-572 564 -561 0
572 -564 -561 0
-572 -564 561 0
-573 565 -561 0
-565 573 -561 0
-573 -565 561 0
-574 566 -561 0
-566 574 -561 0
-574 -566 561 0
-575 567 -561 0
-567 575 -561 0
-575 -567 561 0
-568 576 -561 0
-576 -568 561 0
-562 -578 563 0
-562 -563 578 0
-578 -563 562 0
-579 -562 564 0
-562 579 -564 0
-579 -564 562 0
-580 -562 565 0
-565 -562 580 0
-580 -565 562 0
-581 -562 566 0
-562 -566 581 0
-581 -566 562 0
-582 -562 567 0
-562 -567 582 0
-582 -567 562 0
-562 583 -568 0
-583 -568 562 0
-585 -563 564 0
-563 -564 585 0
-585 -564 563 0
-586 -563 565 0
-565 -563 586 0
-586 -565 563 0
-587 -563 566 0
-563 -566 587 0
-588 -563 567 0
-563 -567 588 0
-588 -567 563 0
-589 568 -563 0
-563 -568 589 0
-589 -568 563 0
-591 -564 565 0
-565 591 -564 0
-591 -565 564 0
-592 566 -564 0
592 -566 -564 0
-592 -566 564 0
-593 567 -564 0
593 -567 -564 0
-593 -567 564 0
-596 -565 566 0
-565 -566 596 0
-596 -566 565 0
-565 -597 567 0
-565 -567 597 0
-565 -568 598 0
-598 -568 565 0
-599 -569 565 0
-566 -600 567 0
-566 -567 600 0
-600 -567 566 0
-566 -568 601 0
569 -602 -566 0
-566 -569 602 0
-603 568 -567 0
-568 -567 603 0
-579 -570 572 0
-570 -572 579 0
-579 -572 570 0
-580 -570 573 0
-573 -570 580 0
-573 -580 570 0
-581 -570 574 0
-574 -570 581 0
-574 -581 570 0
-570 -582 575 0
-575 -570 582 0
-575 -582 570 0
-583 -570 576 0
-570 -576 583 0
-583 -576 570 0
-570 577 -584 0
-571 -585 572 0
-572 -571 585 0
-572 -585 571 0
-586 -571 573 0
-573 -571 586 0
-573 -586 571 0
-587 -571 574 0
-574 -571 587 0
-574 -587 571 0
-588 -571 575 0
-575 -571 588 0
-575 -588 571 0
-571 -589 576 0
-576 -571 589 0
-576 -589 571 0
-577 -571 590 0
-591 -572 573 0
-573 -572 591 0
-573 -591 572 0
-592 -572 574 0
-574 -572 592 0
-574 -592 572 0
-593 -572 575 0
-575 -572 593 0
-593 -575 572 0
-594 -572 576 0
-572 -576 594 0
-594 -576 572 0
-572 577 -595 0
-572 -577 595 0
-573 -596 574 0
-574 -573 596 0
-574 -596 573 0
-573 -597 575 0
-575 -573 597 0
-575 -597 573 0
-573 -598 576 0
-573 -576 598 0
-598 -576 573 0
-573 -577 599 0
-599 -577 573 0
-574 -600 575 0
-575 -574 600 0
-575 -600 574 0
-574 -601 576 0
-574 -576 601 0
-576 -601 574 0
-574 577 -602 0
-575 -603 576 0
-575 -576 603 0
-576 -603 575 0
-604 -577 575 0
-577 -576 605 0
-585 -578 579 0
-579 -578 585 0
-579 -585 578 0
-586 -578 580 0
-580 -578 586 0
-586 -580 578 0
-587 -578 581 0
-581 -578 587 0
-581 -587 578 0
-588 -578 582 0
-582 -578 588 0
-588 -582 578 0
583 -578 -589 0
-583 -578 589 0
-583 -589 578 0
-590 584 -578 0
-584 -578 590 0
-590 -584 578 0
-579 -591 580 0
-579 -580 591 0
-591 -580 579 0
-592 -579 581 0
-579 -581 592 0
-592 -581 579 0
-579 -593 582 0
-579 -582 593 0
-593 -582 579 0
-579 -594 583 0
-579 -583 594 0
-594 -583 579 0
-579 584 -595 0
-579 -584 595 0
-580 -596 581 0
-581 -580 596 0
-581 -596 580 0
-580 -597 582 0
-580 -582 597 0
-597 -582 580 0
-598 -580 583 0
-583 -580 598 0
-583 -598 580 0
-599 -580 584 0
-580 -584 599 0
-599 -584 580 0
-581 -600 582 0
-581 -582 600 0
-582 -600 581 0
-581 583 -601 0
-581 -583 601 0
-583 -601 581 0
-581 584 -602 0
-581 -584 602 0
-584 -602 581 0
-582 583 -603 0
-583 -582 603 0
-583 -603 582 0
-604 -582 584 0
-582 -584 604 0
-604 -584 582 0
-583 584 -605 0
583 -584 -605 0
-591 -585 586 0
-586 -585 591 0
-591 -586 585 0
-592 -585 587 0
-587 -585 592 0
-592 -587 585 0
-593 -585 588 0
-588 -585 593 0
-593 -588 585 0
-594 -585 589 0
-585 -589 594 0
-594 -589 585 0
-585 590 -595 0
-590 -585 595 0
-590 -595 585 0
-586 -596 587 0
-586 -587 596 0
-596 -587 586 0
-586 -597 588 0
-586 -588 597 0
-588 -597 586 0
-586 -598 589 0
-586 -589 598 0
-598 -589 586 0
-586 -599 590 0
-586 -590 599 0
-590 -599 586 0
-587 -600 588 0
-588 -587 600 0
-588 -600 587 0
-587 -601 589 0
-587 -589 601 0
-589 -601 587 0
-587 -602 590 0
-590 -587 602 0
-590 -602 587 0
-588 589 -603 0
-588 -589 603 0
-589 -603 588 0
-588 -604 590 0
-588 -590 604 0
-590 -604 588 0
-605 -589 590 0
-590 -589 605 0
-590 -605 589 0
-591 -596 592 0
-592 -591 596 0
-592 -596 591 0
-591 -597 593 0
-593 -591 597 0
-593 -597 591 0
-591 -598 594 0
-594 -591 598 0
-594 -598 591 0
-591 -599 595 0
-591 599 -595 0
-599 591 -595 0
-592 593 -600 0
-592 -593 600 0
-593 592 -600 0
-592 -601 594 0
-592 -594 601 0
-594 592 -601 0
-592 -602 595 0
-592 -595 602 0
-602 592 -595 0
-593 -603 594 0
-593 -594 603 0
-594 593 -603 0
-593 -604 595 0
-593 -595 604 0
-604 593 -595 0
-594 -605 595 0
-594 605 -595 0
-605 594 -595 0
-596 598 -601 0
-598 -596 601 0
-598 -601 596 0
-596 -602 599 0
-596 -599 602 0
-599 -602 596 0
-597 -603 598 0
-598 -597 603 0
-598 -603 597 0
-597 -604 599 0
-599 -597 604 0
-604 -599 597 0
-598 -605 599 0
-599 -598 605 0
-599 -605 598 0
-600 -603 601 0
-601 -600 603 0
-601 -603 600 0
-604 -600 602 0
-602 -600 604 0
-604 -602 600 0
-605 -601 602 0
-602 -601 605 0
-605 -602 601 0
-605 -603 604 0
-604 -603 605 0
-604 -605 603 0
-1 114 -5 0
115 -1 -6 0
116 -1 -7 0
117 -8 -1 0
-2 122 -5 0
-2 123 -6 0
-2 124 -7 0
125 -2 -8 0
127 -2 -10 0
-3 129 -5 0
-3 130 -6 0
-3 131 -7 0
-3 -8 132 0
134 -3 -10 0
-4 135 -5 0
136 -4 -6 0
137 -4 -7 0
-8 -4 138 0
-6 -5 141 0
-8 143 -5 0
-9 144 -5 0
145 -10 -5 0
-8 147 -6 0
-9 148 -6 0
149 -10 -6 0
-8 150 -7 0
-9 151 -7 0
152 -10 -7 0
13 11 19 16 20 12 15 0
12 13 15 17 20 19 11 0
11 12 19 16 20 17 13 0
20 11 19 16 14 15 12 0
12 11 17 15 20 14 19 0
12 11 19 20 14 16 17 0
15 11 19 20 13 17 14 0
15 11 20 19 18 13 14 0
11 13 19 16 20 14 17 0
13 11 19 20 14 18 17 0
13 19 15 14 20 16 12 0
12 19 15 14 17 20 13 0
12 19 15 14 13 20 18 0
12 13 14 20 16 19 17 0
12 18 19 14 16 13 20 0
13 12 20 14 17 19 18 0
156 -12 -11 0
157 -13 -11 0
158 -14 -11 0
-15 159 -11 0
-16 160 -11 0
-17 161 -11 0
-18 162 -11 0
-19 163 -11 0
164 -11 -20 0
-12 -13 165 0
-12 -14 166 0
-12 -15 167 0
-12 -16 168 0
-12 -17 169 0
170 -12 -18 0
171 -12 -19 0
172 -12 -20 0
-14 -13 173 0
-13 -15 174 0
-13 -16 175 0
-13 -17 176 0
-13 -18 177 0
178 -19 -13 0
179 -13 -20 0
-14 -15 180 0
181 -14 -16 0
182 -14 -17 0
-14 -18 183 0
-19 -14 184 0
185 -14 -20 0
-16 -15 186 0
-17 -15 187 0
-15 -18 188 0
-19 -15 189 0
-15 190 -20 0
-16 -17 191 0
-18 -16 192 0
-19 -16 193 0
194 -16 -20 0
-18 -17 195 0
-19 -17 196 0
-17 197 -20 0
-19 -18 198 0
-18 199 -20 0
23 22 30 29 26 21 25 0
22 27 30 23 25 21 29 0
22 27 29 26 30 23 21 0
22 25 26 21 24 29 30 0
22 27 24 21 30 29 25 0
28 25 30 21 24 22 29 0
22 27 26 30 21 24 29 0
28 24 29 21 30 22 26 0
27 25 24 21 30 29 23 0
23 25 24 28 21 29 30 0
23 27 24 29 30 21 26 0
23 28 21 29 24 26 30 0
23 28 21 29 27 24 30 0
23 25 24 26 30 29 22 0
22 27 23 30 29 25 24 0
23 22 26 24 30 27 29 0
-22 -21 201 0
202 -21 -23 0
-21 203 -24 0
-21 -25 204 0
-21 -26 205 0
-21 -27 206 0
-21 -28 207 0
-21 -29 208 0
-21 -30 209 0
210 -22 -23 0
-22 211 -24 0
-22 -25 212 0
-22 -26 213 0
-22 -27 214 0
-22 -28 215 0
-22 -29 216 0
-22 -30 217 0
-23 -24 218 0
-23 -25 219 0
-23 -26 220 0
-23 -27 221 0
-23 -28 222 0
223 -29 -23 0
224 -30 -23 0
-25 -24 225 0
226 -26 -24 0
227 -27 -24 0
-28 -24 228 0
-29 -24 229 0
230 -30 -24 0
-26 -25 231 0
-27 -25 232 0
-25 -28 233 0
-29 -25 234 0
-30 -25 235 0
-27 -26 236 0
-26 -28 237 0
-29 -26 238 0
239 -30 -26 0
-28 -27 240 0
-27 -29 241 0
-30 -27 242 0
-29 -28 243 0
-30 -28 244 0
31 39 33 40 36 32 35 0
31 37 33 40 39 32 35 0
31 39 33 40 32 37 36 0
39 31 40 34 36 32 35 0
39 31 35 40 34 37 32 0
37 31 34 40 36 32 39 0
31 35 40 33 34 36 39 0
39 31 40 33 34 35 37 0
39 32 40 35 33 37 34 0
37 32 33 36 34 39 40 0
-32 -31 246 0
-31 -33 247 0
248 -34 -31 0
-31 -35 249 0
-31 -36 250 0
251 -31 -37 0
-31 -38 252 0
-31 -39 253 0
-40 -31 254 0
-32 -33 255 0
256 -32 -34 0
-32 -35 257 0
-36 -32 258 0
-32 259 -37 0
-32 260 -38 0
-32 -39 261 0
-40 -32 262 0
263 -34 -33 0
-35 -33 264 0
-36 -33 265 0
-37 -33 266 0
-38 -33 267 0
-33 -39 268 0
-40 -33 269 0
270 -35 -34 0
271 -36 -34 0
272 -34 -37 0
273 -34 -38 0
-34 -39 274 0
275 -40 -34 0
-36 -35 276 0
-37 -35 277 0
-35 -38 278 0
-35 -39 279 0
-40 -35 280 0
-37 -36 281 0
-36 -38 282 0
-36 -39 283 0
284 -40 -36 0
-38 -37 285 0
-37 -39 286 0
-37 -40 287 0
-38 -39 288 0
-40 -38 289 0
58 52 57 59 56 60 53 0
58 56 57 59 52 60 54 0
56 54 59 53 57 60 55 0
54 56 59 53 60 58 55 0
54 58 59 55 57 60 53 0
58 56 57 60 59 53 54 0
-51 -52 336 0
-51 -53 337 0
-51 -54 338 0
-51 -55 339 0
-51 340 -56 0
-51 -57 341 0
-51 -58 342 0
-59 -51 343 0
-51 -60 344 0
-53 -52 345 0
-52 -54 346 0
-52 -55 347 0
-52 348 -56 0
-52 -57 349 0
-52 -58 350 0
-52 -59 351 0
-52 -60 352 0
-54 -53 353 0
-55 -53 354 0
-53 -56 355 0
-53 -57 356 0
-53 -58 357 0
-53 -59 358 0
-60 -53 359 0
-54 -55 360 0
361 -56 -54 0
362 -57 -54 0
-54 -58 363 0
-59 -54 364 0
-54 -60 365 0
366 -55 -56 0
367 -55 -57 0
368 -58 -55 0
369 -59 -55 0
-60 -55 370 0
-56 -57 371 0
-58 372 -56 0
-56 -59 373 0
374 -60 -56 0
-58 -57 375 0
-57 -59 376 0
-60 -57 377 0
-58 -59 378 0
-60 -58 379 0
68 61 65 69 66 63 70 0
68 70 61 63 69 66 67 0
67 66 69 64 70 68 61 0
68 63 66 65 69 62 70 0
68 63 70 69 65 67 62 0
68 66 67 62 70 63 69 0
66 67 62 64 70 65 69 0
70 66 65 62 64 69 68 0
68 70 64 65 67 69 62 0
68 66 62 67 64 70 69 0
66 68 65 64 70 69 63 0
67 63 64 69 70 66 68 0
-62 -61 381 0
-61 -63 382 0
-61 -64 383 0
-61 -65 384 0
-66 -61 385 0
-61 -67 386 0
-61 -68 387 0
-69 -61 388 0
-61 -70 389 0
-62 -63 390 0
-62 -64 391 0
-65 -62 392 0
-62 -66 393 0
-62 -67 394 0
-62 -68 395 0
-62 -69 396 0
-70 -62 397 0
-64 -63 398 0
-65 -63 399 0
-66 -63 400 0
-67 -63 401 0
-68 402 -63 0
-69 -63 403 0
-70 -63 404 0
-64 -65 405 0
-66 -64 406 0
-64 -67 407 0
-64 -68 408 0
-69 -64 409 0
-64 -70 410 0
-66 -65 411 0
-67 412 -65 0
-68 413 -65 0
414 -65 -69 0
-70 -65 415 0
416 -66 -67 0
417 -66 -68 0
-66 -69 418 0
-66 -70 419 0
-67 -68 420 0
-69 -67 421 0
-67 -70 422 0
-69 -68 423 0
-68 -70 424 0
77 78 72 75 79 80 71 0
78 77 71 75 73 79 80 0
77 78 79 80 74 75 71 0
77 76 72 75 80 73 79 0
78 76 72 75 73 79 80 0
77 78 72 80 79 73 76 0
77 76 75 74 79 80 72 0
77 78 72 75 79 80 74 0
77 78 79 72 80 74 76 0
77 76 75 74 73 80 79 0
76 78 73 79 74 80 75 0
77 78 73 79 80 74 75 0
76 77 78 79 80 73 74 0
-72 -71 426 0
-73 -71 427 0
-74 -71 428 0
-75 -71 429 0
-71 -76 430 0
-71 -77 431 0
-78 -71 432 0
-79 -71 433 0
-80 -71 434 0
-72 -73 435 0
-72 -74 436 0
-72 -75 437 0
-72 -76 438 0
-72 -77 439 0
-78 -72 440 0
-72 -79 441 0
-80 -72 442 0
-74 -73 443 0
-75 -73 444 0
-76 -73 445 0
-73 -77 446 0
-78 -73 447 0
-73 -79 448 0
-80 -73 449 0
-74 -75 450 0
-74 -76 451 0
452 -74 -77 0
-78 -74 453 0
-74 -79 454 0
-80 -74 455 0
-76 -75 456 0
457 -75 -77 0
-78 -75 458 0
459 -75 -79 0
-80 -75 460 0
461 -77 -76 0
462 -78 -76 0
-79 -76 463 0
464 -80 -76 0
465 -78 -77 0
-79 -77 466 0
467 -80 -77 0
468 -79 -78 0
469 -78 -80 0
-81 -82 471 0
472 -81 -83 0
473 -81 -84 0
474 -85 -81 0
475 -81 -86 0
476 -81 -87 0
477 -81 -88 0
480 -82 -83 0
481 -82 -84 0
-82 -85 482 0
483 -82 -86 0
484 -87 -82 0
485 -82 -88 0
486 -82 -89 0
487 -82 -90 0
488 -84 -83 0
-83 -85 489 0
490 -86 -83 0
491 -87 -83 0
492 -83 -88 0
493 -83 -89 0
494 -90 -83 0
495 -85 -84 0
496 -84 -86 0
-87 -84 497 0
498 -84 -88 0
499 -84 -89 0
500 -90 -84 0
505 -85 -90 0
509 -90 -86 0
91 100 97 92 99 98 96 0
91 94 99 95 97 96 93 0
100 91 95 97 98 94 93 0
91 99 94 97 100 93 98 0
-92 -91 516 0
518 -94 -91 0
-91 -96 520 0
-92 -93 525 0
-92 -94 526 0
-92 -95 527 0
-92 -96 528 0
-92 -97 529 0
-92 -98 530 0
-100 -92 532 0
-95 -93 534 0
-97 -93 536 0
-93 -99 538 0
-95 -94 540 0
-94 -96 541 0
-94 -98 543 0
-94 -99 544 0
-96 -95 546 0
553 -96 -99 0
-100 -96 554 0
556 -97 -99 0
101 104 107 109 103 102 108 0
101 108 102 107 104 103 110 0
101 106 108 110 103 105 102 0
101 108 102 110 105 107 103 0
101 108 110 102 107 103 106 0
101 106 109 110 103 107 102 0
101 106 108 103 102 110 109 0
108 101 109 110 102 107 103 0
101 104 109 107 102 106 108 0
101 106 108 110 104 102 107 0
101 104 109 107 102 106 110 0
104 108 101 110 106 109 102 0
104 108 107 109 102 101 110 0
101 108 102 110 105 109 107 0
101 106 108 110 105 103 104 0
101 108 103 105 104 109 107 0
104 108 107 103 110 101 105 0
101 108 103 104 106 107 109 0
101 104 107 110 103 106 108 0
104 108 110 101 103 107 109 0
101 106 108 110 105 103 109 0
101 108 109 103 105 107 110 0
101 104 110 108 106 105 109 0
104 105 110 101 108 107 109 0
104 106 107 102 109 103 110 0
104 106 108 109 110 102 103 0
104 108 102 109 110 107 103 0
105 106 102 107 109 103 110 0
106 108 102 110 105 109 103 0
108 105 102 109 110 107 103 0
108 106 109 107 110 102 103 0
104 105 110 109 107 102 106 0
104 108 109 102 105 110 107 0
106 104 107 109 102 110 108 0
104 105 106 110 109 107 103 0
104 108 106 110 109 105 103 0
104 105 103 107 109 108 110 0
104 108 106 109 110 103 107 0
561 -101 -102 0
562 -103 -101 0
-104 563 -101 0
-105 564 -101 0
-106 565 -101 0
-107 566 -101 0
-108 567 -101 0
568 -109 -101 0
569 -110 -101 0
-103 570 -102 0
-104 571 -102 0
-105 572 -102 0
-106 573 -102 0
-107 574 -102 0
-108 575 -102 0
-109 576 -102 0
577 -110 -102 0
578 -103 -104 0
-103 -105 579 0
-103 -106 580 0
-107 -103 581 0
-108 -103 582 0
583 -109 -103 0
584 -110 -103 0
-104 -105 585 0
-104 -106 586 0
-107 -104 587 0
-104 -108 588 0
-104 -109 589 0
590 -110 -104 0
-105 591 -106 0
592 -105 -107 0
593 -108 -105 0
-109 -105 594 0
595 -105 -110 0
-107 -106 596 0
-108 597 -106 0
-106 -109 598 0
-110 -106 599 0
-108 -107 600 0
-107 601 -109 0
-107 -110 602 0
-108 -109 603 0
-110 -108 604 0
-109 -110 605 0
-15 336 -1 -11 -5 0
-11 -1 -6 381 -16 0
-17 426 -1 -7 -11 0
-1 -8 -11 471 -18 0
-9 -1 -11 -19 516 0
-11 -20 -10 -1 561 0
-2 -25 -5 -21 337 0
-2 -26 382 -21 -6 0
-2 -27 427 -7 -21 0
-21 -2 472 -28 -8 0
-21 -9 -2 -29 517 0
-30 -2 -10 -21 562 0
-21 -22 111 -11 -12 0
-23 -12 255 -13 -22 0
-12 -24 300 -14 -22 0
-25 -15 345 -22 -12 0
-22 -26 390 -16 -12 0
-22 -17 435 -27 -12 0
-12 -28 480 -18 -22 0
-29 -19 525 -22 -12 0
-22 570 -20 -30 -12 0
-31 338 -5 -3 -35 0
-3 -31 383 -6 -36 0
-3 -37 428 -31 -7 0
473 -3 -31 -8 -38 0
-9 -3 -31 -39 518 0
-40 -3 563 -10 -31 0
-31 112 -11 -13 -32 0
210 -13 -32 -33 -12 0
-13 -34 301 -14 -32 0
-15 -13 -35 -32 346 0
-13 -36 -32 -16 391 0
-32 -13 -37 -17 436 0
481 -13 -32 -18 -38 0
-19 -39 526 -13 -32 0
-40 -13 -20 -32 571 0
-21 -23 -31 -33 120 0
-23 -33 165 -32 -22 0
-24 -34 308 -23 -33 0
-23 -35 353 -25 -33 0
-23 -36 -33 -26 398 0
-23 -33 443 -37 -27 0
-23 -28 -33 -38 488 0
-29 -33 533 -39 -23 0
-30 -40 -23 -33 578 0
-15 347 -42 -45 -14 0
-24 354 -45 -25 -43 0
-24 -46 399 -26 -43 0
-51 159 -5 -1 -52 0
-51 -2 204 -53 -5 0
-51 249 -5 -54 -3 0
-51 -4 -5 -55 294 0
-51 385 -5 -6 -56 0
-51 430 -7 -5 -57 0
-51 -58 -8 -5 475 0
-51 520 -5 -9 -59 0
-60 565 -10 -5 -51 0
-51 -15 114 -11 -52 0
-52 -15 212 -53 -12 0
-15 257 -54 -52 -13 0
302 -15 -55 -52 -14 0
-15 -56 393 -52 -16 0
-15 -57 438 -17 -52 0
483 -58 -15 -18 -52 0
-59 -19 528 -52 -15 0
-60 573 -20 -52 -15 0
-21 -51 -25 -53 122 0
-53 -52 -25 -22 167 0
-23 -53 264 -25 -54 0
-25 -53 400 -56 -26 0
-25 -57 445 -27 -53 0
-53 -58 -25 -28 490 0
-29 -59 535 -53 -25 0
-30 -25 -60 -53 580 0
-51 -31 -54 -35 129 0
-52 -32 -54 -35 174 0
-53 -54 -35 -33 219 0
-55 -54 -35 -34 315 0
-36 406 -54 -35 -56 0
-35 -57 451 -37 -54 0
-58 -35 496 -38 -54 0
-59 -39 541 -54 -35 0
-40 -35 -60 -54 586 0
180 -55 -42 -52 -45 0
-55 -53 -45 -43 225 0
-61 160 -6 -1 -62 0
-61 -2 205 -63 -6 0
-3 -64 250 -61 -6 0
295 -61 -4 -6 -65 0
-61 340 -5 -66 -6 0
-61 431 -6 -7 -67 0
-8 -68 476 -6 -61 0
-61 521 -6 -69 -9 0
-70 566 -6 -61 -10 0
-62 -16 115 -61 -11 0
-62 -16 213 -12 -63 0
-62 -16 258 -64 -13 0
-62 -14 -16 -65 303 0
-66 -62 -16 -15 348 0
-16 -67 439 -17 -62 0
-68 -62 -18 -16 484 0
-19 -69 -16 -62 529 0
-70 -62 -16 -20 574 0
-21 -61 -63 -26 123 0
-62 -63 168 -26 -22 0
-64 -63 -26 -23 265 0
-26 -65 -24 -63 310 0
-66 -26 -25 -63 355 0
-26 -67 446 -27 -63 0
-68 -28 -63 -26 491 0
-29 -69 -26 -63 536 0
-30 -26 -70 -63 581 0
-61 -36 130 -64 -31 0
-62 -64 -36 -32 175 0
-64 -63 -36 -33 220 0
-65 -36 -34 -64 316 0
-66 -36 361 -35 -64 0
-36 -67 452 -37 -64 0
-36 -38 -68 -64 497 0
-69 -39 542 -64 -36 0
-70 -64 -36 -40 587 0
-62 -65 -46 -42 181 0
226 -63 -46 -65 -43 0
-61 141 -56 -66 -51 0
-62 -66 -52 -56 186 0
-53 -63 231 -66 -56 0
-66 -64 -56 -54 276 0
-66 321 -56 -55 -65 0
-67 -57 461 -66 -56 0
-66 -58 506 -68 -56 0
-66 -69 -56 -59 551 0
-60 -70 596 -66 -56 0
-71 161 -7 -72 -1 0
-73 -71 206 -2 -7 0
-71 251 -7 -74 -3 0
-71 341 -5 -76 -7 0
-71 386 -7 -77 -6 0
-71 -78 -7 -8 477 0
-9 -71 -7 -79 522 0
-71 -80 -10 -7 567 0
-72 -71 -11 -17 116 0
-72 -73 214 -12 -17 0
-72 -17 259 -13 -74 0
304 -17 -75 -72 -14 0
-17 349 -76 -72 -15 0
-72 -77 -17 -16 394 0
-18 -17 -78 -72 485 0
-72 -79 -19 -17 530 0
-72 -17 575 -80 -20 0
-21 -27 -71 -73 124 0
-22 -72 169 -73 -27 0
-27 -74 266 -73 -23 0
-27 -75 -24 -73 311 0
-25 -76 356 -27 -73 0
-73 -26 401 -27 -77 0
492 -28 -27 -78 -73 0
-29 -73 -79 -27 537 0
-30 -27 -80 -73 582 0
-74 -71 -37 -31 131 0
-72 -74 -37 -32 176 0
-37 -74 221 -73 -33 0
-35 -37 -76 -74 362 0
-36 -37 -77 -74 407 0
-78 -74 -38 498 -37 0
-80 -74 -37 -40 588 0
-57 -51 -71 -76 142 0
-52 187 -76 -57 -72 0
-73 -76 232 -57 -53 0
277 -74 -54 -57 -76 0
-75 -55 322 -76 -57 0
416 -77 -56 -76 -57 0
507 -58 -78 -76 -57 0
-59 552 -79 -76 -57 0
-60 -80 -76 597 -57 0
-67 -71 146 -77 -61 0
-72 -77 191 -62 -67 0
-73 236 -77 -67 -63 0
-64 -67 -77 -74 281 0
-77 -75 -65 -67 326 0
-66 371 -77 -76 -67 0
-68 510 -77 -78 -67 0
-69 555 -79 -77 -67 0
-70 600 -77 -80 -67 0
162 -81 -1 -82 -8 0
-2 -8 -81 207 -83 0
-3 252 -81 -8 -84 0
342 -81 -5 -86 -8 0
-8 387 -81 -87 -6 0
-8 -81 -7 -88 432 0
-18 -81 -11 -82 117 0
-12 215 -82 -83 -18 0
-18 260 -82 -13 -84 0
-18 350 -86 -15 -82 0
-18 -16 -82 -87 395 0
-18 440 -88 -17 -82 0
531 -18 -89 -19 -82 0
576 -90 -20 -18 -82 0
125 -28 -81 -83 -21 0
-22 -28 -83 -82 170 0
-28 267 -84 -83 -23 0
-28 -24 -83 -85 312 0
-28 -25 -83 -86 357 0
-28 -26 -83 -87 402 0
-28 -27 -83 -88 447 0
-29 538 -83 -28 -89 0
-28 -30 -83 -90 583 0
-38 132 -81 -84 -31 0
-32 177 -82 -84 -38 0
-33 222 -83 -84 -38 0
318 -34 -85 -38 -84 0
363 -38 -84 -35 -86 0
-36 408 -87 -84 -38 0
453 -37 -88 -84 -38 0
-39 544 -89 -38 -84 0
-40 -38 -90 -84 589 0
-51 143 -81 -86 -58 0
-58 188 -82 -86 -52 0
233 -53 -86 -58 -83 0
-58 -54 -84 -86 278 0
-68 147 -81 -87 -61 0
-62 -68 -82 -87 192 0
-63 237 -87 -68 -83 0
-68 282 -84 -64 -87 0
-68 -69 -89 -87 556 0
-68 -70 -87 -90 601 0
-78 -71 -81 -88 150 0
195 -78 -88 -72 -82 0
-78 -73 -83 -88 240 0
285 -78 -84 -74 -88 0
558 -78 -88 -79 -89 0
-80 -78 -88 -90 603 0
164 -102 -10 -101 -1 0
-2 -103 -101 209 -10 0
-3 -104 254 -101 -10 0
344 -10 -5 -101 -106 0
-101 -10 -6 389 -107 0
-108 -101 -7 434 -10 0
217 -103 -102 -20 -12 0
-13 -104 -102 -20 262 0
352 -106 -20 -102 -15 0
-16 397 -102 -107 -20 0
-108 -17 -102 -20 442 0
487 -109 -20 -18 -102 0
127 -30 -103 -101 -21 0
-22 -30 -103 -102 172 0
-30 -23 -103 -104 269 0
-30 359 -106 -25 -103 0
-30 -107 404 -26 -103 0
-30 -27 -108 -103 449 0
494 -30 -109 -28 -103 0
134 -31 -104 -101 -40 0
-40 -104 -102 -32 179 0
-40 -103 -104 -33 224 0
-40 -104 365 -106 -35 0
-40 -107 -104 -36 410 0
-40 -37 -108 -104 455 0
500 -40 -109 -38 -104 0
145 -51 -106 -101 -60 0
-52 -106 -102 190 -60 0
-53 -106 235 -103 -60 0
-54 -60 -106 -104 280 0
-107 -60 419 -106 -56 0
-57 -108 464 -106 -60 0
509 -60 -109 -106 -58 0
149 -61 -107 -70 -101 0
194 -62 -107 -70 -102 0
-107 -103 -63 -70 239 0
284 -107 -64 -70 -104 0
-107 -106 -70 -66 374 0
-71 -108 152 -80 -101 0
-108 197 -102 -72 -80 0
-108 242 -80 -73 -103 0
-108 287 -80 -74 -104 0
-108 -80 -76 -106 377 0
-107 -108 -77 -80 422 0
-109 199 -102 -82 -90 0
-109 -103 244 -90 -83 0
-104 -109 -90 -84 289 0
-109 -106 -86 -90 379 0
-109 424 -87 -90 -107 0
469 -108 -88 -90 -109 0
-120 -165 0
-121 -166 0
-122 -167 0
-123 -168 0
-169 -124 0
-125 -170 0
-127 -172 0
-128 -173 0
-129 -174 0
-130 -175 0
-131 -176 0
-132 -177 0
-134 -179 0
-135 -180 0
-136 -181 0
-137 -182 0
-183 -138 0
-141 -186 0
-187 -142 0
-143 -188 0
-144 -189 0
-190 -145 0
-191 -146 0
-192 -147 0
-193 -148 0
-194 -149 0
-195 -150 0
-196 -151 0
-197 -152 0
-153 -198 0
-128 -218 0
-129 -219 0
-130 -220 0
-131 -221 0
-132 -222 0
-134 -224 0
-135 -225 0
-136 -226 0
-137 -227 0
-228 -138 0
-231 -141 0
-142 -232 0
-233 -143 0
-144 -234 0
-235 -145 0
-236 -146 0
-147 -237 0
-238 -148 0
-239 -149 0
-240 -150 0
-241 -151 0
-242 -152 0
-153 -243 0
-111 -255 0
-135 -270 0
-271 -136 0
-137 -272 0
-138 -273 0
-276 -141 0
-142 -277 0
-143 -278 0
-280 -145 0
-281 -146 0
-282 -147 0
-284 -149 0
-150 -285 0
-152 -287 0
-153 -288 0
-321 -141 0
-322 -142 0
-323 -143 0
-144 -324 0
-326 -146 0
-148 -328 0
-151 -331 0
-111 -345 0
-112 -346 0
-120 -353 0
-121 -354 0
-128 -360 0
-146 -371 0
-372 -147 0
-373 -148 0
-374 -149 0
-150 -375 0
-376 -151 0
-152 -377 0
-153 -378 0
-111 -390 0
-112 -391 0
-114 -393 0
-120 -398 0
-121 -399 0
-122 -400 0
-128 -405 0
-129 -406 0
-135 -411 0
-150 -420 0
-421 -151 0
-422 -152 0
-153 -423 0
-111 -435 0
-112 -436 0
-114 -438 0
-439 -115 0
-120 -443 0
-121 -444 0
-445 -122 0
-446 -123 0
-128 -450 0
-129 -451 0
-130 -452 0
-456 -135 0
-136 -457 0
-141 -461 0
-153 -468 0
-111 -480 0
-112 -481 0
-114 -483 0
-115 -484 0
-116 -485 0
-120 -488 0
-121 -489 0
-122 -490 0
-123 -491 0
-124 -492 0
-128 -495 0
-129 -496 0
-130 -497 0
-131 -498 0
-501 -135 0
-502 -136 0
-503 -137 0
-506 -141 0
-507 -142 0
-510 -146 0
-111 -525 0
-112 -526 0
-114 -528 0
-115 -529 0
-116 -530 0
-117 -531 0
-120 -533 0
-121 -534 0
-535 -122 0
-536 -123 0
-537 -124 0
-538 -125 0
-128 -540 0
-129 -541 0
-130 -542 0
-132 -544 0
-546 -135 0
-547 -136 0
-137 -548 0
-141 -551 0
-142 -552 0
-555 -146 0
-147 -556 0
-150 -558 0
-111 -570 0
-112 -571 0
-573 -114 0
-574 -115 0
-575 -116 0
-576 -117 0
-120 -578 0
-121 -579 0
-580 -122 0
-123 -581 0
-582 -124 0
-125 -583 0
-128 -585 0
-129 -586 0
-130 -587 0
-588 -131 0
-132 -589 0
-135 -591 0
-592 -136 0
-593 -137 0
-594 -138 0
-596 -141 0
-597 -142 0
-598 -143 0
-599 -144 0
-600 -146 0
-147 -601 0
-602 -148 0
-150 -603 0
-604 -151 0
-153 -605 0
-157 -202 0
-203 -158 0
-204 -159 0
-160 -205 0
-206 -161 0
-207 -162 0
-163 -208 0
-209 -164 0
-173 -218 0
-174 -219 0
-220 -175 0
-176 -221 0
-222 -177 0
-178 -223 0
-179 -224 0
-225 -180 0
-226 -181 0
-182 -227 0
-228 -183 0
-229 -184 0
-230 -185 0
-231 -186 0
-187 -232 0
-233 -188 0
-189 -234 0
-190 -235 0
-191 -236 0
-192 -237 0
-193 -238 0
-194 -239 0
-240 -195 0
-196 -241 0
-197 -242 0
-198 -243 0
-199 -244 0
-158 -248 0
-159 -249 0
-160 -250 0
-161 -251 0
-162 -252 0
-163 -253 0
-254 -164 0
-180 -270 0
-271 -181 0
-182 -272 0
-183 -273 0
-184 -274 0
-185 -275 0
-276 -186 0
-187 -277 0
-188 -278 0
-189 -279 0
-190 -280 0
-281 -191 0
-192 -282 0
-193 -283 0
-194 -284 0
-195 -285 0
-196 -286 0
-197 -287 0
-198 -288 0
-289 -199 0
-159 -294 0
-160 -295 0
-308 -165 0
-321 -186 0
-322 -187 0
-189 -324 0
-326 -191 0
-193 -328 0
-196 -331 0
-340 -160 0
-341 -161 0
-162 -342 0
-163 -343 0
-344 -164 0
-165 -353 0
-166 -354 0
-173 -360 0
-191 -371 0
-192 -372 0
-193 -373 0
-194 -374 0
-195 -375 0
-196 -376 0
-197 -377 0
-198 -378 0
-199 -379 0
-161 -386 0
-387 -162 0
-163 -388 0
-389 -164 0
-398 -165 0
-166 -399 0
-400 -167 0
-173 -405 0
-174 -406 0
-180 -411 0
-195 -420 0
-196 -421 0
-197 -422 0
-198 -423 0
-424 -199 0
-432 -162 0
-163 -433 0
-434 -164 0
-443 -165 0
-444 -166 0
-445 -167 0
-446 -168 0
-450 -173 0
-174 -451 0
-175 -452 0
-456 -180 0
-181 -457 0
-186 -461 0
-198 -468 0
-199 -469 0
-478 -163 0
-479 -164 0
-165 -488 0
-166 -489 0
-167 -490 0
-168 -491 0
-169 -492 0
-173 -495 0
-174 -496 0
-175 -497 0
-176 -498 0
-501 -180 0
-502 -181 0
-503 -182 0
-506 -186 0
-507 -187 0
-510 -191 0
-533 -165 0
-534 -166 0
-535 -167 0
-536 -168 0
-537 -169 0
-538 -170 0
-540 -173 0
-174 -541 0
-175 -542 0
-177 -544 0
-546 -180 0
-547 -181 0
-182 -548 0
-183 -549 0
-186 -551 0
-192 -556 0
-195 -558 0
-578 -165 0
-579 -166 0
-580 -167 0
-581 -168 0
-169 -582 0
-583 -170 0
-171 -584 0
-585 -173 0
-586 -174 0
-587 -175 0
-588 -176 0
-177 -589 0
-590 -178 0
-591 -180 0
-592 -181 0
-593 -182 0
-594 -183 0
-184 -595 0
-596 -186 0
-597 -187 0
-598 -188 0
-599 -189 0
-191 -600 0
-192 -601 0
-193 -602 0
-195 -603 0
-604 -196 0
-198 -605 0
-201 -246 0
-203 -248 0
-204 -249 0
-205 -250 0
-206 -251 0
-207 -252 0
-253 -208 0
-254 -209 0
-211 -256 0
-257 -212 0
-213 -258 0
-214 -259 0
-215 -260 0
-216 -261 0
-217 -262 0
-225 -270 0
-271 -226 0
-272 -227 0
-228 -273 0
-229 -274 0
-230 -275 0
-276 -231 0
-232 -277 0
-233 -278 0
-279 -234 0
-235 -280 0
-281 -236 0
-282 -237 0
-238 -283 0
-239 -284 0
-240 -285 0
-241 -286 0
-242 -287 0
-288 -243 0
-289 -244 0
-204 -294 0
-205 -295 0
-212 -302 0
-213 -303 0
-214 -304 0
-321 -231 0
-322 -232 0
-234 -324 0
-326 -236 0
-238 -328 0
-241 -331 0
-201 -336 0
-340 -205 0
-206 -341 0
-207 -342 0
-343 -208 0
-344 -209 0
-213 -348 0
-214 -349 0
-215 -350 0
-216 -351 0
-217 -352 0
-360 -218 0
-236 -371 0
-372 -237 0
-238 -373 0
-239 -374 0
-240 -375 0
-241 -376 0
-242 -377 0
-378 -243 0
-244 -379 0
-201 -381 0
-206 -386 0
-207 -387 0
-388 -208 0
-389 -209 0
-214 -394 0
-215 -395 0
-216 -396 0
-217 -397 0
-405 -218 0
-219 -406 0
-225 -411 0
-240 -420 0
-241 -421 0
-242 -422 0
-243 -423 0
-424 -244 0
-426 -201 0
-432 -207 0
-208 -433 0
-209 -434 0
-215 -440 0
-441 -216 0
-217 -442 0
-450 -218 0
-219 -451 0
-220 -452 0
-456 -225 0
-226 -457 0
-231 -461 0
-243 -468 0
-244 -469 0
-201 -471 0
-478 -208 0
-479 -209 0
-216 -486 0
-217 -487 0
-218 -495 0
-219 -496 0
-220 -497 0
-221 -498 0
-501 -225 0
-502 -226 0
-503 -227 0
-506 -231 0
-507 -232 0
-510 -236 0
-516 -201 0
-540 -218 0
-219 -541 0
-220 -542 0
-221 -543 0
-222 -544 0
-546 -225 0
-547 -226 0
-548 -227 0
-228 -549 0
-231 -551 0
-232 -552 0
-233 -553 0
-236 -555 0
-237 -556 0
-240 -558 0
-201 -561 0
-585 -218 0
-586 -219 0
-587 -220 0
-588 -221 0
-222 -589 0
-590 -223 0
-591 -225 0
-592 -226 0
-593 -227 0
-594 -228 0
-229 -595 0
-596 -231 0
-597 -232 0
-598 -233 0
-599 -234 0
-236 -600 0
-237 -601 0
-238 -602 0
-240 -603 0
-604 -241 0
-243 -605 0
-249 -294 0
-250 -295 0
-300 -255 0
-257 -302 0
-258 -303 0
-259 -304 0
-265 -310 0
-266 -311 0
-267 -312 0
-268 -313 0
-321 -276 0
-322 -277 0
-279 -324 0
-326 -281 0
-283 -328 0
-286 -331 0
-336 -246 0
-337 -247 0
-340 -250 0
-341 -251 0
-252 -342 0
-253 -343 0
-254 -344 0
-345 -255 0
-258 -348 0
-349 -259 0
-350 -260 0
-351 -261 0
-352 -262 0
-265 -355 0
-266 -356 0
-357 -267 0
-358 -268 0
-269 -359 0
-281 -371 0
-282 -372 0
-283 -373 0
-284 -374 0
-285 -375 0
-286 -376 0
-287 -377 0
-378 -288 0
-289 -379 0
-381 -246 0
-382 -247 0
-386 -251 0
-387 -252 0
-388 -253 0
-389 -254 0
-390 -255 0
-394 -259 0
-395 -260 0
-261 -396 0
-397 -262 0
-401 -266 0
-402 -267 0
-268 -403 0
-404 -269 0
-411 -270 0
-285 -420 0
-421 -286 0
-422 -287 0
-288 -423 0
-424 -289 0
-426 -246 0
-427 -247 0
-432 -252 0
-253 -433 0
-254 -434 0
-435 -255 0
-440 -260 0
-441 -261 0
-442 -262 0
-447 -267 0
-448 -268 0
-269 -449 0
-456 -270 0
-271 -457 0
-276 -461 0
-288 -468 0
-289 -469 0
-246 -471 0
-247 -472 0
-478 -253 0
-479 -254 0
-255 -480 0
-261 -486 0
-262 -487 0
-268 -493 0
-269 -494 0
-501 -270 0
-502 -271 0
-503 -272 0
-506 -276 0
-507 -277 0
-510 -281 0
-516 -246 0
-525 -255 0
-269 -539 0
-546 -270 0
-547 -271 0
-548 -272 0
-549 -273 0
-276 -551 0
-277 -552 0
-282 -556 0
-285 -558 0
-246 -561 0
-562 -247 0
-570 -255 0
-591 -270 0
-592 -271 0
-593 -272 0
-594 -273 0
-274 -595 0
-596 -276 0
-597 -277 0
-598 -278 0
-279 -599 0
-281 -600 0
-282 -601 0
-283 -602 0
-285 -603 0
-604 -286 0
-288 -605 0
-340 -295 0
-300 -345 0
-301 -346 0
-348 -303 0
-349 -304 0
-308 -353 0
-355 -310 0
-356 -311 0
-357 -312 0
-358 -313 0
-361 -316 0
-363 -318 0
-364 -319 0
-326 -371 0
-373 -328 0
-376 -331 0
-300 -390 0
-301 -391 0
-394 -304 0
-308 -398 0
-401 -311 0
-402 -312 0
-403 -313 0
-408 -318 0
-409 -319 0
-421 -331 0
-300 -435 0
-301 -436 0
-308 -443 0
-447 -312 0
-448 -313 0
-453 -318 0
-454 -319 0
-321 -461 0
-300 -480 0
-301 -481 0
-308 -488 0
-313 -493 0
-319 -499 0
-506 -321 0
-326 -510 0
-321 -551 0
-300 -570 0
-301 -571 0
-308 -578 0
-321 -596 0
-322 -597 0
-599 -324 0
-326 -600 0
-602 -328 0
-604 -331 0
-336 -381 0
-382 -337 0
-338 -383 0
-339 -384 0
-341 -386 0
-387 -342 0
-388 -343 0
-389 -344 0
-390 -345 0
-391 -346 0
-347 -392 0
-394 -349 0
-350 -395 0
-351 -396 0
-397 -352 0
-398 -353 0
-399 -354 0
-401 -356 0
-357 -402 0
-358 -403 0
-404 -359 0
-360 -405 0
-362 -407 0
-363 -408 0
-364 -409 0
-410 -365 0
-412 -367 0
-413 -368 0
-369 -414 0
-415 -370 0
-420 -375 0
-421 -376 0
-422 -377 0
-378 -423 0
-424 -379 0
-426 -336 0
-427 -337 0
-428 -338 0
-429 -339 0
-432 -342 0
-343 -433 0
-344 -434 0
-435 -345 0
-436 -346 0
-437 -347 0
-440 -350 0
-441 -351 0
-442 -352 0
-443 -353 0
-444 -354 0
-447 -357 0
-358 -448 0
-359 -449 0
-450 -360 0
-453 -363 0
-454 -364 0
-455 -365 0
-458 -368 0
-369 -459 0
-460 -370 0
-378 -468 0
-379 -469 0
-336 -471 0
-337 -472 0
-338 -473 0
-339 -474 0
-478 -343 0
-479 -344 0
-345 -480 0
-346 -481 0
-347 -482 0
-351 -486 0
-352 -487 0
-353 -488 0
-354 -489 0
-358 -493 0
-359 -494 0
-360 -495 0
-364 -499 0
-365 -500 0
-370 -505 0
-510 -371 0
-516 -336 0
-517 -337 0
-518 -338 0
-519 -339 0
-345 -525 0
-346 -526 0
-527 -347 0
-533 -353 0
-534 -354 0
-540 -360 0
-545 -365 0
-550 -370 0
-555 -371 0
-375 -558 0
-336 -561 0
-562 -337 0
-338 -563 0
-339 -564 0
-570 -345 0
-571 -346 0
-572 -347 0
-578 -353 0
-579 -354 0
-585 -360 0
-600 -371 0
-372 -601 0
-373 -602 0
-603 -375 0
-604 -376 0
-378 -605 0
-426 -381 0
-427 -382 0
-428 -383 0
-429 -384 0
-385 -430 0
-432 -387 0
-388 -433 0
-389 -434 0
-435 -390 0
-436 -391 0
-437 -392 0
-393 -438 0
-440 -395 0
-441 -396 0
-397 -442 0
-443 -398 0
-444 -399 0
-445 -400 0
-447 -402 0
-448 -403 0
-404 -449 0
-450 -405 0
-406 -451 0
-453 -408 0
-454 -409 0
-455 -410 0
-456 -411 0
-458 -413 0
-459 -414 0
-415 -460 0
-417 -462 0
-418 -463 0
-464 -419 0
-468 -423 0
-424 -469 0
-381 -471 0
-382 -472 0
-383 -473 0
-384 -474 0
-385 -475 0
-478 -388 0
-479 -389 0
-390 -480 0
-391 -481 0
-392 -482 0
-393 -483 0
-396 -486 0
-397 -487 0
-398 -488 0
-399 -489 0
-400 -490 0
-403 -493 0
-404 -494 0
-405 -495 0
-406 -496 0
-409 -499 0
-410 -500 0
-501 -411 0
-415 -505 0
-419 -509 0
-516 -381 0
-517 -382 0
-519 -384 0
-520 -385 0
-390 -525 0
-391 -526 0
-527 -392 0
-393 -528 0
-533 -398 0
-534 -399 0
-535 -400 0
-540 -405 0
-406 -541 0
-546 -411 0
-550 -415 0
-554 -419 0
-420 -558 0
-381 -561 0
-562 -382 0
-383 -563 0
-384 -564 0
-565 -385 0
-570 -390 0
-391 -571 0
-572 -392 0
-573 -393 0
-398 -578 0
-579 -399 0
-580 -400 0
-585 -405 0
-586 -406 0
-591 -411 0
-603 -420 0
-604 -421 0
-605 -423 0
-426 -471 0
-427 -472 0
-428 -473 0
-429 -474 0
-430 -475 0
-431 -476 0
-478 -433 0
-479 -434 0
-435 -480 0
-436 -481 0
-437 -482 0
-438 -483 0
-439 -484 0
-441 -486 0
-442 -487 0
-443 -488 0
-444 -489 0
-445 -490 0
-446 -491 0
-448 -493 0
-449 -494 0
-450 -495 0
-451 -496 0
-497 -452 0
-454 -499 0
-455 -500 0
-502 -457 0
-460 -505 0
-506 -461 0
-517 -427 0
-518 -428 0
-520 -430 0
-521 -431 0
-435 -525 0
-436 -526 0
-437 -527 0
-438 -528 0
-439 -529 0
-532 -442 0
-533 -443 0
-444 -534 0
-536 -446 0
-540 -450 0
-542 -452 0
-546 -456 0
-547 -457 0
-550 -460 0
-551 -461 0
-554 -464 0
-557 -467 0
-426 -561 0
-427 -562 0
-428 -563 0
-429 -564 0
-565 -430 0
-566 -431 0
-435 -570 0
-436 -571 0
-437 -572 0
-573 -438 0
-439 -574 0
-443 -578 0
-444 -579 0
-445 -580 0
-446 -581 0
-450 -585 0
-586 -451 0
-587 -452 0
-456 -591 0
-592 -457 0
-596 -461 0
-468 -605 0
-516 -471 0
-517 -472 0
-518 -473 0
-520 -475 0
-521 -476 0
-522 -477 0
-525 -480 0
-526 -481 0
-527 -482 0
-528 -483 0
-529 -484 0
-530 -485 0
-533 -488 0
-534 -489 0
-535 -490 0
-536 -491 0
-537 -492 0
-540 -495 0
-541 -496 0
-542 -497 0
-543 -498 0
-503 -548 0
-550 -505 0
-554 -509 0
-471 -561 0
-562 -472 0
-563 -473 0
-564 -474 0
-565 -475 0
-566 -476 0
-567 -477 0
-570 -480 0
-571 -481 0
-572 -482 0
-573 -483 0
-574 -484 0
-575 -485 0
-578 -488 0
-579 -489 0
-580 -490 0
-581 -491 0
-582 -492 0
-585 -495 0
-586 -496 0
-587 -497 0
-588 -498 0
-501 -591 0
-502 -592 0
-503 -593 0
-506 -596 0
-507 -597 0
-510 -600 0
-516 -561 0
-517 -562 0
-518 -563 0
-519 -564 0
-565 -520 0
-521 -566 0
-522 -567 0
-523 -568 0
-570 -525 0
-571 -526 0
-572 -527 0
-573 -528 0
-574 -529 0
-575 -530 0
-576 -531 0
-533 -578 0
-534 -579 0
-535 -580 0
-536 -581 0
-537 -582 0
-538 -583 0
-540 -585 0
-586 -541 0
-587 -542 0
-588 -543 0
-589 -544 0
-546 -591 0
-547 -592 0
-593 -548 0
-596 -551 0
-601 -556 0
-603 -558 0
-606 0
-12 -2 -77 -76 -5 -16 0
-12 -2 -107 -106 -16 -5 0
-12 -2 -106 -108 -17 -5 0
-12 -2 -109 -106 -18 -5 0
-12 -2 -106 -19 -5 -110 0
-12 -2 -107 -108 -17 -6 0
-12 -2 -107 -109 -18 -6 0
-12 -2 -110 -107 -6 -19 0
-12 -2 -109 -108 -18 -7 0
-3 -16 -77 -76 -13 -5 0
-3 -13 -106 -107 -16 -5 0
-13 -108 -5 -106 -3 -17 0
-3 -109 -106 -18 -13 -5 0
-19 -3 -106 -13 -5 -110 0
-13 -17 -6 -108 -107 -3 0
-3 -13 -107 -109 -18 -6 0
-3 -13 -107 -110 -19 -6 0
-3 -13 -108 -18 -109 -7 0
-14 -4 -77 -76 -5 -16 0
-14 -16 -106 -107 -4 -5 0
-14 -4 -108 -106 -5 -17 0
-106 -109 -4 -18 -14 -5 0
-14 -4 -106 -110 -19 -5 0
-14 -4 -108 -17 -107 -6 0
-14 -18 -107 -109 -4 -6 0
-19 -4 -110 -107 -6 -14 0
-14 -4 -108 -109 -7 -18 0
-77 -106 -1 -107 -72 -5 0
-106 -87 -1 -107 -82 -5 0
-107 -109 -5 -18 -15 -6 0
-19 -110 -107 -5 -6 -15 0
-108 -88 -1 -106 -5 -82 0
-18 -109 -5 -7 -15 -108 0
-19 -15 -110 -108 -5 -7 0
-19 -15 -109 -5 -8 -110 0
-107 -108 -88 -6 -82 -1 0
-18 -16 -108 -109 -7 -6 0
-19 -16 -7 -110 -108 -6 0
-23 -3 -77 -5 -26 -76 0
-23 -3 -106 -107 -5 -26 0
-108 -23 -106 -27 -3 -5 0
-23 -109 -106 -28 -5 -3 0
-23 -110 -106 -29 -3 -5 0
-107 -23 -108 -27 -3 -6 0
-107 -23 -109 -28 -3 -6 0
-29 -3 -110 -107 -6 -23 0
-23 -28 -108 -109 -7 -3 0
-26 -77 -5 -76 -24 -4 0
-24 -4 -106 -26 -107 -5 0
-4 -108 -106 -27 -5 -24 0
-24 -4 -109 -106 -28 -5 0
-29 -24 -110 -106 -4 -5 0
-24 -108 -6 -27 -107 -4 0
-28 -24 -109 -6 -107 -4 0
-29 -4 -110 -107 -6 -24 0
-28 -24 -108 -109 -7 -4 0
-2 -107 -106 -73 -5 -77 0
-107 -108 -27 -25 -6 -5 0
-107 -28 -109 -25 -5 -6 0
-29 -25 -110 -5 -107 -6 0
-5 -7 -98 -99 -28 -25 0
-2 -108 -88 -106 -83 -5 0
-28 -25 -108 -109 -7 -5 0
-29 -25 -110 -7 -108 -5 0
-29 -25 -109 -8 -5 -110 0
-2 -108 -88 -6 -83 -107 0
-28 -108 -7 -109 -26 -6 0
-107 -106 -34 -36 -5 -4 0
-4 -108 -106 -5 -34 -37 0
-4 -34 -109 -106 -38 -5 0
-39 -106 -5 -34 -110 -4 0
-37 -108 -6 -107 -34 -4 0
-4 -34 -109 -6 -107 -38 0
-34 -39 -110 -107 -4 -6 0
-4 -34 -109 -38 -7 -108 0
-3 -107 -106 -74 -77 -5 0
-37 -108 -6 -35 -5 -107 0
-107 -38 -6 -109 -35 -5 0
-35 -39 -110 -107 -6 -5 0
-108 -106 -84 -5 -3 -88 0
-35 -38 -108 -109 -7 -5 0
-107 -108 -84 -88 -3 -6 0
-38 -108 -7 -109 -36 -6 0
-59 -56 -6 -108 -7 -110 0
-59 -56 -110 -109 -8 -6 0
-65 -13 -25 -66 -23 -14 0
-23 -75 -76 -25 -14 -13 0
-12 -53 -85 -55 -13 -84 0
-13 -55 -104 -105 -12 -53 0
-105 -13 -106 -14 -23 -25 0
-12 -65 -74 -75 -63 -13 0
-23 -26 -77 -75 -14 -13 0
-13 -63 -85 -12 -84 -65 0
-13 -63 -104 -105 -12 -65 0
-107 -105 -26 -23 -13 -14 0
-104 -105 -13 -73 -75 -12 0
-23 -14 -105 -108 -27 -13 0
-13 -104 -85 -105 -12 -83 0
-109 -105 -14 -13 -23 -28 0
-29 -14 -105 -13 -110 -23 0
-26 -23 -77 -76 -15 -13 0
-13 -63 -106 -66 -104 -12 0
-107 -106 -23 -26 -15 -13 0
-76 -73 -13 -12 -84 -86 0
-73 -76 -106 -104 -13 -12 0
-23 -108 -106 -27 -13 -15 0
-12 -13 -106 -83 -86 -104 0
-23 -109 -106 -28 -15 -13 0
-110 -106 -23 -29 -15 -13 0
-77 -73 -13 -12 -84 -87 0
-73 -13 -107 -104 -12 -77 0
-107 -23 -108 -27 -16 -13 0
-13 -107 -83 -12 -104 -87 0
-107 -23 -109 -28 -16 -13 0
-23 -13 -107 -110 -29 -16 0
-13 -108 -104 -12 -83 -88 0
-23 -28 -108 -109 -13 -17 0
-23 -13 -108 -17 -110 -29 0
-29 -23 -110 -109 -18 -13 0
-12 -75 -76 -14 -63 -66 0
-24 -26 -77 -76 -14 -15 0
-66 -12 -106 -63 -105 -14 0
-107 -106 -26 -24 -15 -14 0
-73 -76 -106 -105 -12 -14 0
-108 -24 -106 -27 -15 -14 0
-14 -105 -86 -106 -12 -83 0
-109 -106 -28 -24 -15 -14 0
-29 -24 -110 -106 -14 -15 0
-105 -107 -77 -73 -12 -14 0
-107 -24 -108 -27 -14 -16 0
-105 -107 -83 -87 -12 -14 0
-14 -107 -24 -109 -16 -28 0
-14 -24 -110 -107 -16 -29 0
-14 -105 -83 -88 -108 -12 0
-28 -24 -108 -109 -14 -17 0
-29 -17 -24 -108 -110 -14 0
-29 -24 -110 -109 -18 -14 0
-12 -106 -87 -107 -83 -15 0
-12 -108 -88 -106 -83 -15 0
-28 -25 -108 -109 -15 -17 0
-29 -108 -110 -15 -17 -25 0
-107 -108 -83 -12 -16 -88 0
-28 -17 -108 -16 -26 -109 0
-26 -29 -110 -16 -108 -17 0
-29 -26 -109 -18 -110 -16 0
-29 -27 -109 -18 -110 -17 0
-76 -75 -64 -14 -66 -13 0
-15 -36 -77 -76 -34 -14 0
-66 -14 -105 -106 -13 -64 0
-107 -106 -34 -36 -14 -15 0
-105 -76 -106 -74 -13 -14 0
-14 -15 -108 -106 -34 -37 0
-14 -105 -86 -106 -13 -84 0
-15 -38 -106 -109 -34 -14 0
-34 -39 -110 -106 -15 -14 0
-107 -108 -37 -16 -34 -14 0
-13 -105 -107 -14 -84 -87 0
-107 -14 -16 -109 -34 -38 0
-34 -39 -110 -107 -14 -16 0
-108 -105 -14 -13 -84 -88 0
-14 -17 -38 -109 -108 -34 0
-34 -39 -110 -108 -17 -14 0
-34 -39 -110 -109 -18 -14 0
-106 -107 -77 -74 -15 -13 0
-107 -106 -13 -84 -15 -87 0
-39 -35 -16 -110 -107 -15 0
-13 -108 -84 -106 -15 -88 0
-15 -38 -109 -17 -108 -35 0
-15 -39 -108 -17 -110 -35 0
-39 -35 -110 -109 -15 -18 0
-16 -108 -84 -107 -13 -88 0
-36 -16 -109 -108 -38 -17 0
-36 -16 -39 -17 -110 -108 0
-107 -106 -77 -75 -15 -14 0
-16 -109 -56 -17 -108 -58 0
-23 -64 -76 -66 -24 -75 0
-107 -106 -34 -36 -24 -25 0
-105 -76 -106 -74 -24 -23 0
-108 -24 -106 -25 -37 -34 0
-23 -106 -86 -105 -84 -24 0
-106 -109 -24 -25 -38 -34 0
-24 -39 -106 -110 -25 -34 0
-107 -24 -77 -23 -105 -74 0
-107 -24 -34 -108 -26 -37 0
-107 -105 -24 -23 -84 -87 0
-107 -24 -109 -26 -34 -38 0
-24 -39 -110 -107 -34 -26 0
-23 -108 -105 -24 -84 -88 0
-24 -27 -108 -109 -34 -38 0
-24 -34 -110 -108 -27 -39 0
-24 -39 -110 -109 -34 -28 0
-23 -74 -106 -107 -25 -77 0
-107 -106 -23 -25 -87 -84 0
-26 -25 -107 -109 -35 -38 0
-108 -106 -84 -25 -88 -23 0
-25 -38 -109 -27 -108 -35 0
-39 -35 -110 -25 -108 -27 0
-39 -35 -110 -109 -25 -28 0
-107 -23 -108 -26 -88 -84 0
-36 -26 -108 -109 -27 -38 0
-26 -39 -108 -110 -36 -27 0
-39 -36 -110 -28 -109 -26 0
-106 -107 -77 -75 -25 -24 0
-58 -56 -108 -27 -26 -109 0
-59 -56 -110 -26 -108 -27 0
-58 -37 -108 -109 -36 -56 0
-59 -56 -110 -108 -37 -36 0
-66 -12 -3 -63 -5 -13 0
-76 -73 -13 -12 -5 -3 0
-12 -3 -86 -13 -5 -83 0
-3 -13 -103 -12 -106 -5 0
-3 -73 -13 -12 -77 -6 0
-12 -3 -107 -13 -103 -6 0
-12 -3 -13 -7 -88 -83 0
-66 -12 -4 -63 -5 -14 0
-76 -73 -4 -12 -5 -14 0
-12 -4 -86 -83 -5 -14 0
-12 -4 -106 -103 -14 -5 0
-77 -73 -4 -12 -14 -6 0
-14 -4 -87 -12 -6 -83 0
-4 -103 -6 -12 -107 -14 0
-12 -14 -88 -83 -4 -7 0
-14 -4 -108 -103 -7 -12 0
-72 -73 -5 -1 -63 -66 0
-77 -73 -6 -5 -12 -15 0
-66 -102 -5 -103 -63 -1 0
-107 -103 -12 -5 -15 -6 0
-76 -73 -83 -1 -5 -82 0
-12 -83 -7 -88 -15 -5 0
-103 -76 -102 -73 -1 -5 0
-12 -15 -108 -7 -5 -103 0
-86 -102 -5 -103 -1 -83 0
-109 -103 -8 -15 -12 -5 0
-9 -12 -110 -5 -15 -103 0
-12 -16 -83 -7 -6 -88 0
-103 -77 -102 -73 -6 -1 0
-12 -108 -103 -6 -16 -7 0
-87 -102 -6 -1 -103 -83 0
-109 -103 -8 -12 -16 -6 0
-9 -12 -110 -6 -103 -16 0
-88 -102 -1 -103 -83 -7 0
-12 -109 -7 -103 -8 -17 0
-9 -17 -103 -110 -12 -7 0
-66 -64 -13 -14 -5 -4 0
-14 -4 -76 -74 -13 -5 0
-14 -86 -5 -13 -4 -84 0
-13 -14 -106 -104 -5 -4 0
-14 -13 -77 -74 -4 -6 0
-13 -4 -87 -6 -14 -84 0
-14 -107 -6 -13 -104 -4 0
-14 -88 -7 -4 -84 -13 0
-14 -108 -104 -13 -7 -4 0
-72 -74 -5 -64 -1 -66 0
-15 -13 -77 -74 -6 -5 0
-64 -84 -1 -5 -82 -66 0
-15 -87 -5 -13 -6 -84 0
-66 -104 -102 -64 -5 -1 0
-13 -104 -6 -15 -5 -107 0
-76 -1 -5 -74 -84 -82 0
-13 -88 -7 -5 -15 -84 0
-13 -108 -104 -15 -7 -5 0
-13 -15 -109 -8 -5 -104 0
-9 -13 -110 -5 -104 -15 0
-77 -84 -6 -1 -74 -82 0
-13 -84 -6 -16 -88 -7 0
-13 -108 -104 -16 -6 -7 0
-13 -16 -109 -8 -6 -104 0
-9 -13 -110 -16 -104 -6 0
-88 -102 -1 -104 -7 -84 0
-13 -8 -104 -109 -7 -17 0
-9 -13 -104 -7 -17 -110 0
-72 -75 -5 -1 -66 -65 0
-14 -77 -6 -75 -15 -5 0
-66 -65 -82 -85 -5 -1 0
-66 -105 -102 -65 -1 -5 0
-14 -15 -105 -5 -6 -107 0
-76 -75 -1 -5 -85 -82 0
-75 -76 -102 -105 -1 -5 0
-108 -105 -14 -15 -7 -5 0
-14 -15 -109 -5 -8 -105 0
-9 -110 -5 -105 -15 -14 0
-77 -85 -6 -1 -75 -82 0
-105 -77 -102 -75 -6 -1 0
-14 -16 -105 -108 -7 -6 0
-14 -8 -105 -109 -6 -16 0
-9 -110 -6 -105 -14 -16 0
-14 -8 -105 -109 -17 -7 0
-9 -17 -110 -105 -7 -14 0
-77 -82 -6 -76 -86 -1 0
-106 -77 -102 -76 -1 -6 0
-16 -15 -109 -8 -106 -6 0
-17 -8 -109 -106 -15 -7 0
-107 -8 -109 -17 -16 -7 0
-23 -4 -64 -66 -24 -5 0
-24 -76 -5 -74 -23 -4 0
-24 -4 -86 -5 -23 -84 0
-23 -106 -5 -24 -104 -4 0
-24 -23 -77 -74 -4 -6 0
-107 -104 -23 -24 -6 -4 0
-24 -84 -7 -88 -4 -23 0
-66 -73 -74 -2 -64 -5 0
-25 -23 -77 -74 -5 -6 0
-2 -83 -5 -84 -66 -64 0
-23 -87 -6 -25 -5 -84 0
-2 -64 -104 -66 -5 -103 0
-23 -107 -6 -25 -104 -5 0
-2 -76 -83 -74 -84 -5 0
-23 -25 -5 -84 -88 -7 0
-76 -103 -104 -74 -5 -2 0
-23 -104 -7 -108 -5 -25 0
-104 -2 -86 -103 -84 -5 0
-23 -25 -104 -109 -5 -8 0
-9 -25 -110 -5 -104 -23 0
-77 -84 -6 -74 -2 -83 0
-23 -88 -6 -26 -84 -7 0
-77 -103 -104 -74 -6 -2 0
-23 -104 -7 -26 -108 -6 0
-23 -26 -109 -8 -104 -6 0
-23 -26 -104 -9 -110 -6 0
-93 -2 -7 -94 -88 -84 0
-2 -104 -88 -7 -103 -84 0
-23 -27 -109 -8 -104 -7 0
-9 -23 -110 -104 -7 -27 0
-75 -65 -2 -73 -5 -66 0
-25 -24 -77 -75 -6 -5 0
-66 -2 -105 -65 -5 -103 0
-25 -24 -5 -6 -107 -105 0
-75 -2 -85 -5 -76 -83 0
-75 -76 -103 -105 -5 -2 0
-24 -105 -5 -108 -7 -25 0
-109 -105 -24 -25 -5 -8 0
-9 -25 -110 -5 -105 -24 0
-2 -77 -85 -6 -83 -75 0
-103 -105 -77 -75 -6 -2 0
-108 -105 -26 -24 -6 -7 0
-8 -24 -105 -109 -26 -6 0
-9 -26 -105 -110 -24 -6 0
-27 -8 -105 -109 -7 -24 0
-27 -24 -110 -7 -9 -105 0
-2 -77 -106 -103 -6 -76 0
-106 -109 -7 -25 -27 -8 0
-27 -107 -8 -109 -26 -7 0
-66 -65 -74 -75 -5 -3 0
-77 -75 -35 -34 -5 -6 0
-66 -3 -84 -65 -85 -5 0
-66 -105 -104 -65 -5 -3 0
-107 -34 -5 -6 -105 -35 0
-76 -75 -85 -84 -5 -3 0
-75 -76 -104 -105 -3 -5 0
-34 -105 -7 -5 -108 -35 0
-109 -105 -8 -34 -5 -35 0
-9 -34 -110 -5 -35 -105 0
-3 -77 -85 -75 -84 -6 0
-104 -105 -77 -75 -6 -3 0
-36 -105 -6 -108 -34 -7 0
-109 -105 -8 -34 -6 -36 0
-9 -34 -110 -105 -36 -6 0
-8 -37 -105 -109 -34 -7 0
-9 -105 -7 -110 -37 -34 0
-77 -84 -6 -76 -86 -3 0
-77 -76 -106 -104 -3 -6 0
-36 -8 -109 -107 -7 -37 0
-105 -77 -106 -76 -4 -6 0
-107 -8 -57 -109 -56 -7 0
-23 -14 -64 -66 -15 -24 0
-24 -23 -76 -74 -15 -14 0
-14 -54 -83 -12 -55 -84 0
-15 -24 -86 -84 -14 -23 0
-12 -103 -54 -104 -55 -14 0
-23 -15 -106 -24 -104 -14 0
-24 -23 -77 -74 -16 -14 0
-12 -65 -14 -64 -83 -84 0
-14 -24 -84 -87 -16 -23 0
-12 -65 -103 -64 -104 -14 0
-23 -16 -24 -107 -14 -104 0
-75 -14 -83 -74 -84 -12 0
-17 -24 -88 -14 -23 -84 0
-75 -103 -104 -74 -12 -14 0
-104 -24 -108 -23 -17 -14 0
-104 -23 -18 -109 -14 -24 0
-23 -110 -104 -24 -19 -14 0
-15 -64 -74 -66 -73 -12 0
-25 -23 -77 -74 -15 -16 0
-66 -12 -15 -64 -83 -84 0
-23 -16 -84 -25 -87 -15 0
-66 -15 -103 -64 -104 -12 0
-23 -16 -104 -15 -107 -25 0
-15 -12 -76 -74 -84 -83 0
-23 -17 -84 -15 -88 -25 0
-23 -15 -108 -25 -104 -17 0
-12 -104 -86 -15 -103 -84 0
-104 -23 -18 -109 -15 -25 0
-23 -19 -110 -15 -104 -25 0
-16 -12 -77 -74 -83 -84 0
-23 -26 -16 -17 -88 -84 0
-16 -77 -103 -74 -104 -12 0
-104 -26 -108 -16 -17 -23 0
-12 -103 -104 -84 -16 -87 0
-104 -26 -16 -18 -23 -109 0
-104 -23 -16 -26 -19 -110 0
-12 -104 -88 -103 -17 -84 0
-27 -18 -109 -104 -17 -23 0
-19 -27 -104 -110 -17 -23 0
-23 -19 -104 -18 -110 -28 0
-12 -75 -65 -73 -66 -15 0
-12 -15 -83 -85 -65 -66 0
-15 -65 -103 -105 -66 -12 0
-25 -15 -24 -107 -105 -16 0
-15 -75 -76 -83 -85 -12 0
-25 -17 -105 -108 -24 -15 0
-18 -24 -105 -109 -15 -25 0
-19 -25 -110 -105 -24 -15 0
-12 -16 -77 -75 -83 -85 0
-103 -105 -77 -75 -16 -12 0
-17 -24 -105 -108 -16 -26 0
-26 -24 -109 -18 -16 -105 0
-16 -24 -105 -26 -19 -110 0
-27 -105 -109 -18 -17 -24 0
-19 -27 -105 -110 -17 -24 0
-19 -24 -110 -18 -105 -28 0
-16 -12 -77 -76 -86 -83 0
-26 -109 -106 -25 -18 -16 0
-25 -17 -106 -19 -110 -27 0
-19 -25 -110 -18 -28 -106 0
-27 -18 -109 -26 -107 -17 0
-19 -26 -17 -27 -110 -107 0
-19 -28 -110 -107 -18 -26 0
-28 -108 -110 -18 -27 -19 0
-66 -65 -74 -75 -15 -13 0
-66 -15 -85 -84 -13 -65 0
-66 -104 -15 -105 -13 -65 0
-16 -34 -105 -15 -107 -35 0
-15 -75 -76 -85 -13 -84 0
-75 -76 -104 -105 -15 -13 0
-15 -35 -108 -17 -34 -105 0
-105 -109 -34 -18 -15 -35 0
-34 -15 -110 -105 -35 -19 0
-16 -75 -84 -77 -13 -85 0
-104 -105 -77 -75 -16 -13 0
-17 -34 -105 -108 -16 -36 0
-105 -109 -34 -18 -16 -36 0
-34 -36 -110 -105 -19 -16 0
-105 -109 -34 -18 -17 -37 0
-19 -37 -110 -105 -17 -34 0
-19 -34 -105 -18 -110 -38 0
-76 -77 -84 -86 -16 -13 0
-106 -109 -35 -18 -16 -36 0
-18 -37 -109 -106 -35 -17 0
-19 -35 -110 -106 -17 -37 0
-19 -35 -110 -18 -38 -106 0
-19 -36 -110 -18 -107 -38 0
-19 -108 -110 -18 -38 -37 0
-58 -56 -110 -18 -19 -107 0
-19 -108 -110 -18 -58 -57 0
-66 -65 -74 -75 -25 -23 0
-25 -65 -84 -66 -23 -85 0
-66 -25 -105 -104 -65 -23 0
-107 -105 -25 -26 -34 -35 0
-23 -75 -76 -25 -84 -85 0
-75 -76 -104 -105 -25 -23 0
-25 -35 -105 -27 -108 -34 0
-109 -105 -25 -34 -35 -28 0
-25 -29 -110 -105 -34 -35 0
-23 -26 -77 -75 -84 -85 0
-104 -105 -77 -75 -26 -23 0
-108 -105 -27 -36 -26 -34 0
-36 -26 -34 -29 -110 -105 0
-109 -105 -28 -34 -37 -27 0
-29 -37 -110 -105 -34 -27 0
-29 -34 -110 -28 -38 -105 0
-26 -77 -84 -76 -23 -86 0
-106 -109 -35 -28 -26 -36 0
-106 -110 -35 -26 -36 -29 0
-109 -106 -37 -27 -28 -35 0
-27 -37 -106 -110 -35 -29 0
-29 -110 -106 -28 -35 -38 0
-36 -28 -107 -109 -37 -27 0
-38 -36 -110 -28 -107 -29 0
-29 -108 -110 -28 -37 -38 0
-107 -57 -109 -27 -28 -56 0
-29 -28 -107 -110 -58 -56 0
-28 -57 -108 -110 -58 -29 0
-58 -39 -110 -38 -56 -107 0
-39 -38 -110 -108 -58 -57 0
-22 -40 -20 -12 -32 -23 -33 -82 -84 0
-21 -54 -11 -52 -13 -22 0
-21 -62 -11 -64 -13 -22 0
-21 -22 -82 -84 -11 -13 0
-21 -104 -102 -11 -13 -22 0
-22 -21 -55 -52 -14 -11 0
-21 -62 -11 -65 -14 -22 0
-72 -75 -11 -14 -21 -22 0
-21 -14 -85 -11 -82 -22 0
-21 -22 -105 -102 -14 -11 0
-66 -62 -11 -21 -15 -22 0
-52 -25 -56 -26 -5 -1 0
-52 -57 -25 -27 -5 -1 0
-21 -15 -86 -82 -22 -11 0
-52 -58 -28 -25 -1 -5 0
-29 -59 -1 -52 -5 -25 0
-21 -15 -106 -22 -11 -102 0
-30 -25 -60 -52 -5 -1 0
-72 -77 -16 -21 -22 -11 0
-26 -1 -6 -27 -67 -62 0
-21 -16 -87 -82 -11 -22 0
-62 -68 -28 -26 -6 -1 0
-69 -26 -6 -62 -29 -1 0
-21 -16 -102 -107 -22 -11 0
-30 -26 -1 -70 -62 -6 0
-21 -22 -82 -17 -11 -88 0
-27 -78 -7 -72 -1 -28 0
-72 -29 -1 -27 -7 -79 0
-21 -108 -102 -17 -22 -11 0
-72 -27 -1 -30 -80 -7 0
-29 -89 -1 -28 -82 -8 0
-21 -22 -109 -18 -11 -102 0
-30 -28 -1 -8 -90 -82 0
-21 -19 -102 -22 -11 -110 0
-32 -55 -11 -31 -52 -14 0
-31 -62 -14 -11 -65 -32 0
-72 -75 -31 -32 -11 -14 0
-14 -31 -85 -11 -32 -82 0
-14 -32 -102 -11 -31 -105 0
-66 -15 -31 -32 -62 -11 0
-52 -35 -56 -1 -36 -5 0
-15 -31 -76 -72 -32 -11 0
-52 -57 -37 -35 -1 -5 0
-15 -31 -86 -32 -11 -82 0
-35 -38 -5 -52 -58 -1 0
-35 -39 -1 -52 -5 -59 0
-106 -31 -102 -32 -15 -11 0
-40 -60 -5 -35 -52 -1 0
-77 -72 -32 -16 -31 -11 0
-36 -67 -1 -37 -62 -6 0
-16 -31 -87 -11 -82 -32 0
-62 -38 -1 -68 -6 -36 0
-69 -36 -39 -6 -62 -1 0
-32 -16 -31 -107 -102 -11 0
-62 -40 -6 -36 -70 -1 0
-31 -17 -82 -32 -11 -88 0
-72 -78 -7 -37 -1 -38 0
-32 -108 -11 -102 -31 -17 0
-39 -89 -1 -38 -8 -82 0
-31 -32 -109 -18 -102 -11 0
-40 -8 -90 -38 -82 -1 0
-19 -31 -110 -102 -11 -32 0
-72 -77 -16 -51 -52 -11 0
-62 -57 -1 -56 -67 -6 0
-51 -16 -87 -11 -82 -52 0
-68 -56 -6 -1 -58 -62 0
-59 -56 -6 -1 -62 -69 0
-51 -52 -102 -107 -16 -11 0
-70 -56 -6 -62 -1 -60 0
-17 -88 -11 -82 -52 -51 0
-108 -17 -102 -11 -51 -52 0
-60 -80 -7 -1 -57 -72 0
-59 -82 -1 -89 -58 -8 0
-51 -52 -11 -18 -109 -102 0
-60 -58 -90 -1 -8 -82 0
-52 -110 -11 -102 -51 -19 0
-62 -17 -88 -11 -61 -82 0
-67 -78 -1 -68 -7 -72 0
-72 -69 -67 -1 -7 -79 0
-61 -108 -102 -62 -11 -17 0
-72 -67 -1 -70 -7 -80 0
-69 -8 -82 -68 -89 -1 0
-109 -61 -102 -62 -18 -11 0
-68 -70 -90 -8 -82 -1 0
-62 -61 -102 -110 -19 -11 0
-78 -82 -1 -79 -89 -8 0
-72 -71 -109 -102 -11 -18 0
-90 -82 -80 -78 -1 -8 0
-72 -71 -102 -110 -19 -11 0
-82 -81 -102 -11 -19 -110 0
-21 -53 -31 -55 -33 -24 0
-31 -65 -33 -63 -21 -24 0
-31 -24 -83 -85 -21 -33 0
-103 -105 -31 -33 -24 -21 0
-21 -66 -31 -63 -25 -33 0
-2 -36 -53 -56 -5 -35 0
-76 -73 -31 -21 -33 -25 0
-2 -35 -53 -57 -37 -5 0
-31 -25 -83 -86 -21 -33 0
-35 -53 -5 -38 -2 -58 0
-59 -2 -39 -53 -5 -35 0
-31 -33 -103 -106 -25 -21 0
-2 -35 -60 -5 -53 -40 0
-77 -73 -26 -33 -31 -21 0
-36 -67 -6 -37 -2 -63 0
-31 -33 -83 -87 -21 -26 0
-2 -36 -68 -6 -63 -38 0
-69 -2 -39 -36 -63 -6 0
-21 -107 -31 -103 -26 -33 0
-40 -2 -36 -63 -6 -70 0
-21 -31 -88 -27 -33 -83 0
-21 -31 -108 -103 -27 -33 0
-38 -39 -89 -2 -8 -83 0
-31 -21 -103 -28 -33 -109 0
-29 -31 -103 -33 -21 -110 0
-2 -67 -56 -57 -6 -63 0
-51 -26 -83 -53 -21 -87 0
-2 -58 -68 -6 -56 -63 0
-107 -103 -51 -53 -21 -26 0
-2 -60 -70 -6 -63 -56 0
-21 -51 -27 -53 -88 -83 0
-27 -108 -103 -53 -51 -21 0
-80 -73 -57 -60 -7 -2 0
-51 -53 -109 -28 -21 -103 0
-2 -60 -90 -58 -8 -83 0
-29 -51 -103 -53 -110 -21 0
-27 -63 -83 -21 -88 -61 0
-2 -8 -68 -70 -83 -90 0
-29 -21 -110 -63 -103 -61 0
-78 -79 -89 -8 -83 -2 0
-73 -71 -103 -110 -21 -29 0
-29 -110 -83 -81 -103 -21 0
-3 -64 -56 -67 -57 -6 0
-51 -36 -31 -54 -84 -87 0
-68 -56 -6 -64 -3 -58 0
-107 -104 -51 -54 -36 -31 0
-3 -70 -56 -6 -64 -60 0
-51 -31 -88 -54 -84 -37 0
-51 -31 -108 -54 -104 -37 0
-3 -58 -89 -59 -8 -84 0
-31 -109 -54 -51 -104 -38 0
-3 -60 -90 -8 -84 -58 0
-31 -110 -54 -51 -104 -39 0
-31 -61 -84 -64 -88 -37 0
-64 -37 -108 -31 -61 -104 0
-70 -67 -3 -74 -7 -80 0
-69 -68 -89 -3 -84 -8 0
-3 -68 -90 -84 -8 -70 0
-3 -78 -84 -79 -8 -89 0
-71 -74 -104 -109 -31 -38 0
-110 -104 -84 -81 -39 -31 0
-65 -4 -6 -67 -57 -56 0
-58 -4 -68 -6 -56 -65 0
-69 -4 -56 -6 -59 -65 0
-65 -4 -6 -70 -60 -56 0
-78 -79 -89 -8 -4 -85 0
-80 -78 -90 -85 -8 -4 0
-68 -78 -5 -76 -7 -67 0
-69 -79 -5 -76 -7 -67 0
-108 -57 -106 -51 -61 -66 0
-69 -86 -5 -89 -68 -8 0
-66 -58 -109 -106 -61 -51 0
-68 -90 -5 -70 -8 -86 0
-66 -59 -106 -110 -61 -51 0
-78 -86 -5 -79 -89 -8 0
-8 -80 -86 -78 -5 -90 0
-106 -110 -76 -71 -59 -51 0
-59 -106 -81 -110 -51 -86 0
-78 -87 -6 -79 -8 -89 0
-80 -90 -6 -78 -87 -8 0
-107 -110 -71 -77 -61 -69 0
-107 -69 -81 -110 -87 -61 0
-71 -108 -110 -79 -88 -81 0
-24 -33 -53 -55 -32 -22 0
-12 -35 -45 -43 -14 -34 0
-24 -33 -63 -65 -32 -22 0
-14 -36 -43 -46 -12 -34 0
-22 -75 -24 -73 -33 -32 0
-22 -24 -83 -85 -33 -32 0
-103 -105 -32 -33 -22 -24 0
-25 -32 -63 -66 -22 -33 0
-35 -36 -56 -53 -15 -12 0
-76 -73 -25 -32 -33 -22 0
-15 -12 -57 -53 -35 -37 0
-25 -22 -83 -86 -33 -32 0
-53 -58 -35 -38 -15 -12 0
-59 -12 -35 -53 -39 -15 0
-12 -35 -60 -15 -53 -40 0
-73 -77 -33 -32 -26 -22 0
-37 -36 -16 -63 -12 -67 0
-33 -32 -83 -87 -22 -26 0
-16 -68 -38 -63 -36 -12 0
-36 -16 -39 -69 -12 -63 0
-107 -103 -32 -33 -26 -22 0
-40 -12 -36 -63 -70 -16 0
-27 -32 -88 -83 -22 -33 0
-17 -38 -78 -73 -12 -37 0
-73 -79 -39 -37 -12 -17 0
-22 -33 -108 -103 -32 -27 0
-12 -39 -89 -38 -83 -18 0
-22 -33 -103 -28 -32 -109 0
-40 -18 -90 -38 -83 -12 0
-29 -32 -110 -33 -103 -22 0
-73 -26 -52 -53 -22 -77 0
-12 -67 -57 -63 -56 -16 0
-22 -53 -83 -52 -87 -26 0
-58 -16 -68 -12 -63 -56 0
-53 -52 -107 -26 -103 -22 0
-12 -60 -70 -56 -16 -63 0
-52 -53 -83 -88 -27 -22 0
-73 -17 -57 -78 -58 -12 0
-52 -53 -108 -27 -103 -22 0
-17 -60 -80 -57 -73 -12 0
-59 -12 -89 -58 -18 -83 0
-109 -103 -52 -53 -22 -28 0
-12 -60 -90 -58 -18 -83 0
-29 -53 -110 -103 -52 -22 0
-63 -62 -88 -83 -22 -27 0
-62 -63 -27 -108 -103 -22 0
-12 -69 -83 -68 -18 -89 0
-22 -62 -109 -103 -63 -28 0
-68 -12 -70 -18 -83 -90 0
-29 -62 -103 -110 -63 -22 0
-12 -18 -78 -79 -89 -83 0
-72 -73 -103 -109 -28 -22 0
-12 -80 -90 -78 -18 -83 0
-72 -73 -103 -110 -29 -22 0
-22 -29 -103 -110 -83 -82 0
-36 -32 -77 -74 -52 -54 0
-13 -64 -57 -67 -16 -56 0
-32 -54 -87 -52 -36 -84 0
-13 -68 -56 -64 -58 -16 0
-52 -36 -54 -104 -107 -32 0
-13 -64 -56 -70 -16 -60 0
-37 -52 -88 -54 -84 -32 0
-52 -37 -108 -54 -32 -104 0
-52 -104 -54 -109 -32 -38 0
-60 -58 -84 -90 -18 -13 0
-39 -110 -54 -52 -32 -104 0
-64 -37 -88 -62 -84 -32 0
-13 -68 -89 -69 -84 -18 0
-13 -68 -90 -70 -84 -18 0
-13 -78 -84 -18 -79 -89 0
-72 -74 -109 -104 -32 -38 0
-13 -80 -84 -78 -18 -90 0
-39 -110 -74 -72 -32 -104 0
-110 -104 -32 -84 -39 -82 0
-75 -55 -46 -42 -52 -77 0
-14 -67 -56 -57 -16 -65 0
-14 -68 -56 -65 -58 -16 0
-105 -107 -46 -42 -52 -55 0
-14 -60 -70 -65 -56 -16 0
-58 -17 -78 -75 -14 -57 0
-18 -80 -85 -14 -90 -78 0
-66 -57 -108 -62 -106 -52 0
-62 -66 -109 -106 -52 -58 0
-18 -68 -86 -15 -90 -70 0
-62 -52 -106 -66 -110 -59 0
-59 -106 -86 -110 -52 -82 0
-18 -79 -78 -16 -89 -87 0
-62 -72 -110 -107 -69 -77 0
-72 -79 -110 -108 -82 -88 0
-33 -53 -74 -36 -54 -77 0
-26 -67 -56 -64 -57 -23 0
-36 -53 -87 -33 -84 -54 0
-26 -68 -56 -64 -58 -23 0
-36 -33 -53 -104 -107 -54 0
-56 -60 -70 -26 -23 -64 0
-53 -37 -88 -54 -84 -33 0
-78 -74 -58 -57 -27 -23 0
-59 -57 -74 -79 -23 -27 0
-33 -104 -54 -108 -37 -53 0
-27 -57 -74 -60 -23 -80 0
-53 -38 -104 -109 -54 -33 0
-28 -60 -90 -58 -84 -23 0
-54 -53 -110 -104 -39 -33 0
-33 -63 -88 -37 -84 -64 0
-64 -63 -37 -33 -104 -108 0
-23 -70 -74 -67 -27 -80 0
-23 -68 -84 -69 -89 -28 0
-28 -68 -90 -23 -84 -70 0
-28 -79 -78 -23 -84 -89 0
-80 -78 -90 -84 -28 -23 0
-33 -110 -84 -104 -39 -83 0
-75 -77 -46 -43 -53 -55 0
-24 -67 -56 -57 -26 -65 0
-26 -68 -56 -65 -58 -24 0
-107 -105 -43 -46 -55 -53 0
-26 -60 -65 -24 -56 -70 0
-58 -24 -78 -75 -57 -27 0
-28 -24 -85 -90 -60 -58 0
-75 -24 -67 -27 -70 -80 0
-28 -24 -85 -90 -68 -70 0
-78 -79 -89 -85 -28 -24 0
-80 -78 -90 -85 -28 -24 0
-66 -53 -106 -63 -108 -57 0
-53 -63 -109 -58 -106 -66 0
-66 -53 -106 -63 -110 -59 0
-28 -79 -78 -25 -89 -86 0
-53 -106 -86 -110 -83 -59 0
-26 -79 -78 -87 -28 -89 0
-26 -80 -90 -78 -87 -28 0
-77 -73 -110 -63 -107 -69 0
-79 -73 -110 -108 -88 -83 0
-67 -34 -57 -65 -36 -56 0
-68 -34 -56 -65 -58 -36 0
-36 -34 -70 -60 -65 -56 0
-58 -34 -78 -75 -37 -57 0
-34 -57 -80 -37 -75 -60 0
-58 -59 -89 -85 -38 -34 0
-75 -67 -34 -68 -78 -37 0
-67 -34 -80 -37 -75 -70 0
-68 -38 -89 -85 -34 -69 0
-70 -38 -85 -68 -90 -34 0
-34 -79 -78 -85 -38 -89 0
-34 -38 -80 -78 -85 -90 0
-35 -67 -78 -76 -37 -68 0
-66 -57 -108 -64 -106 -54 0
-66 -109 -54 -64 -106 -58 0
-68 -70 -90 -38 -86 -35 0
-66 -54 -106 -110 -64 -59 0
-35 -78 -86 -38 -89 -79 0
-74 -54 -106 -109 -76 -58 0
-54 -106 -86 -110 -59 -84 0
-38 -79 -78 -36 -89 -87 0
-38 -80 -90 -78 -36 -87 0
-108 -74 -84 -110 -88 -79 0
-66 -55 -108 -106 -65 -57 0
-66 -55 -109 -106 -58 -65 0
-33 -63 -46 -42 -36 -62 0
-62 -52 -36 -56 -33 -63 0
-73 -33 -57 -37 -72 -52 0
-58 -33 -83 -38 -82 -52 0
-21 -23 -5 -15 -3 -11 0
-62 -72 -33 -37 -67 -73 0
-62 -33 -82 -68 -38 -83 0
-21 -23 -16 -6 -11 -3 0
-70 -62 -102 -40 -33 -103 0
-78 -72 -33 -38 -82 -83 0
-23 -3 -17 -21 -11 -7 0
-72 -40 -102 -33 -80 -103 0
-21 -23 -18 -8 -11 -3 0
-21 -24 -5 -15 -11 -4 0
-21 -16 -4 -6 -11 -24 0
-17 -24 -4 -21 -11 -7 0
-21 -8 -24 -11 -4 -18 0
-53 -58 -82 -68 -62 -83 0
-21 -25 -5 -6 -16 -11 0
-60 -70 -103 -62 -53 -102 0
-58 -78 -82 -72 -83 -53 0
-25 -21 -5 -7 -17 -11 0
-72 -53 -102 -60 -80 -103 0
-25 -11 -5 -21 -18 -8 0
-21 -9 -19 -25 -11 -5 0
-72 -68 -82 -78 -83 -63 0
-21 -11 -7 -6 -26 -17 0
-21 -18 -8 -11 -26 -6 0
-21 -9 -19 -6 -11 -26 0
-27 -8 -11 -21 -7 -18 0
-15 -4 -31 -34 -11 -5 0
-4 -34 -6 -31 -16 -11 0
-17 -31 -11 -34 -7 -4 0
-18 -4 -34 -8 -31 -11 0
-58 -68 -84 -82 -62 -54 0
-16 -31 -5 -6 -35 -11 0
-54 -60 -102 -104 -62 -70 0
-58 -78 -82 -72 -84 -54 0
-31 -11 -7 -17 -35 -5 0
-8 -31 -11 -35 -18 -5 0
-9 -31 -11 -5 -19 -35 0
-64 -78 -84 -72 -68 -82 0
-36 -11 -7 -6 -31 -17 0
-36 -18 -8 -31 -11 -6 0
-9 -19 -36 -11 -6 -31 0
-31 -11 -7 -37 -8 -18 0
-62 -75 -55 -72 -57 -67 0
-62 -58 -85 -55 -68 -82 0
-72 -55 -85 -82 -58 -78 0
-105 -60 -102 -72 -80 -55 0
-55 -105 -82 -90 -60 -102 0
-65 -78 -85 -72 -82 -68 0
-66 -78 -86 -72 -68 -82 0
-17 -56 -6 -7 -51 -11 0
-51 -18 -56 -11 -8 -6 0
-9 -19 -51 -56 -11 -6 0
-51 -11 -7 -57 -18 -8 0
-9 -57 -11 -19 -7 -51 0
-61 -67 -11 -18 -8 -7 0
-19 -11 -7 -61 -9 -67 0
-31 -25 -4 -34 -21 -5 0
-4 -34 -6 -31 -21 -26 0
-21 -4 -31 -27 -7 -34 0
-21 -28 -31 -34 -8 -4 0
-21 -35 -5 -26 -31 -6 0
-21 -27 -31 -35 -5 -7 0
-21 -28 -31 -35 -5 -8 0
-21 -31 -6 -36 -27 -7 0
-21 -36 -31 -28 -8 -6 0
-21 -28 -31 -37 -8 -7 0
-21 -27 -6 -51 -56 -7 0
-51 -28 -6 -56 -21 -8 0
-9 -29 -51 -21 -6 -56 0
-21 -51 -8 -57 -28 -7 0
-9 -29 -57 -21 -7 -51 0
-67 -61 -28 -21 -7 -8 0
-31 -56 -6 -37 -51 -7 0
-51 -8 -56 -6 -38 -31 0
-9 -51 -39 -31 -6 -56 0
-51 -57 -38 -31 -7 -8 0
-9 -39 -31 -7 -57 -51 0
-61 -67 -38 -31 -7 -8 0
-9 -67 -31 -39 -7 -61 0
-51 -58 -8 -61 -7 -67 0
-9 -59 -61 -51 -7 -67 0
-25 -15 -34 -32 -14 -22 0
-14 -26 -32 -16 -34 -22 0
-22 -14 -32 -17 -34 -27 0
-28 -18 -34 -32 -14 -22 0
-29 -19 -32 -14 -34 -22 0
-58 -68 -83 -84 -54 -63 0
-26 -15 -32 -16 -35 -22 0
-78 -73 -58 -54 -83 -84 0
-22 -17 -32 -27 -15 -35 0
-22 -15 -32 -35 -18 -28 0
-22 -15 -35 -29 -19 -32 0
-78 -73 -68 -64 -83 -84 0
-22 -16 -32 -17 -27 -36 0
-32 -36 -18 -16 -28 -22 0
-29 -36 -16 -19 -22 -32 0
-28 -17 -37 -18 -32 -22 0
-22 -19 -17 -29 -37 -32 0
-29 -19 -32 -18 -38 -22 0
-75 -73 -57 -55 -63 -67 0
-55 -63 -85 -68 -58 -83 0
-103 -105 -70 -55 -63 -60 0
-73 -55 -85 -78 -58 -83 0
-27 -15 -42 -17 -45 -22 0
-103 -105 -80 -60 -73 -55 0
-103 -105 -90 -55 -83 -60 0
-68 -78 -85 -65 -73 -83 0
-66 -68 -73 -78 -83 -86 0
-22 -52 -56 -27 -17 -16 0
-52 -28 -56 -22 -16 -18 0
-22 -29 -16 -56 -52 -19 0
-22 -52 -18 -57 -28 -17 0
-29 -17 -57 -52 -19 -22 0
-22 -29 -19 -18 -52 -58 0
-67 -62 -28 -18 -17 -22 0
-29 -19 -67 -17 -62 -22 0
-22 -29 -19 -18 -62 -68 0
-32 -16 -37 -17 -52 -56 0
-52 -16 -38 -32 -56 -18 0
-52 -32 -56 -39 -16 -19 0
-52 -18 -38 -57 -32 -17 0
-52 -17 -39 -57 -19 -32 0
-32 -39 -19 -18 -52 -58 0
-18 -32 -67 -62 -17 -38 0
-19 -32 -67 -62 -17 -39 0
-18 -32 -68 -39 -19 -62 0
-18 -39 -78 -72 -19 -32 0
-52 -18 -67 -62 -17 -58 0
-62 -52 -17 -67 -59 -19 0
-52 -18 -68 -59 -62 -19 0
-62 -18 -78 -69 -19 -72 0
-75 -64 -57 -74 -55 -67 0
-68 -64 -85 -84 -58 -55 0
-33 -36 -25 -26 -45 -43 0
-64 -60 -105 -104 -55 -70 0
-55 -74 -85 -78 -58 -84 0
-25 -33 -43 -45 -27 -37 0
-60 -105 -80 -104 -74 -55 0
-28 -33 -43 -25 -45 -38 0
-105 -55 -90 -84 -60 -104 0
-78 -74 -68 -65 -85 -84 0
-33 -27 -43 -46 -37 -26 0
-33 -26 -43 -46 -38 -28 0
-66 -78 -74 -68 -86 -84 0
-26 -33 -53 -37 -56 -27 0
-33 -38 -56 -53 -26 -28 0
-29 -33 -53 -26 -56 -39 0
-27 -33 -57 -38 -53 -28 0
-33 -39 -57 -27 -29 -53 0
-33 -39 -28 -58 -29 -53 0
-67 -63 -38 -28 -33 -27 0
-29 -39 -63 -67 -27 -33 0
-29 -33 -63 -39 -28 -68 0
-29 -28 -39 -78 -73 -33 0
-28 -67 -53 -58 -63 -27 0
-28 -68 -53 -59 -63 -29 0
-29 -59 -73 -28 -78 -53 0
-29 -73 -63 -28 -78 -69 0
-70 -80 -106 -105 -75 -66 0
-67 -37 -54 -64 -38 -58 0
-59 -68 -39 -38 -64 -54 0
-59 -54 -78 -38 -39 -74 0
-71 -73 -16 -2 -77 -15 -5 0
-76 -73 -62 -7 -5 -1 -63 0
-62 -8 -1 -5 -86 -83 -63 0
-107 -103 -5 -2 -15 -16 -101 0
-15 -2 -81 -88 -17 -83 -5 0
-72 -73 -5 -8 -86 -1 -83 0
-2 -15 -103 -101 -17 -5 -108 0
-15 -18 -103 -101 -2 -109 -5 0
-103 -106 -10 -1 -83 -5 -82 0
-19 -2 -101 -110 -15 -103 -5 0
-17 -88 -6 -2 -16 -83 -81 0
-72 -8 -1 -6 -83 -87 -73 0
-16 -103 -101 -17 -2 -108 -6 0
-2 -18 -101 -103 -109 -16 -6 0
-107 -83 -1 -103 -82 -10 -6 0
-19 -2 -101 -110 -103 -6 -16 0
-18 -103 -101 -7 -109 -17 -2 0
-108 -82 -1 -7 -103 -83 -10 0
-2 -17 -101 -7 -103 -19 -110 0
-2 -18 -101 -8 -110 -103 -19 0
-5 -7 -76 -74 -1 -64 -62 0
-62 -86 -5 -64 -84 -8 -1 0
-107 -3 -16 -15 -104 -101 -5 0
-17 -15 -81 -88 -84 -3 -5 0
-8 -74 -86 -72 -84 -1 -5 0
-3 -108 -101 -17 -5 -15 -104 0
-3 -18 -109 -5 -15 -104 -101 0
-106 -82 -10 -84 -104 -1 -5 0
-19 -3 -101 -104 -110 -15 -5 0
-3 -17 -88 -6 -16 -81 -84 0
-72 -74 -6 -1 -8 -84 -87 0
-104 -108 -6 -16 -17 -3 -101 0
-3 -104 -101 -6 -18 -16 -109 0
-107 -84 -1 -104 -6 -82 -10 0
-19 -16 -101 -3 -6 -104 -110 0
-104 -3 -109 -7 -101 -18 -17 0
-108 -84 -10 -1 -82 -7 -104 0
-3 -17 -101 -7 -110 -19 -104 0
-104 -110 -19 -18 -3 -101 -8 0
-76 -75 -7 -5 -62 -65 -1 0
-16 -4 -101 -107 -15 -105 -5 0
-17 -105 -5 -15 -4 -108 -101 0
-15 -4 -105 -18 -101 -5 -109 0
-106 -82 -10 -85 -105 -5 -1 0
-19 -15 -110 -105 -4 -5 -101 0
-108 -16 -101 -17 -4 -105 -6 0
-18 -4 -105 -109 -6 -101 -16 0
-107 -105 -82 -85 -6 -10 -1 0
-4 -16 -101 -110 -19 -6 -105 0
-18 -17 -4 -101 -7 -105 -109 0
-108 -85 -1 -10 -82 -105 -7 0
-4 -17 -101 -110 -7 -19 -105 0
-19 -8 -110 -18 -101 -4 -105 0
-16 -108 -106 -17 -101 -5 -6 0
-16 -18 -106 -101 -5 -109 -6 0
-19 -16 -106 -6 -5 -110 -101 0
-18 -101 -7 -109 -17 -5 -106 0
-106 -86 -1 -108 -7 -82 -10 0
-19 -17 -7 -106 -110 -101 -5 0
-19 -8 -106 -18 -110 -5 -101 0
-107 -18 -101 -109 -7 -17 -6 0
-108 -87 -1 -7 -82 -107 -10 0
-19 -101 -7 -6 -17 -107 -110 0
-19 -8 -110 -18 -6 -107 -101 0
-19 -8 -110 -18 -7 -108 -101 0
-64 -63 -76 -74 -5 -7 -2 0
-25 -3 -81 -87 -26 -5 -84 0
-2 -8 -86 -63 -5 -64 -84 0
-26 -25 -104 -101 -3 -107 -5 0
-74 -73 -8 -2 -5 -86 -84 0
-3 -108 -101 -27 -104 -5 -25 0
-28 -101 -5 -109 -3 -104 -25 0
-29 -25 -101 -110 -3 -104 -5 0
-27 -26 -84 -88 -81 -3 -6 0
-73 -8 -87 -74 -6 -84 -2 0
-3 -104 -26 -108 -6 -27 -101 0
-3 -26 -101 -28 -104 -6 -109 0
-2 -104 -6 -84 -83 -107 -10 0
-3 -26 -101 -29 -104 -6 -110 0
-3 -27 -101 -28 -7 -104 -109 0
-3 -27 -101 -110 -7 -29 -104 0
-29 -28 -101 -104 -3 -110 -8 0
-26 -25 -75 -71 -4 -5 -77 0
-76 -75 -7 -2 -65 -63 -5 0
-25 -105 -5 -101 -4 -26 -107 0
-2 -106 -5 -63 -105 -10 -65 0
-25 -105 -5 -101 -4 -27 -108 0
-75 -106 -10 -105 -73 -5 -2 0
-25 -105 -5 -101 -4 -28 -109 0
-83 -10 -5 -85 -106 -105 -2 0
-25 -105 -5 -101 -4 -110 -29 0
-108 -105 -26 -4 -101 -27 -6 0
-109 -105 -28 -101 -4 -6 -26 0
-2 -107 -85 -105 -10 -83 -6 0
-26 -4 -101 -6 -29 -105 -110 0
-108 -85 -10 -105 -2 -7 -83 0
-29 -4 -7 -101 -110 -27 -105 0
-29 -28 -101 -105 -4 -110 -8 0
-26 -27 -106 -101 -108 -6 -5 0
-26 -28 -106 -101 -6 -109 -5 0
-2 -106 -86 -107 -83 -10 -6 0
-29 -26 -101 -106 -6 -5 -110 0
-28 -109 -5 -7 -27 -101 -106 0
-2 -106 -86 -108 -7 -83 -10 0
-29 -106 -7 -27 -110 -5 -101 0
-29 -28 -101 -106 -8 -110 -5 0
-107 -27 -101 -109 -28 -7 -6 0
-2 -108 -87 -107 -83 -10 -7 0
-29 -107 -6 -27 -7 -101 -110 0
-29 -28 -6 -110 -101 -107 -8 0
-29 -28 -108 -8 -101 -7 -110 0
-76 -75 -64 -3 -5 -7 -65 0
-107 -36 -101 -105 -4 -35 -5 0
-4 -37 -105 -108 -35 -101 -5 0
-4 -35 -109 -101 -105 -38 -5 0
-105 -3 -106 -85 -5 -84 -10 0
-4 -39 -110 -101 -105 -5 -35 0
-4 -37 -6 -36 -105 -101 -108 0
-4 -101 -6 -109 -38 -36 -105 0
-107 -105 -84 -85 -6 -3 -10 0
-36 -101 -6 -105 -39 -110 -4 0
-38 -101 -7 -105 -4 -37 -109 0
-108 -105 -84 -85 -3 -10 -7 0
-4 -39 -110 -101 -7 -37 -105 0
-4 -39 -105 -38 -8 -101 -110 0
-37 -106 -101 -36 -108 -5 -6 0
-38 -106 -101 -36 -6 -5 -109 0
-36 -39 -106 -110 -101 -6 -5 0
-37 -109 -5 -101 -7 -38 -106 0
-108 -106 -86 -84 -3 -7 -10 0
-39 -106 -7 -37 -110 -101 -5 0
-39 -38 -5 -110 -101 -8 -106 0
-107 -37 -101 -38 -7 -6 -109 0
-107 -108 -84 -7 -3 -10 -87 0
-39 -37 -101 -6 -110 -107 -7 0
-39 -38 -101 -110 -107 -8 -6 0
-58 -8 -59 -101 -110 -107 -6 0
-58 -59 -101 -110 -7 -8 -108 0
-68 -69 -7 -101 -8 -108 -110 0
-66 -62 -14 -64 -24 -25 -13 0
-16 -65 -53 -54 -12 -64 -14 0
-25 -14 -76 -74 -24 -13 -72 0
-75 -14 -53 -74 -54 -17 -12 0
-24 -25 -82 -86 -13 -14 -84 0
-18 -54 -85 -53 -12 -84 -14 0
-14 -24 -102 -106 -13 -25 -104 0
-104 -105 -54 -53 -14 -12 -20 0
-72 -74 -26 -24 -13 -77 -14 0
-13 -26 -24 -14 -82 -87 -84 0
-14 -18 -85 -84 -12 -64 -63 0
-13 -107 -102 -14 -26 -24 -104 0
-14 -27 -88 -13 -82 -84 -24 0
-14 -108 -104 -27 -13 -24 -102 0
-14 -24 -102 -13 -104 -28 -109 0
-14 -83 -20 -84 -12 -105 -104 0
-25 -15 -82 -26 -87 -13 -84 0
-12 -18 -86 -63 -15 -64 -84 0
-25 -15 -102 -107 -26 -13 -104 0
-64 -104 -20 -12 -106 -63 -15 0
-25 -15 -82 -27 -88 -84 -13 0
-27 -108 -104 -25 -102 -13 -15 0
-73 -106 -20 -74 -104 -12 -15 0
-25 -15 -104 -28 -102 -109 -13 0
-106 -84 -20 -104 -15 -12 -83 0
-29 -110 -104 -25 -102 -15 -13 0
-26 -16 -88 -27 -84 -13 -82 0
-74 -73 -18 -16 -12 -87 -84 0
-104 -108 -102 -16 -13 -27 -26 0
-16 -107 -83 -84 -20 -12 -104 0
-29 -104 -16 -26 -13 -110 -102 0
-28 -17 -104 -27 -109 -13 -102 0
-12 -108 -104 -83 -84 -17 -20 0
-29 -104 -102 -13 -18 -28 -110 0
-12 -65 -106 -15 -105 -20 -63 0
-25 -15 -102 -27 -108 -14 -105 0
-109 -105 -28 -25 -102 -14 -15 0
-106 -85 -20 -83 -105 -15 -12 0
-25 -15 -105 -102 -14 -29 -110 0
-105 -27 -102 -108 -14 -16 -26 0
-73 -16 -105 -107 -75 -20 -12 0
-14 -26 -105 -109 -102 -16 -28 0
-12 -16 -105 -85 -107 -83 -20 0
-29 -14 -102 -26 -16 -105 -110 0
-14 -28 -105 -109 -17 -102 -27 0
-108 -105 -83 -85 -17 -12 -20 0
-29 -17 -105 -102 -27 -14 -110 0
-29 -14 -110 -18 -28 -102 -105 0
-12 -106 -86 -107 -16 -20 -83 0
-29 -16 -106 -26 -110 -102 -15 0
-109 -28 -102 -15 -106 -27 -17 0
-12 -106 -86 -108 -83 -20 -17 0
-29 -110 -102 -27 -17 -106 -15 0
-29 -110 -106 -28 -102 -15 -18 0
-27 -16 -109 -107 -17 -28 -102 0
-12 -108 -87 -107 -83 -20 -17 0
-29 -28 -102 -107 -18 -16 -110 0
-29 -110 -102 -28 -18 -17 -108 0
-72 -36 -75 -35 -15 -14 -77 0
-107 -105 -15 -102 -14 -36 -35 0
-14 -35 -108 -15 -102 -37 -105 0
-105 -15 -106 -75 -20 -13 -74 0
-109 -105 -14 -15 -38 -102 -35 0
-106 -84 -20 -85 -105 -13 -15 0
-15 -39 -105 -110 -14 -102 -35 0
-14 -16 -102 -108 -105 -37 -36 0
-109 -36 -102 -105 -14 -16 -38 0
-107 -16 -85 -20 -13 -105 -84 0
-16 -39 -105 -110 -14 -36 -102 0
-105 -109 -17 -37 -14 -38 -102 0
-17 -85 -20 -84 -13 -108 -105 0
-17 -39 -102 -37 -110 -105 -14 0
-18 -38 -105 -102 -14 -110 -39 0
-13 -106 -84 -16 -86 -107 -20 0
-36 -39 -102 -16 -106 -15 -110 0
-17 -37 -102 -38 -106 -15 -109 0
-13 -106 -86 -108 -20 -84 -17 0
-17 -39 -37 -15 -110 -102 -106 0
-39 -38 -110 -15 -102 -18 -106 0
-13 -108 -84 -17 -87 -20 -107 0
-16 -39 -38 -107 -18 -102 -110 0
-39 -38 -102 -110 -18 -108 -17 0
-36 -75 -24 -73 -77 -25 -35 0
-27 -75 -76 -65 -64 -23 -25 0
-107 -103 -24 -25 -36 -35 -105 0
-25 -64 -105 -30 -23 -106 -65 0
-24 -37 -105 -35 -25 -108 -103 0
-25 -35 -109 -38 -105 -24 -103 0
-25 -105 -84 -106 -85 -23 -30 0
-25 -35 -110 -105 -39 -24 -103 0
-26 -37 -103 -108 -36 -105 -24 0
-24 -38 -105 -109 -26 -103 -36 0
-107 -105 -84 -85 -26 -23 -30 0
-26 -39 -105 -103 -24 -110 -36 0
-27 -37 -109 -103 -24 -105 -38 0
-27 -105 -84 -85 -108 -30 -23 0
-27 -24 -39 -103 -37 -105 -110 0
-103 -105 -39 -38 -28 -24 -110 0
-26 -38 -106 -109 -36 -25 -103 0
-26 -106 -86 -107 -84 -30 -23 0
-25 -38 -103 -109 -106 -37 -27 0
-108 -106 -84 -27 -86 -30 -23 0
-25 -27 -39 -37 -103 -110 -106 0
-39 -38 -103 -25 -106 -110 -28 0
-26 -38 -109 -27 -107 -103 -37 0
-107 -23 -108 -30 -27 -84 -87 0
-39 -38 -103 -110 -107 -28 -26 0
-28 -39 -108 -38 -27 -103 -110 0
-107 -75 -76 -106 -24 -26 -30 0
-28 -59 -108 -27 -58 -110 -103 0
-13 -12 -11 0
-14 -12 -11 0
-14 -13 -11 0
-12 -13 -14 0
-22 -21 -23 0
-21 -22 -24 0
-21 -23 -24 0
-22 -23 -24 0
-31 -32 -33 0
-32 -34 -31 0
-31 -34 -33 0
-33 -32 -34 0
-2 -1 0
-3 -1 0
-4 -1 0
-3 -2 0
-2 -4 0
-3 -4 0
-56 -55 -57 0
-58 -55 -56 0
-55 -58 -57 0
-66 -67 -65 0
-66 -68 -65 0
-67 -65 -68 0
-67 -66 -68 0
-78 -75 -76 0
-78 -75 -77 0
-45 -46 0
-85 -86 0
-87 -85 0
-85 -88 0
-87 -86 0
-88 -86 0
-87 -88 0
-109 -110 -101 0
-81 -89 0
-90 -81 0
-9 -8 0
-8 -10 0
-103 -105 -90 -108 -82 -83 -57 -55 -52 0
-105 -56 -83 -90 -107 -82 -103 -55 -52 0
-51 -78 -82 -54 -56 -84 -87 -72 -71 0
-40 -8 -4 -38 -6 -55 -31 -60 -56 0
-60 -56 -28 -30 -16 -14 -18 -55 -22 0
-60 -56 -18 -11 -6 -20 -8 -4 -55 0
-60 -56 -28 -30 -13 -22 -16 -18 -54 0
-40 -2 -17 -35 -11 -20 -7 -5 -33 0
-19 -8 -39 -35 -11 -18 -5 -33 -2 0
-19 -39 -7 -35 -17 -11 -2 -5 -33 0
-2 -18 -35 -38 -17 -7 -33 -5 -11 0
-22 -37 -102 -17 -20 -110 -12 -30 -33 -39 0
-67 -78 -81 -64 -71 -84 -1 -88 -8 -62 0
-71 -78 -1 -81 -84 -54 -8 -57 -52 -88 0
-62 -63 -78 -88 -67 -83 -1 -71 -81 -8 0
-52 -71 -78 -57 -83 -88 -53 -8 -1 -81 0
-13 -57 -88 -56 -32 -38 -16 -18 -82 -54 0
-37 -36 -18 -16 -12 -28 -22 -33 -82 -88 0
-15 -33 -88 -22 -18 -37 -35 -12 -82 -28 0
-14 -18 -34 -33 -37 -28 -12 -88 -22 -82 0
-2 -28 -33 -36 -37 -6 -21 -81 -8 -88 0
-36 -88 -11 -18 -81 -8 -32 -37 -6 -1 0
-21 -37 -88 -35 -81 -8 -28 -2 -5 -33 0
-35 -81 -11 -37 -5 -18 -88 -32 -8 -1 0
-18 -81 -1 -6 -26 -11 -22 -27 -8 -88 0
-22 -88 -11 -18 -81 -8 -5 -27 -25 -1 0
-68 -84 -1 -52 -87 -61 -81 -54 -8 -56 0
-8 -53 -81 -52 -56 -61 -87 -83 -1 -68 0
-33 -36 -15 -18 -12 -35 -82 -28 -87 -22 0
-12 -36 -87 -28 -82 -14 -33 -18 -34 -22 0
-21 -35 -87 -28 -5 -36 -8 -81 -33 -2 0
-35 -87 -11 -18 -5 -36 -8 -32 -81 -1 0
-22 -87 -11 -18 -81 -26 -8 -25 -1 -5 0
-75 -1 -7 -61 -52 -56 -55 -71 -67 -77 0
-33 -63 -1 -6 -35 -61 -51 -56 -66 -32 0
-107 -77 -83 -84 -103 -74 0
-107 -77 -102 -76 -86 -82 0
-107 -75 -85 -102 -77 -82 0
-107 -77 -84 -74 -102 -82 0
-107 -77 -102 -73 -82 -83 0
-107 -77 -101 -74 -81 -84 0
-107 -77 -81 -101 -83 -73 0
-107 -77 -81 -101 -72 -82 0
-104 -106 -84 -66 -85 -65 0
-75 -74 -106 -104 -65 -66 0
-76 -103 -83 -74 -84 -106 0
-66 -103 -84 -106 -83 -64 0
-76 -75 -82 -102 -106 -85 0
-65 -85 -102 -106 -82 -66 0
-74 -106 -84 -102 -82 -76 0
-64 -84 -102 -106 -82 -66 0
-73 -76 -106 -102 -82 -83 0
-106 -63 -102 -66 -83 -82 0
-76 -106 -81 -84 -74 -101 0
-66 -106 -84 -101 -81 -64 0
-73 -76 -106 -101 -81 -83 0
-66 -106 -81 -63 -101 -83 0
-76 -72 -106 -101 -82 -81 0
-62 -66 -106 -101 -81 -82 0
-66 -75 -101 -65 -106 -71 0
-74 -71 -101 -64 -66 -106 0
-73 -71 -101 -63 -66 -106 0
-62 -72 -106 -101 -66 -71 0
-75 -103 -84 -105 -74 -83 0
-65 -103 -84 -64 -105 -83 0
-103 -105 -54 -83 -55 -84 0
-103 -105 -54 -63 -64 -55 0
-74 -105 -84 -82 -75 -102 0
-65 -84 -102 -64 -105 -82 0
-105 -54 -84 -55 -82 -102 0
-105 -83 -102 -73 -75 -82 0
-65 -83 -102 -105 -63 -82 0
-53 -83 -102 -55 -105 -82 0
-105 -74 -102 -72 -64 -65 0
-105 -74 -102 -72 -55 -54 0
-72 -105 -63 -102 -73 -65 0
-72 -105 -102 -73 -55 -53 0
-105 -64 -102 -62 -54 -55 0
-105 -63 -102 -62 -55 -53 0
-105 -74 -81 -84 -75 -101 0
-65 -84 -101 -64 -105 -81 0
-54 -84 -101 -105 -55 -81 0
-75 -105 -83 -81 -73 -101 0
-65 -81 -101 -63 -83 -105 0
-53 -83 -101 -55 -105 -81 0
-72 -75 -101 -105 -81 -82 0
-65 -81 -101 -105 -62 -82 0
-55 -82 -101 -105 -52 -81 0
-105 -74 -54 -55 -101 -71 0
-73 -71 -101 -105 -63 -65 0
-73 -71 -53 -105 -101 -55 0
-62 -71 -101 -105 -72 -65 0
-72 -71 -101 -105 -52 -55 0
-64 -54 -101 -105 -55 -61 0
-53 -105 -63 -61 -101 -55 0
-62 -52 -101 -61 -105 -55 0
-64 -63 -102 -104 -82 -83 0
-104 -54 -83 -53 -102 -82 0
-73 -74 -104 -101 -81 -83 0
-64 -81 -101 -63 -104 -83 0
-54 -53 -104 -101 -81 -83 0
-72 -74 -104 -101 -81 -82 0
-64 -62 -104 -101 -82 -81 0
-104 -54 -81 -52 -101 -82 0
-73 -53 -104 -101 -54 -71 0
-64 -62 -104 -101 -72 -71 0
-54 -53 -104 -101 -63 -61 0
-62 -54 -101 -52 -104 -61 0
-72 -73 -103 -82 -81 -101 0
-62 -103 -82 -81 -101 -63 0
-52 -53 -101 -103 -82 -81 0
-33 -32 -103 -101 -81 -82 0
-72 -71 -101 -103 -63 -62 0
-62 -52 -101 -103 -61 -53 0
-51 -52 -32 -33 -103 -101 0
-66 -65 -74 -75 -86 -84 0
-75 -65 -86 -73 -83 -66 0
-72 -66 -86 -75 -65 -82 0
-66 -71 -74 -64 -81 -86 0
-71 -63 -81 -86 -73 -66 0
-72 -71 -81 -86 -62 -66 0
-64 -54 -85 -55 -83 -63 0
-74 -54 -85 -72 -55 -82 0
-73 -55 -85 -53 -82 -72 0
-62 -55 -85 -64 -54 -82 0
-62 -55 -85 -63 -82 -53 0
-64 -74 -85 -65 -81 -71 0
-65 -71 -85 -81 -63 -73 0
-72 -71 -85 -81 -52 -55 0
-61 -55 -85 -64 -81 -54 0
-61 -55 -85 -62 -52 -81 0
-73 -71 -81 -53 -54 -84 0
-72 -71 -81 -62 -64 -84 0
-72 -71 -54 -81 -52 -84 0
-61 -54 -81 -53 -63 -84 0
-72 -71 -81 -62 -83 -63 0
-72 -71 -33 -32 -83 -81 0
-33 -32 -83 -81 -62 -61 0
-51 -52 -32 -33 -83 -81 0
-72 -75 -64 -62 -54 -55 0
-62 -75 -53 -72 -63 -55 0
-61 -75 -55 -64 -54 -71 0
-71 -55 -63 -75 -61 -53 0
-62 -61 -55 -52 -75 -71 0
-74 -71 -54 -63 -61 -53 0
-62 -74 -54 -52 -61 -71 0
-62 -71 -53 -73 -61 -52 0
-71 -73 -32 -33 -52 -51 0
-17 -68 -60 -20 -67 -58 0
-60 -58 -10 -7 -68 -67 0
-9 -58 -68 -67 -7 -59 0
-17 -68 -38 -67 -20 -40 0
-17 -30 -68 -67 -20 -28 0
-28 -30 -68 -67 -7 -10 0
-29 -28 -17 -67 -19 -68 0
-68 -20 -7 -67 -18 -10 0
-18 -19 -68 -67 -7 -9 0
-30 -40 -58 -57 -27 -38 0
-40 -58 -20 -57 -17 -38 0
-58 -10 -7 -38 -40 -57 0
-58 -39 -38 -57 -29 -27 0
-57 -39 -38 -17 -58 -19 0
-28 -57 -20 -58 -17 -30 0
-28 -17 -57 -58 -29 -19 0
-9 -19 -57 -58 -7 -18 0
-30 -58 -26 -38 -56 -40 0
-58 -56 -16 -38 -20 -40 0
-40 -56 -6 -38 -58 -10 0
-58 -56 -26 -38 -39 -29 0
-58 -39 -38 -19 -56 -16 0
-30 -56 -20 -28 -58 -16 0
-19 -28 -16 -58 -56 -29 0
-56 -20 -10 -18 -58 -6 0
-9 -18 -56 -19 -6 -58 0
-29 -39 -56 -37 -26 -57 0
-16 -57 -37 -39 -56 -19 0
-28 -37 -56 -26 -57 -38 0
-18 -57 -38 -56 -37 -16 0
-30 -16 -20 -27 -56 -57 0
-27 -16 -56 -29 -57 -19 0
-28 -18 -57 -56 -27 -16 0
-28 -38 -20 -17 -37 -30 0
-28 -17 -37 -29 -19 -38 0
-20 -10 -7 -18 -37 -38 0
-30 -38 -20 -36 -16 -28 0
-38 -10 -6 -36 -28 -30 0
-29 -16 -38 -36 -28 -19 0
-9 -29 -6 -28 -38 -36 0
-36 -20 -6 -18 -38 -10 0
-9 -38 -6 -36 -19 -18 0
-15 -38 -20 -28 -35 -30 0
-29 -19 -35 -15 -38 -28 0
-38 -10 -5 -35 -18 -20 0
-9 -18 -35 -19 -38 -5 0
-30 -34 -20 -28 -14 -38 0
-30 -4 -10 -34 -28 -38 0
-14 -29 -34 -38 -28 -19 0
-9 -28 -4 -38 -29 -34 0
-4 -34 -10 -38 -18 -20 0
-9 -18 -34 -19 -4 -38 0
-36 -27 -20 -16 -37 -30 0
-29 -19 -37 -36 -27 -16 0
-27 -18 -37 -16 -36 -28 0
-30 -15 -35 -37 -27 -20 0
-19 -15 -35 -37 -27 -29 0
-27 -15 -37 -18 -28 -35 0
-14 -27 -20 -37 -34 -30 0
-19 -14 -37 -29 -34 -27 0
-14 -18 -37 -27 -34 -28 0
-30 -26 -20 -15 -35 -36 0
-26 -15 -35 -18 -36 -28 0
-28 -35 -5 -36 -26 -8 0
-30 -26 -34 -36 -14 -20 0
-19 -14 -36 -26 -29 -34 0
-36 -28 -34 -26 -18 -14 0
-30 -14 -20 -25 -35 -34 0
-29 -25 -34 -19 -35 -14 0
-25 -18 -35 -28 -34 -14 0
-14 -27 -34 -25 -17 -35 0
-26 -16 -34 -35 -14 -25 0
-28 -20 -10 -7 -27 -18 0
-9 -18 -7 -19 -28 -27 0
-28 -10 -6 -26 -18 -20 0
-9 -28 -18 -6 -19 -26 0
-28 -18 -5 -25 -10 -20 0
-18 -8 -4 -17 -24 -27 0
-26 -8 -4 -18 -16 -24 0
-16 -24 -4 -17 -26 -7 0
-3 -26 -16 -8 -23 -18 0
-23 -3 -16 -17 -26 -7 0
-18 -24 -4 -15 -8 -25 0
-25 -17 -24 -15 -4 -7 0
-23 -25 -15 -18 -8 -3 0
-23 -25 -17 -15 -7 -3 0
-18 -8 -24 -14 -3 -23 0
-3 -17 -24 -23 -7 -14 0
-3 -16 -24 -6 -14 -23 0
-3 -15 -24 -5 -14 -23 0
-66 -75 -63 -105 -103 -76 0
-77 -104 -87 -103 -73 -84 0
-66 -103 -104 -63 -84 -86 0
-75 -104 -84 -103 -73 -85 0
-65 -103 -85 -63 -104 -84 0
-55 -104 -85 -84 -103 -53 0
-75 -103 -104 -74 -53 -55 0
-64 -55 -104 -53 -103 -65 0
-77 -87 -102 -72 -84 -104 0
-62 -66 -102 -104 -84 -86 0
-75 -84 -102 -104 -72 -85 0
-65 -104 -85 -102 -62 -84 0
-55 -85 -102 -104 -52 -84 0
-74 -104 -102 -75 -62 -65 0
-64 -55 -102 -52 -104 -65 0
-77 -87 -101 -104 -71 -84 0
-71 -104 -86 -76 -84 -101 0
-66 -104 -84 -101 -61 -86 0
-75 -85 -101 -104 -71 -84 0
-61 -104 -84 -85 -101 -65 0
-51 -104 -85 -84 -101 -55 0
-66 -76 -101 -104 -61 -74 0
-75 -74 -101 -104 -51 -55 0
-51 -64 -101 -55 -104 -65 0
-77 -103 -87 -102 -72 -83 0
-66 -86 -102 -103 -83 -62 0
-75 -85 -102 -72 -83 -103 0
-62 -85 -102 -83 -65 -103 0
-72 -74 -102 -103 -84 -83 0
-62 -64 -102 -103 -84 -83 0
-103 -76 -102 -73 -62 -66 0
-103 -75 -102 -73 -52 -55 0
-103 -65 -102 -63 -52 -55 0
-77 -87 -101 -83 -103 -71 0
-61 -103 -86 -101 -66 -83 0
-75 -83 -101 -85 -103 -71 0
-65 -103 -85 -83 -101 -61 0
-55 -103 -83 -85 -101 -51 0
-71 -74 -103 -101 -84 -83 0
-61 -103 -84 -64 -101 -83 0
-51 -103 -101 -83 -84 -54 0
-73 -76 -101 -103 -61 -66 0
-73 -65 -101 -103 -61 -75 0
-73 -55 -103 -101 -51 -75 0
-74 -73 -101 -103 -64 -61 0
-55 -63 -103 -101 -51 -65 0
-51 -64 -63 -54 -103 -101 0
-77 -87 -102 -101 -71 -82 0
-71 -82 -101 -102 -76 -86 0
-82 -86 -102 -101 -66 -61 0
-75 -71 -101 -102 -82 -85 0
-61 -85 -102 -82 -65 -101 0
-55 -85 -101 -82 -102 -51 0
-74 -71 -101 -102 -84 -82 0
-82 -61 -102 -101 -84 -64 0
-51 -82 -101 -102 -84 -54 0
-71 -73 -101 -102 -83 -82 0
-61 -63 -101 -102 -82 -83 0
-51 -82 -101 -102 -83 -53 0
-31 -82 -102 -101 -83 -33 0
-66 -76 -102 -101 -72 -61 0
-75 -65 -101 -102 -72 -61 0
-72 -55 -102 -101 -51 -75 0
-72 -54 -101 -102 -74 -51 0
-72 -73 -101 -102 -51 -53 0
-65 -55 -101 -102 -51 -62 0
-51 -62 -102 -101 -53 -63 0
-33 -52 -101 -53 -31 -102 0
-76 -75 -85 -84 -66 -64 0
-76 -75 -85 -83 -63 -66 0
-63 -76 -84 -74 -66 -83 0
-75 -63 -83 -74 -65 -84 0
-75 -53 -84 -74 -83 -55 0
-65 -53 -83 -55 -64 -84 0
-62 -76 -84 -74 -66 -82 0
-62 -75 -82 -74 -84 -65 0
-75 -55 -82 -74 -52 -84 0
-64 -65 -84 -55 -52 -82 0
-61 -76 -84 -74 -66 -81 0
-74 -75 -81 -84 -65 -61 0
-51 -74 -81 -75 -55 -84 0
-51 -64 -81 -55 -65 -84 0
-66 -73 -76 -62 -82 -83 0
-75 -65 -62 -73 -83 -82 0
-75 -52 -83 -73 -55 -82 0
-66 -73 -76 -61 -83 -81 0
-75 -65 -83 -73 -81 -61 0
-51 -73 -81 -83 -75 -55 0
-73 -54 -81 -74 -51 -83 0
-55 -63 -81 -65 -51 -83 0
-76 -72 -81 -61 -66 -82 0
-72 -75 -82 -61 -81 -65 0
-75 -55 -81 -82 -51 -72 0
-51 -74 -81 -54 -72 -82 0
-72 -73 -81 -63 -82 -61 0
-31 -73 -82 -72 -81 -33 0
-51 -65 -81 -55 -82 -62 0
-51 -64 -81 -54 -82 -62 0
-51 -63 -81 -62 -53 -82 0
-31 -33 -81 -82 -63 -62 0
-64 -55 -74 -72 -52 -65 0
-74 -71 -64 -51 -65 -55 0
-73 -65 -52 -63 -72 -55 0
-51 -73 -71 -55 -63 -65 0
-72 -71 -55 -51 -62 -65 0
-72 -71 -54 -51 -64 -62 0
-51 -62 -71 -53 -63 -72 0
-40 -70 -57 -38 -58 -67 0
-18 -67 -57 -20 -58 -70 0
-18 -70 -38 -67 -37 -20 0
-70 -67 -18 -20 -27 -28 0
-58 -67 -38 -69 -57 -39 0
-29 -69 -57 -58 -67 -28 0
-19 -67 -57 -69 -58 -18 0
-30 -57 -38 -60 -28 -37 0
-18 -57 -20 -60 -37 -38 0
-28 -18 -57 -60 -27 -20 0
-60 -56 -28 -30 -38 -36 0
-60 -56 -20 -18 -38 -36 0
-60 -56 -27 -37 -36 -30 0
-60 -56 -20 -17 -37 -36 0
-60 -56 -26 -28 -20 -18 0
-29 -59 -57 -38 -37 -28 0
-59 -19 -57 -38 -37 -18 0
-59 -19 -28 -57 -27 -18 0
-29 -38 -56 -59 -36 -28 0
-19 -38 -56 -59 -36 -18 0
-37 -36 -59 -27 -56 -29 0
-59 -19 -37 -36 -17 -56 0
-28 -27 -56 -58 -37 -36 0
-58 -36 -37 -18 -56 -17 0
-58 -26 -18 -27 -56 -17 0
-58 -17 -8 -56 -16 -7 0
-40 -37 -20 -18 -27 -28 0
-40 -26 -20 -36 -28 -18 0
-40 -27 -20 -26 -17 -36 0
-25 -18 -35 -28 -20 -40 0
-40 -35 -20 -27 -25 -17 0
-40 -35 -25 -26 -20 -16 0
-18 -24 -34 -28 -40 -20 0
-40 -34 -20 -17 -24 -27 0
-24 -34 -10 -40 -7 -27 0
-24 -34 -20 -40 -16 -26 0
-15 -24 -34 -20 -40 -25 0
-24 -10 -5 -25 -34 -40 0
-16 -34 -10 -40 -6 -14 0
-36 -28 -39 -26 -18 -19 0
-35 -39 -25 -28 -19 -18 0
-35 -39 -25 -27 -17 -19 0
-18 -24 -34 -19 -28 -39 0
-19 -34 -39 -17 -24 -27 0
-9 -24 -39 -34 -7 -27 0
-16 -24 -39 -26 -34 -19 0
-9 -24 -39 -34 -6 -26 0
-25 -15 -34 -19 -39 -24 0
-9 -24 -39 -25 -34 -5 0
-9 -15 -39 -14 -34 -5 0
-26 -18 -38 -36 -27 -17 0
-27 -8 -38 -26 -36 -7 0
-16 -8 -38 -36 -17 -7 0
-25 -18 -35 -27 -17 -38 0
-35 -38 -25 -27 -8 -7 0
-27 -18 -34 -38 -17 -24 0
-27 -8 -34 -24 -7 -38 0
-18 -24 -34 -38 -16 -26 0
-26 -24 -34 -38 -8 -6 0
-25 -15 -38 -18 -34 -24 0
-24 -25 -34 -38 -5 -8 0
-14 -8 -34 -7 -38 -17 0
-16 -8 -38 -14 -34 -6 0
-14 -8 -38 -15 -34 -5 0
-16 -24 -37 -17 -34 -26 0
-24 -34 -6 -26 -37 -7 0
-15 -24 -37 -25 -34 -17 0
-25 -24 -34 -37 -5 -7 0
-14 -16 -37 -6 -34 -7 0
-14 -15 -37 -34 -5 -7 0
-36 -25 -34 -24 -15 -16 0
-24 -34 -6 -25 -36 -5 0
-36 -34 -6 -5 -15 -14 0
-30 -24 -6 -16 -14 -10 0
-30 -24 -10 -15 -5 -14 0
-30 -13 -6 -10 -16 -23 0
-23 -10 -5 -30 -13 -15 0
-9 -29 -6 -24 -16 -14 0
-9 -14 -24 -15 -29 -5 0
-29 -16 -6 -13 -9 -23 0
-9 -23 -13 -29 -15 -5 0
-14 -28 -17 -24 -7 -8 0
-14 -28 -6 -16 -8 -24 0
-14 -15 -24 -28 -5 -8 0
-23 -13 -8 -28 -7 -17 0
-23 -13 -8 -28 -6 -16 0
-23 -15 -5 -28 -13 -8 0
-23 -8 -4 -28 -13 -14 0
-14 -24 -6 -27 -16 -7 0
-14 -27 -5 -15 -24 -7 0
-23 -13 -6 -27 -16 -7 0
-23 -15 -5 -27 -7 -13 0
-23 -14 -4 -13 -7 -27 0
-14 -24 -6 -5 -15 -26 0
-23 -15 -5 -26 -6 -13 0
-23 -4 -6 -26 -14 -13 0
-23 -14 -5 -13 -4 -25 0
5 6 0
5 7 0
6 7 0
1 2 3 4 0
9 8 10 0
-145 -11 -20 -101 -102 114 0
82 81 89 90 0
84 83 0
84 480 0
49 0
-45 324 0
-46 328 0
-19 -14 -42 527 0
-29 -24 -43 534 0
-59 -45 -55 546 0
-65 -46 -69 547 0
-6 -5 -45 -107 -110 0
-5 -7 -45 -108 -110 0
-7 -6 -46 -108 -110 0
-15 -16 -45 -107 -110 0
-15 -17 -45 -108 -110 0
-16 -17 -46 -108 -110 0
-18 -16 -46 -109 -110 0
-25 -27 -45 -108 -110 0
-26 -28 -46 -109 -110 0
-37 -36 -46 -108 -110 0
-36 -38 -46 -109 -110 0
-1 -5 -45 -52 -59 0
-6 -1 -46 -62 -69 0
-2 -5 -45 -53 -59 0
-6 -2 -46 -63 -69 0
-3 -5 -45 -54 -59 0
-6 -3 -46 -64 -69 0
-14 -12 -34 -39 -43 0
-15 -12 -45 -53 -59 0
-12 -16 -46 -63 -69 0
-59 -13 -15 -45 -54 0
-105 -42 -52 -55 -110 0
-26 -23 -46 -64 -69 0
-110 -43 -53 -55 -105 0
-65 -43 -63 -105 -110 0
-75 -43 -73 -105 -110 0
-105 -43 -83 -85 -110 0
-19 -17 -42 -52 -57 0
-19 -18 -42 -52 -58 0
-19 -17 -42 -62 -67 0
-19 -18 -42 -62 -68 0
-29 -26 -43 -53 -56 0
-29 -27 -43 -53 -57 0
-29 -28 -43 -53 -58 0
-29 -27 -43 -63 -67 0
-29 -28 -43 -63 -68 0
-29 -28 -43 -73 -78 0
-106 -5 -6 -46 -101 -110 0
-16 -15 -46 -102 -106 -110 0
-26 -25 -46 -103 -106 -110 0
-35 -36 -46 -104 -106 -110 0
-18 -2 -6 -8 -11 -19 -43 -46 0
-11 -2 -5 -8 -18 -19 -43 -45 0
-29 -28 -36 -38 -46 0
-18 -19 -36 -38 -46 0
-19 -17 -36 -37 -46 0
-28 -18 -19 -26 -46 0
-19 -18 -35 -38 -45 0
-29 -27 -35 -37 -45 0
-19 -17 -35 -37 -45 0
-17 -19 -25 -27 -45 0
107 102 103 104 105 106 0
-93 517 525 535 537 538 539 547 0
97 91 93 96 98 100 540 0
24 21 22 25 29 30 236 0
108 102 103 105 106 107 0
36 37 38 39 40 0
87 83 85 86 88 0
95 91 92 93 96 99 545 0
82 84 0
81 84 89 90 0
34 31 35 36 39 40 255 0
24 23 27 29 30 201 237 0
51 52 53 59 60 0
-94 518 526 533 540 542 545 558 0
13 14 16 17 19 20 162 0
50 0
24 22 30 219 220 222 226 231 233 237 241 0
-60 53 54 58 336 374 377 0
40 35 36 38 39 0
-57 -59 -67 -70 0
-58 -38 -40 -59 0
-68 -58 -59 -70 0
-78 -58 -59 -80 0
-37 -40 -57 -59 0
-37 -40 -67 -69 0
-102 -33 -40 -42 -103 0
-448 -449 0
-433 -434 0
-209 -208 0
592 -46 -65 -70 0
-110 -105 550 0
-30 -29 0
-27 -30 -67 -69 0
-37 -27 -30 -36 -46 0
-30 -27 -35 -37 -45 0
-30 -26 -56 -59 0
-30 -27 -57 -59 0
-68 -28 -30 -69 0
-78 -28 -30 -79 0
-46 -23 -26 -64 -70 0
-235 -234 0
-224 -223 0
-494 -493 0
-94 -100 -104 -110 0
-487 -486 0
-172 -171 0
-19 -20 0
-42 -14 -20 572 0
-78 -18 -20 -79 0
-20 -18 -68 -69 0
-59 -16 -20 -56 0
-35 -18 -20 -38 -45 0
-28 -18 -20 -25 -45 0
-17 -20 -67 -69 0
-36 -18 -20 -38 -46 0
-36 -17 -20 -37 -46 0
-17 -20 -57 -59 0
-18 -20 -58 -59 0
-100 -12 -19 -93 0
-6 -2 -8 -11 -18 -20 -43 -46 0
-8 -2 -5 -11 -18 -20 -43 -45 0
-46 -17 -20 -26 -27 0
-70 -12 -16 -46 -63 0
-45 -13 -15 -54 -60 0
-53 -12 -15 -45 -60 0
-34 -12 -14 -40 -43 0
-9 -10 0
-1 -6 -46 -62 -70 0
-2 -6 -46 -63 -70 0
-3 -6 -46 -64 -70 0
-5 -1 -45 -52 -60 0
-3 -5 -45 -54 -60 0
-2 -5 -45 -53 -60 0
-102 -43 -52 -60 -103 0
-45 -55 -60 591 0
-59 -60 0
-40 -36 -56 -59 0
-30 -28 -58 -59 0
-60 -23 -25 -45 -54 0
-358 -359 0
-351 -352 0
-373 -374 0
-344 -343 0
-364 -365 0
-39 -40 0
-280 -279 0
-30 -28 -36 -38 -46 0
-78 -38 -40 -79 0
-68 -38 -40 -69 0
-35 -28 -30 -38 -45 0
-275 -274 0
-284 -283 0
-261 -262 0
-268 -269 0
-287 -286 0
-253 -254 0
-70 -69 0
-102 -43 -62 -70 -103 0
-103 -43 -72 -80 -102 0
579 -24 -30 -43 0
-78 -68 -69 -80 0
-468 -469 0
78 72 73 74 75 76 0
-459 -460 0
-414 -415 0
-396 -397 0
-422 -421 0
-419 -418 0
-389 -388 0
-403 -404 0
-423 -424 0
-106 -45 -105 370 0
-107 -46 -105 415 0
-105 -42 -102 185 0
-103 -43 -105 230 0
-241 -242 0
-239 -238 0
-216 -217 0
-25 -27 -29 -43 -66 -67 -70 0
-243 -244 0
-230 -229 0
-46 -18 -20 -26 -28 0
-288 -289 0
-441 -442 0
-370 -369 0
-376 -377 0
-378 -379 0
-199 -198 0
-196 -197 0
-193 -194 0
-190 -189 0
-184 -185 0
-178 -179 0
-164 -163 0
-152 -151 0
-145 -144 0
33 31 32 35 36 38 0
66 61 63 64 65 67 0
66 61 63 64 67 68 0
563 102 103 105 108 109 599 0
26 21 23 24 27 28 0
-108 106 575 582 587 593 603 604 0
13 11 14 16 17 18 0
11 13 14 15 16 17 0
12 11 14 15 16 18 0
17 11 14 15 19 20 165 0
165 11 14 15 19 20 195 0
82 83 0
-105 -34 -40 -104 319 0
-365 -319 0
-410 -319 0
-455 -319 0
-500 -319 0
-545 -319 0
-324 -235 0
-328 -149 0
-328 -194 0
-328 -239 0
-328 -284 0
-374 -328 0
-43 313 0
-494 -313 0
-60 -55 -105 -106 324 0
-359 -313 0
-324 -280 0
-313 -269 0
-75 -80 -105 -108 331 0
-449 -313 0
-422 -331 0
-105 -65 -70 -107 328 0
-103 -24 -30 -105 313 0
-331 -242 0
-331 -287 0
-404 -313 0
-539 -313 0
-377 -331 0
-324 -145 0
-324 -190 0
-331 -152 0
-331 -197 0
-40 246 269 275 280 284 285 0
15 12 13 18 19 158 164 185 0
83 481 0
-106 103 563 591 596 597 598 599 0
16 12 14 15 17 -18 19 -102 -109 -471 0
13 11 12 15 19 20 191 0
17 15 16 19 20 0
107 102 103 104 106 108 0
32 31 33 35 36 37 0
37 31 33 34 35 36 0
7 141 0
-398 -390 0
16 18 19 20 161 165 166 173 0
12 11 14 15 16 17 0
12 11 13 15 16 17 0
14 12 13 15 16 17 0
-40 254 269 275 280 284 285 0
26 27 28 29 30 0
62 61 63 66 67 68 0
15 17 18 19 20 0
-578 -570 0
-571 -570 0
-390 -391 0
-398 -391 0
-571 -578 0
-59 -7 -57 -109 -110 0
16 17 18 19 20 0
28 25 26 27 0
29 25 26 27 30 0
-6 -7 146 0
5 146 0
11 12 13 15 17 -328 0
-30 209 217 220 230 242 244 0
40 35 37 38 39 0
-46 -6 -109 -110 0
28 25 26 29 30 0
20 3 4 -5 13 14 -15 16 18 196 336 0
12 11 13 16 17 -324 0
67 61 62 64 65 66 0
57 52 53 54 55 58 0
53 51 52 54 0
60 51 52 54 59 0
109 104 105 107 110 562 597 0
103 104 107 109 110 567 573 0
150 -8 -142 0
-236 -232 0
103 102 104 105 106 108 0
67 62 66 69 70 387 399 0
32 33 34 35 37 38 0
-8 -35 -36 -106 -109 0
-108 -45 -107 -110 0
-108 -107 -109 -324 0
16 11 15 19 20 165 166 173 0
-18 162 165 166 173 186 195 198 199 0
-600 -596 0
-379 -20 165 166 173 186 197 -342 0
101 103 104 105 109 110 0
12 13 14 16 17 18 0
-600 -597 0
14 12 13 15 17 18 0
6 142 0
12 11 13 14 16 18 0
26 -18 -20 25 29 30 -57 -60 0
66 61 62 64 65 68 0
11 -7 18 -105 -106 -108 165 0
12 13 14 15 16 18 0
239 -30 206 214 218 235 244 0
18 11 12 13 15 17 0
70 61 62 63 69 0
19 12 16 17 20 174 180 0
201 23 24 26 27 30 243 0
63 61 67 -69 391 405 411 423 0
12 11 14 16 17 18 0
12 11 13 16 17 18 0
108 102 104 105 106 107 0
110 105 106 107 108 109 0
54 51 53 59 60 0
-596 -597 0
-236 -231 0
-191 -186 0
-231 -232 0
28 25 27 29 30 0
63 62 65 68 69 386 389 422 0
36 35 37 38 0
24 21 22 25 26 28 0
23 21 24 25 26 28 0
22 21 23 25 26 28 0
21 22 26 27 29 30 218 0
11 16 165 180 182 183 187 188 195 0
85 84 86 87 88 0
51 52 60 354 357 364 371 0
82 488 0
36 31 32 34 35 37 0
53 52 54 59 60 0
17 16 19 20 167 174 180 0
-220 -129 -237 -331 0
110 101 104 105 107 570 603 0
101 104 106 107 110 570 603 0
16 12 13 17 19 20 180 0
272 -34 35 36 -285 0
25 23 24 26 29 30 201 0
14 11 16 17 19 20 165 0
-60 344 352 353 354 360 374 375 0
19 11 14 15 16 20 165 0
15 18 20 163 169 176 178 182 184 0
17 15 16 18 0
12 11 13 15 16 18 0
33 32 34 35 36 37 0
34 32 33 36 37 38 0
-32 11 15 16 17 -18 -38 481 488 0
-92 516 525 526 528 530 531 550 0
14 12 13 17 18 -328 0
32 31 33 36 37 38 0
562 104 105 109 561 570 599 600 0
-26 25 28 -46 -108 -110 0
64 62 66 69 70 384 420 0
73 71 75 77 79 80 451 0
-186 -187 0
-191 -187 0
31 -14 -18 -22 -28 33 37 38 39 40 0
51 56 60 349 350 351 356 357 358 376 378 0
22 21 23 24 26 28 0
21 22 23 25 26 27 0
12 13 14 15 18 -331 0
64 61 63 69 70 0
600 105 106 109 561 578 602 604 0
12 11 15 17 19 20 173 0
28 22 23 24 29 30 236 0
170 13 15 17 -18 19 20 -166 0
-17 -5 -15 -107 -108 0
-353 -345 0
-250 24 25 -26 27 29 30 -246 0
-346 -353 0
-346 -345 0
64 62 63 69 70 0
-80 428 442 449 460 461 469 0
78 72 74 75 79 80 461 0
74 73 75 76 79 80 432 0
-72 80 432 435 437 438 441 452 0
16 11 13 14 15 18 0
61 62 63 65 66 68 0
65 62 63 64 66 68 0
201 23 24 25 29 30 240 0
31 39 40 255 271 273 277 278 282 0
29 21 26 30 219 225 240 0
142 -5 -7 0
106 86 87 -105 107 109 -390 -471 595 0
98 93 94 95 99 520 521 532 0
-108 -35 -36 -106 0
13 11 14 15 17 18 0
-281 -277 0
-281 -276 0
-276 -277 0
22 24 25 -29 208 237 241 0
19 11 14 15 20 -103 -104 191 0
216 24 25 -29 -201 237 241 0
-495 11 15 16 18 -488 0
-51 -54 -62 -64 -313 0
27 21 22 24 25 28 0
-11 -8 -18 -31 -35 -37 0
25 28 30 208 220 221 226 227 236 0
162 16 17 19 20 -84 183 260 0
24 21 22 28 29 30 236 0
-435 -443 0
60 54 337 339 342 348 349 351 354 373 378 0
272 -34 35 38 -281 0
51 59 60 -62 -63 -82 0
221 25 26 28 201 -218 0
-221 11 -15 16 18 190 -218 -241 0
6 -14 -15 -24 -27 0
12 11 15 16 19 20 173 0
51 59 345 348 353 360 374 375 377 379 0
19 15 16 18 20 0
24 21 23 25 27 28 0
-443 -436 0
-435 -436 0
226 -24 27 29 30 -237 0
13 11 15 18 166 191 0
64 61 62 63 0
13 11 14 15 16 -331 0
19 15 16 20 195 0
158 12 13 15 16 162 183 0
19 13 14 15 17 20 162 0
594 101 102 104 -105 106 110 600 0
31 32 34 35 37 38 0
69 62 65 66 67 70 398 0
-57 15 16 18 -59 0
-261 61 -62 63 391 471 488 0
-216 61 -62 63 391 471 488 0
26 25 30 -43 -53 -58 201 221 227 0
27 21 22 24 26 28 0
14 13 15 17 20 163 168 0
14 13 16 17 20 163 167 0
78 71 73 74 75 76 0
-24 25 26 28 -43 -354 0
-24 25 27 28 -43 -354 0
-261 24 25 -29 237 241 -246 0
260 33 35 -38 -246 282 285 0
77 71 72 73 75 78 0
17 13 14 18 163 164 168 0
23 22 24 26 27 28 0
-43 -24 26 27 28 -354 0
-166 -24 26 27 28 -43 0
-399 52 54 -55 -382 0
12 11 14 15 17 18 0
22 21 23 26 27 28 0
53 51 54 56 57 58 0
216 21 25 26 30 218 240 0
24 23 25 26 201 240 0
24 21 25 29 30 215 220 0
-104 563 571 578 585 586 602 603 0
108 103 104 106 572 601 602 0
34 32 35 39 40 247 281 0
-399 -24 26 27 28 -43 0
75 71 72 74 77 78 0
-67 15 16 18 -69 0
78 71 73 74 75 77 0
-216 -52 53 336 346 471 488 0
-441 -52 53 336 346 471 488 0
-442 -52 53 336 346 471 488 0
-217 -52 53 336 346 471 488 0
-261 -52 53 336 346 471 488 0
11 13 15 17 19 20 166 0
-261 -22 26 27 28 471 488 0
36 34 35 39 246 247 255 289 0
38 32 35 37 250 -313 0
27 25 28 -56 -59 0
-27 -8 -28 -35 -37 0
-578 -13 -18 -22 -28 0
23 21 24 25 26 27 0
397 -62 63 64 69 -389 0
587 -107 561 581 591 600 601 602 0
212 21 26 28 29 219 242 0
24 23 26 29 30 201 232 0
222 21 26 29 30 215 232 0
19 15 18 20 191 0
12 11 16 17 19 20 173 0
388 -61 62 63 65 67 70 406 0
58 51 56 57 59 60 0
-39 31 36 255 270 286 288 0
72 73 74 79 80 0
19 11 16 17 20 165 180 0
78 71 72 74 75 76 0
228 25 26 27 201 -218 0
38 36 39 251 259 270 280 287 0
23 21 22 25 27 28 0
28 26 27 201 -218 219 0
20 14 15 16 19 -488 -492 0
-231 25 -26 28 -324 0
33 35 36 40 251 253 259 261 286 0
247 32 34 36 39 40 277 0
85 -13 -15 -16 480 0
-393 -1 83 -481 495 0
6 -13 -15 25 26 28 201 227 0
34 35 36 37 -472 -480 0
33 32 35 36 251 252 285 0
70 61 62 64 69 0
406 62 69 70 382 405 420 0
423 62 64 66 70 382 421 0
89 81 90 480 0
373 51 52 54 374 376 377 378 379 0
67 61 68 69 70 411 0
65 61 66 69 70 391 420 0
390 61 64 69 70 0
58 54 55 59 60 345 371 0
60 52 59 -83 -84 -101 -103 0
13 11 15 19 20 166 191 0
19 13 15 20 160 161 166 191 0
-17 -8 -18 -36 -37 0
69 62 66 67 70 386 398 413 0
-27 -8 -28 -36 -37 0
177 11 15 16 -18 -173 195 0
-27 -26 -35 -36 0
-184 25 -29 -173 201 238 240 0
57 -52 56 59 60 342 353 354 360 0
-52 56 59 60 336 354 360 375 0
-493 34 36 38 -39 251 -480 0
-60 -45 52 53 342 374 377 591 0
33 31 32 37 39 40 276 0
62 70 388 398 399 400 405 406 420 0
74 71 72 73 0
31 32 34 35 39 281 284 287 0
-43 -12 -14 -34 35 38 281 0
-374 -6 8 25 -26 28 236 0
-351 -22 25 27 28 471 488 0
359 54 55 57 -60 336 372 0
56 55 57 58 0
34 31 38 39 40 255 0
-352 -22 25 27 28 471 488 0
77 71 73 74 76 78 0
-283 -6 8 25 -26 28 236 0
34 35 38 281 -471 -480 0
-20 -18 72 73 74 -78 0
-62 386 390 391 393 395 396 397 0
-69 35 36 38 -67 0
66 61 63 68 405 421 422 0
65 61 62 64 67 68 0
381 63 64 69 70 0
100 94 95 97 99 516 552 0
102 101 104 105 109 110 0
108 103 104 105 106 107 0
101 -12 -17 -18 -103 105 106 110 0
62 -12 -14 63 -83 -84 387 388 389 406 420 0
-63 382 392 398 400 403 404 420 0
-24 25 27 28 -43 -166 0
396 -62 70 381 390 394 405 406 0
84 3 -6 -7 -12 -14 483 0
110 104 105 106 109 567 574 575 0
22 23 24 25 27 28 0
-193 -6 8 25 -26 28 236 0
35 -6 -7 -11 -17 33 34 39 40 0
-570 34 35 36 37 -562 0
34 32 35 36 247 286 287 0
32 31 34 36 37 38 0
-88 11 15 16 18 -83 -84 0
254 38 39 250 255 270 271 277 284 287 0
101 105 106 107 108 109 0
135 -5 -84 -400 -496 0
-40 -10 -24 -26 -34 0
11 13 16 17 19 20 166 0
20 11 16 17 19 167 180 0
34 31 32 35 36 38 0
28 23 25 26 201 230 241 0
-489 54 -55 -472 -480 0
23 21 22 25 28 -331 0
107 104 106 109 561 562 570 604 0
81 89 90 488 0
14 11 12 15 19 20 191 0
-386 25 26 28 218 -381 0
23 22 24 25 26 28 0
68 62 63 67 69 410 411 0
12 13 14 17 18 -56 -59 0
38 37 246 247 255 270 271 276 0
31 35 37 39 40 -255 265 0
-328 52 -53 337 353 -355 0
-169 4 -7 -84 -498 0
64 61 69 390 415 422 424 0
-25 26 204 212 225 234 235 240 0
54 53 60 336 373 376 378 0
1 4 -6 -7 -83 86 480 489 0
-24 -7 -8 -12 -13 -17 -27 -109 0
29 -7 -10 28 -45 0
423 -69 388 396 398 400 406 421 0
40 -38 39 -107 -108 -109 0
285 32 33 36 -38 39 40 270 0
346 -17 -20 56 60 336 337 338 345 353 378 0
103 101 102 104 109 110 0
344 52 54 -60 -337 0
62 63 67 68 -319 411 0
481 472 493 494 0
-51 52 55 58 59 338 344 371 0
-25 -26 -35 -37 0
-27 -15 -16 -25 0
143 -8 -141 0
360 52 56 60 340 341 342 345 358 372 375 0
74 71 73 79 80 0
55 51 52 54 56 57 0
142 -141 -146 0
-466 -484 -486 0
-476 -87 -89 478 0
-89 -88 -477 478 0
-491 11 15 -16 17 18 -488 0
-37 39 251 255 270 281 285 287 0
34 36 37 39 247 260 262 289 0
18 -5 -14 -34 -36 -37 0
45 -5 -25 -324 0
589 101 -104 105 106 110 600 0
173 11 12 16 18 19 20 0
-108 -25 -26 -106 0
346 59 336 337 338 345 353 374 377 379 0
13 11 12 16 19 20 187 0
-17 -16 -35 -36 0
-60 -313 374 377 379 -495 0
64 62 63 66 67 68 0
114 -1 -141 0
-39 253 260 268 279 283 286 0
73 74 75 78 80 433 461 0
37 31 32 34 35 -328 0
37 34 38 249 257 283 284 0
-58 -56 -59 0
-486 -59 -471 -481 0
79 71 73 75 78 80 461 0
21 23 24 25 27 -68 -69 0
-31 -5 -6 -11 -16 38 -331 0
251 36 39 40 259 266 278 0
17 12 13 16 20 163 180 0
17 12 13 16 163 164 180 0
271 31 35 37 38 255 0
237 -21 25 26 -205 236 0
19 11 12 16 20 180 195 0
11 13 17 18 166 186 0
69 62 66 389 398 399 405 420 0
-497 1 -6 25 -26 201 237 241 242 -488 0
400 -63 -313 381 398 399 420 0
37 38 253 254 261 262 268 269 276 279 0
-43 -24 25 236 237 240 -354 0
-266 35 36 38 -313 0
-228 -34 -233 271 272 0
69 62 63 65 68 406 422 0
68 63 64 381 386 394 411 0
66 61 62 64 67 68 0
27 21 22 24 25 26 0
23 21 25 26 29 -43 214 579 0
80 74 426 433 435 447 456 457 461 468 0
63 62 64 65 67 68 0
14 11 16 18 165 187 0
-365 72 73 -74 75 76 81 -84 432 488 0
142 -24 -26 -34 -37 -146 0
-65 -46 62 64 -226 382 0
204 24 -25 26 28 -201 232 0
-17 15 162 176 182 191 196 197 0
66 62 63 68 69 405 422 0
79 73 75 76 77 80 428 0
71 73 78 79 80 451 452 0
218 25 -28 207 215 240 -328 0
18 11 15 20 169 182 193 196 0
-74 73 436 453 454 455 456 457 461 0
11 13 14 16 18 -331 0
189 -15 167 174 180 190 192 195 0
56 51 57 59 345 363 365 379 0
57 51 52 58 59 354 365 0
-131 -13 18 -146 174 0
-69 -7 15 16 -17 -67 0
-122 -114 -496 0
57 56 58 60 336 337 345 353 364 0
35 34 36 39 254 255 285 0
11 12 16 17 -36 -38 -46 173 0
22 21 26 27 28 218 0
11 14 15 18 19 20 165 0
204 -12 -13 24 -25 26 28 232 255 0
-424 25 26 27 35 37 -38 282 0
19 13 16 18 20 161 166 0
287 34 35 36 247 260 286 0
280 34 36 39 246 247 255 277 287 0
22 27 29 30 207 218 231 0
598 104 105 107 110 561 597 603 0
76 71 72 73 77 78 0
76 72 73 74 75 77 0
40 35 39 247 259 272 282 0
58 51 52 54 55 56 0
65 61 63 64 67 68 0
32 31 33 35 36 -67 -69 0
-214 61 63 -240 -319 411 0
-135 -34 38 -141 -331 0
-259 61 63 -285 -319 411 0
-240 25 26 28 201 222 228 0
24 21 22 23 25 26 0
56 51 52 53 57 58 0
75 -58 -59 71 73 74 461 0
58 53 55 56 336 376 377 0
58 51 53 54 55 56 0
-143 -28 30 -38 40 -147 240 285 0
24 25 27 -28 29 30 -246 -249 -278 0
78 7 -34 -35 71 72 74 0
58 51 52 53 55 56 0
220 24 25 29 30 201 207 215 0
73 71 75 79 80 440 461 0
78 7 -34 -35 72 73 74 0
-69 -68 72 73 74 -78 0
-411 -45 54 -55 336 337 345 0
31 34 35 255 281 282 285 0
-74 73 430 439 450 453 454 455 461 0
-2 -5 -6 -12 17 18 0
78 72 73 76 79 80 457 0
289 35 37 -38 -284 288 0
22 23 24 25 29 30 236 0
-199 25 26 29 -195 0
-195 35 36 39 -199 0
-105 -5 -7 -8 -34 -109 -328 0
-4 -6 -7 -8 -34 -324 0
-105 -7 -8 -34 -109 -110 0
17 -5 -8 11 16 -104 -105 -109 -328 0
-14 -5 -7 -8 18 -105 -109 -328 0
-109 -110 -146 0
-35 -15 -16 -37 0
68 -7 8 61 64 66 399 422 0
-324 11 12 14 16 18 0
80 71 72 74 79 0
5 -17 -25 -27 -45 0
102 -8 101 103 104 -106 110 0
283 34 35 37 246 247 255 284 0
64 -38 -40 61 63 -68 0
2 -5 -7 8 62 -69 -82 -84 135 403 414 423 0
73 7 -34 -35 74 426 432 441 442 0
30 22 25 26 206 218 243 0
147 -8 -146 0
266 35 36 39 40 251 -255 0
51 52 58 59 359 360 371 0
109 103 104 106 110 574 575 600 0
437 73 -74 76 77 80 432 454 0
24 23 25 27 201 237 0
28 25 26 -57 -59 0
81 31 35 37 38 -40 84 486 0
26 25 30 208 216 218 240 0
-30 201 219 225 239 242 244 0
-33 -37 -38 51 56 59 60 346 0
-20 164 174 180 194 197 199 0
-20 -64 -66 -83 -84 180 194 197 199 0
429 -71 72 74 79 426 447 449 461 469 0
15 13 16 19 20 161 182 0
52 54 58 340 341 354 371 0
51 -2 -5 -45 52 54 0
-55 -43 -45 52 -270 360 0
12 13 17 18 163 164 180 0
-69 388 390 391 403 411 421 423 0
36 34 39 252 255 277 280 287 0
-114 85 88 -141 488 0
-30 201 221 227 235 239 244 0
-21 -5 -7 -8 -11 15 -25 -328 0
204 23 -25 26 29 30 -201 240 0
32 31 34 38 39 40 0
-276 -5 -25 -324 0
11 12 13 15 17 -56 -59 0
-313 35 37 -38 -267 282 0
20 -6 -9 15 17 -56 -58 0
67 62 64 68 -313 411 0
17 15 18 -56 -59 0
27 25 26 -58 -59 0
74 -58 -59 72 73 -78 0
57 54 56 58 336 354 0
373 -59 343 347 360 376 378 0
373 -59 343 346 358 376 378 0
442 -72 426 437 440 441 461 0
32 34 -35 36 39 40 247 285 0
-432 2 -8 -82 -85 89 90 480 0
-182 -135 -191 0
14 11 -15 16 17 18 -32 -35 480 0
-266 -63 -285 -313 382 411 0
24 21 25 27 29 217 220 0
-78 -38 -40 71 73 74 0
-67 -37 -40 61 62 63 0
-68 -38 -40 61 62 63 0
-27 21 28 29 221 225 236 242 0
259 31 33 36 39 40 251 270 0
243 -6 -7 22 25 26 30 -51 -56 218 0
63 61 62 68 411 421 422 0
77 72 73 74 456 468 469 0
-75 -68 -69 71 72 73 456 457 0
-78 15 16 17 -18 -79 0
-9 -7 -29 -67 -68 0
146 -7 -141 0
29 25 28 -37 -40 -56 -57 0
198 16 17 -18 162 177 180 199 0
29 -7 -8 -16 -17 25 30 0
46 -7 -109 -110 0
105 103 104 561 596 597 600 605 0
-449 61 62 64 472 481 0
-268 61 62 64 81 82 0
-55 51 54 -82 -83 -102 -105 0
64 -2 -6 -46 61 62 0
-269 61 62 64 472 481 0
-493 51 52 60 -488 0
-42 -14 15 16 18 -347 0
-239 7 35 37 38 147 0
-194 7 35 37 38 147 0
35 34 38 253 254 255 281 0
28 26 30 206 214 218 234 236 0
34 35 36 37 -82 -83 -101 -102 0
57 52 55 56 60 353 378 0
18 14 16 17 163 164 165 0
-15 18 -32 -35 160 167 180 187 346 0
-337 -353 -471 0
71 73 436 440 452 453 456 457 461 0
68 61 62 67 398 411 0
67 -58 -59 62 382 383 398 411 0
-29 28 208 216 218 219 225 238 0
36 35 38 -57 -59 0
21 25 28 -57 -59 220 226 0
14 11 13 15 18 -57 -59 0
12 11 13 15 18 -57 -59 0
34 31 33 35 37 38 0
-150 -15 18 19 20 -188 0
-188 -15 18 -324 0
15 11 19 20 165 181 195 0
29 30 206 214 227 231 233 237 240 242 0
-8 -18 -68 -69 150 195 0
-24 227 228 230 231 234 238 0
-60 344 345 346 353 374 377 379 0
59 51 53 57 58 346 374 0
20 11 12 13 15 19 -135 0
32 34 35 38 39 247 287 0
-24 -4 -15 -16 -25 0
15 14 17 18 -165 175 0
36 38 246 274 277 280 287 -313 0
229 21 25 26 30 -218 240 241 0
11 13 14 18 19 20 191 0
-27 -8 -28 -56 -57 0
-37 -8 -38 -56 -57 0
-122 71 72 75 -141 -319 0
72 74 75 79 80 432 461 0
-26 21 213 219 226 236 237 0
14 15 16 18 -488 -492 0
-36 15 -17 -37 -46 0
40 33 34 38 39 246 0
13 11 12 16 18 -331 0
265 -36 250 -255 276 281 282 0
-590 -3 -9 0
-223 -3 -9 0
-3 -9 129 -144 0
-590 -130 -148 0
-223 -130 -148 0
-590 -129 -144 0
-223 -129 -144 0
-178 -129 -144 0
-73 -53 -54 -72 0
273 31 36 37 40 255 279 0
281 35 38 39 40 0
268 34 35 38 -39 246 286 0
254 35 38 39 255 272 281 284 0
259 34 35 38 39 251 284 287 0
-497 35 38 39 -64 -67 -70 0
283 38 -39 270 286 473 -486 0
-472 34 36 37 38 -480 0
262 34 36 37 38 247 279 0
276 37 38 39 40 0
33 31 32 38 39 40 276 0
64 -37 -40 61 63 -67 0
173 11 12 15 18 19 20 0
-46 -7 25 -26 -36 -38 0
-331 -7 -37 -56 -58 0
30 -7 -9 25 26 -57 -58 0
-382 -398 -471 0
270 31 32 37 38 -313 0
-189 7 26 27 28 147 0
-393 -5 -392 -488 -490 0
-18 15 20 162 166 175 195 198 0
75 -58 -59 71 72 73 76 0
69 61 -63 70 393 398 399 420 0
66 63 68 69 70 386 405 0
480 2 5 -13 -14 -82 496 0
-359 62 -63 81 82 382 0
-73 72 429 432 443 446 448 449 0
79 71 72 73 80 0
38 249 253 254 255 271 272 281 -324 0
422 62 63 68 385 405 409 414 0
39 38 254 262 269 276 277 281 0
20 15 17 19 162 165 166 173 0
-20 -17 62 63 64 66 68 0
85 2 4 -84 88 -141 488 0
59 58 60 339 345 346 353 371 0
-261 71 -72 81 435 480 488 0
33 34 38 246 276 277 281 0
-162 52 59 60 -192 341 353 0
-129 85 -141 -142 480 0
16 18 -25 -27 -45 0
17 15 16 -58 -59 0
-69 25 26 27 -68 0
22 21 25 26 218 240 0
244 25 26 29 240 242 0
206 25 26 30 215 218 241 243 0
236 25 28 29 30 0
22 21 25 28 218 236 0
239 25 28 236 238 241 242 0
241 21 25 28 30 220 226 0
237 25 27 29 30 0
243 23 24 25 27 30 201 0
238 25 27 30 237 243 0
226 23 25 27 29 30 201 0
230 25 -30 209 217 220 242 0
237 25 29 30 236 240 0
22 21 23 25 29 30 236 0
216 21 25 30 218 220 226 237 240 0
261 35 38 253 268 281 284 287 0
-216 -72 432 435 437 438 452 471 488 0
-377 15 16 18 25 26 28 0
-359 -33 37 38 276 472 481 0
-377 15 16 18 22 23 24 -27 28 236 0
-344 -11 15 16 -61 64 162 381 382 0
242 26 28 29 201 219 225 231 0
-442 21 25 28 218 221 227 471 488 0
-209 -11 16 17 18 -61 64 381 382 0
58 51 52 55 353 371 0
-359 71 72 74 81 82 0
-374 15 17 18 25 27 28 0
-266 51 52 -53 59 60 -281 357 0
52 51 55 58 -319 371 0
32 33 34 39 40 251 276 0
-208 -11 16 18 -61 64 161 381 382 0
-216 -72 73 74 76 77 78 471 488 0
-216 71 -72 74 435 471 488 0
38 34 37 246 268 269 276 0
33 34 37 39 40 246 276 0
187 16 18 19 20 0
180 11 16 17 18 165 0
12 11 14 16 18 -331 0
196 11 16 18 20 165 180 0
19 11 12 13 18 20 0
593 103 -105 106 109 110 561 587 0
-4 -6 -11 -18 -19 -55 -56 -59 0
-21 -4 -6 -28 -29 -55 -56 -59 0
-4 -6 -31 -38 -39 -55 -56 -59 0
-39 -6 -9 -56 -58 0
-360 72 -75 -313 -338 0
-196 23 26 28 30 -182 201 0
-39 34 246 247 255 276 286 288 0
32 34 38 247 277 -328 0
-68 -18 -20 62 63 64 0
27 21 26 30 212 216 218 234 0
226 21 25 27 28 -218 0
226 21 25 -26 27 29 30 -218 0
-382 62 63 64 -313 0
26 21 23 28 -43 232 534 579 0
-30 -28 71 72 74 -78 0
26 -7 -17 28 -45 241 242 0
-78 51 -58 -72 -82 -84 -313 0
71 72 75 443 461 468 469 0
489 61 62 65 68 481 -488 497 498 0
-76 3 4 -77 84 85 142 0
-63 -12 -13 -66 -86 0
4 -6 -73 -74 -77 0
-75 -12 -13 -73 -85 0
20 15 18 -26 -27 -36 -39 0
-383 62 63 64 -319 0
383 62 63 69 70 0
406 62 63 69 70 387 405 0
386 62 63 68 69 70 405 0
414 62 63 64 66 415 420 0
384 62 63 70 385 386 406 409 0
421 62 63 68 70 386 388 405 0
421 62 63 64 68 389 411 0
383 62 63 65 66 420 0
398 61 62 69 70 0
413 61 62 66 67 398 0
424 61 62 64 69 411 422 0
401 61 62 -398 402 403 404 411 0
422 61 62 68 69 398 400 406 0
400 62 64 69 70 399 420 0
386 62 64 69 70 387 411 0
386 62 64 68 69 70 411 0
423 62 64 66 67 70 399 0
-397 62 -70 381 390 391 0
383 62 69 70 382 398 0
398 62 67 68 69 70 411 0
386 62 69 70 387 398 411 0
384 62 69 70 382 398 406 420 0
40 35 36 37 39 0
265 32 34 35 37 253 254 0
247 32 34 35 36 285 0
75 74 78 79 80 427 461 0
52 53 54 56 57 58 0
14 11 15 16 18 -22 -23 255 0
-167 87 88 -180 481 0
-59 51 57 347 353 373 378 0
-168 -2 -191 0
-176 -3 -191 0
-328 -8 -16 -35 -36 0
37 35 38 -56 -59 0
446 72 -73 74 75 76 432 0
-69 15 16 17 -68 0
184 12 15 16 17 -19 -173 0
19 13 15 17 20 160 166 0
19 11 13 15 20 166 195 0
401 61 -63 65 68 -313 0
-53 -54 -62 -63 0
-32 -33 -51 -52 -319 0
61 -52 -54 -64 -319 0
-45 -16 -25 -26 0
31 33 34 36 37 38 0
-220 -3 480 495 496 0
-410 51 52 53 83 471 0
-345 -52 53 -313 336 0
76 71 73 77 78 -319 0
216 21 24 26 28 217 232 0
-226 -135 -236 0
61 62 398 403 409 410 415 422 424 0
-60 -313 341 349 374 379 -495 0
37 34 38 249 255 -328 0
30 22 23 24 27 29 237 0
37 -3 -5 34 38 255 -328 338 0
356 51 54 -57 -345 0
-43 -12 -14 -34 37 38 -46 0
-24 -5 -7 -25 -34 38 -328 0
-364 61 62 63 83 471 0
-577 -1 -9 0
-9 -1 115 -148 0
-9 -1 -117 153 0
-577 -116 -151 0
-584 -122 -144 0
-171 -122 -144 0
-584 -2 -9 0
-171 -2 -9 0
-171 -123 -148 0
-463 -86 -89 0
-418 -86 -89 0
-418 -490 -493 0
-418 -483 -486 0
-557 -497 -500 0
-467 -484 -487 0
-467 -87 -90 0
-337 -51 52 53 55 57 58 -313 0
337 -52 53 -313 -345 0
-345 -319 -336 0
13 11 14 16 17 -324 0
198 11 14 16 17 20 165 0
-217 61 -62 81 84 391 0
-45 -109 -110 0
102 101 105 107 108 578 605 0
63 64 66 68 69 70 384 0
55 51 54 56 58 -313 0
-54 -52 -61 -62 -313 0
-55 -51 -52 -74 -75 -313 0
-54 -52 -73 -74 0
-442 -62 381 390 391 471 488 0
38 34 35 37 40 247 261 0
-68 61 62 -78 -80 398 0
37 34 38 253 254 261 262 276 0
52 51 57 58 -328 353 0
24 22 23 25 26 27 0
-62 381 393 394 395 399 405 0
411 -17 -20 61 63 64 68 0
6 16 17 18 143 -279 0
396 -62 387 390 391 392 394 397 0
232 21 22 26 28 218 0
208 22 24 26 -29 219 237 241 0
234 26 27 30 233 243 0
228 22 23 26 27 29 209 0
216 21 26 30 218 232 233 240 0
289 31 34 35 39 255 281 0
273 35 -40 252 255 284 287 0
289 35 39 281 282 284 285 287 0
33 31 34 37 38 -328 0
-65 -46 62 -457 -473 -488 0
-40 -38 51 52 -58 353 0
32 31 34 37 38 -328 0
166 11 13 16 19 20 187 0
33 31 34 35 37 -328 0
-359 31 32 34 36 37 472 481 0
54 51 55 57 355 358 359 374 0
-389 -31 36 72 73 74 251 278 0
66 61 -63 392 398 402 421 422 0
63 -61 65 70 383 388 393 420 0
62 65 66 69 70 398 420 0
-457 -46 63 64 -65 381 0
66 61 63 65 67 -319 0
75 -18 -20 72 73 428 432 461 0
-472 -51 52 55 58 -328 -488 0
72 71 427 443 446 447 452 453 456 0
-181 -46 63 64 -65 381 0
-65 -46 62 -181 -473 -488 0
-354 -24 25 26 27 -43 0
56 52 55 58 59 60 353 0
69 386 387 389 390 391 398 411 422 424 0
-106 -103 -109 -110 0
201 23 -25 -34 -38 -45 0
226 23 25 27 28 201 0
365 51 52 -60 354 357 371 0
372 52 54 55 57 337 0
359 52 54 56 59 341 342 0
372 52 54 60 343 354 371 375 0
376 52 54 60 337 340 342 358 0
372 52 54 59 339 359 371 375 379 0
375 52 53 59 60 340 360 0
341 52 59 60 342 353 354 360 0
375 52 55 56 59 60 353 0
379 52 53 56 57 59 342 344 0
357 52 59 60 337 342 360 371 0
372 52 59 337 341 342 346 356 359 360 374 377 0
364 52 53 60 338 343 0
343 52 53 58 342 344 360 371 0
421 -62 70 386 388 390 391 395 405 411 0
406 61 63 68 69 70 405 0
410 61 63 391 392 393 395 409 0
397 63 64 67 68 69 411 0
191 -6 15 -16 18 -103 -105 -107 381 0
18 11 16 166 174 -331 0
-398 11 15 16 17 -399 0
55 57 58 59 60 338 345 0
-56 -57 -59 0
390 -63 -313 -381 398 0
-271 -34 36 276 281 282 0
251 34 35 36 38 -246 0
-27 -14 -15 -24 -26 0
-63 62 68 384 385 398 403 404 0
410 62 63 66 68 69 384 0
-471 53 59 60 -481 0
32 31 33 35 38 -328 0
-69 11 12 17 -18 -68 173 -331 0
-58 51 -62 -68 -82 -83 -319 0
-167 11 12 16 17 165 166 173 0
-59 51 53 364 369 376 0
74 71 77 435 440 448 456 469 0
37 31 38 270 -310 -313 0
-16 17 160 166 192 193 194 480 495 0
228 21 22 26 27 -28 -218 0
-29 208 216 229 234 238 240 0
-236 8 -26 -46 240 0
-152 26 28 29 -142 0
-29 208 216 218 220 227 234 237 240 0
-347 -345 -495 0
-336 -345 -473 0
-51 52 58 340 341 354 360 0
11 14 15 16 17 -22 -23 255 0
14 11 15 18 19 20 -22 -23 255 0
-402 63 -68 -313 382 0
-489 51 -55 360 -480 0
12 13 16 18 161 180 0
15 16 18 161 166 176 0
108 104 106 561 562 570 592 605 0
-360 -85 -353 0
26 -11 -13 23 24 25 29 30 -82 -84 0
62 63 69 387 407 410 411 421 422 0
-141 143 -328 0
244 23 24 25 27 29 201 0
420 63 66 69 70 381 405 0
406 63 69 70 381 405 420 0
406 63 69 70 381 387 391 405 0
385 63 69 70 381 393 405 420 0
384 63 69 70 381 387 391 406 0
384 63 69 70 381 386 387 391 0
247 34 37 246 255 276 278 282 0
31 34 37 39 40 255 276 0
250 32 33 37 39 40 270 0
375 51 53 54 55 60 0
349 51 54 56 58 345 354 0
57 51 55 58 59 60 0
56 51 55 58 59 60 0
352 -9 -11 -19 -60 359 365 377 379 0
442 -72 426 435 436 441 0
-30 -6 -11 15 17 -18 -21 -26 0
51 53 58 346 347 360 376 377 0
474 -85 -319 -471 0
-493 51 54 60 -480 0
-234 6 16 17 18 143 0
38 31 40 255 271 272 279 281 0
-235 6 16 17 18 143 0
-24 27 -43 231 233 237 534 579 0
105 102 103 104 107 108 0
-79 25 26 27 -78 0
-64 63 83 -319 0
-30 209 217 225 228 233 239 242 0
-237 -150 -231 0
-401 63 -67 -319 382 390 0
-397 71 -72 74 435 471 488 0
-396 71 -72 74 435 471 488 0
-6 4 -7 -83 85 130 488 490 0
66 61 62 65 398 420 0
-27 205 214 221 227 232 240 0
59 51 54 60 345 0
16 11 13 14 17 -68 -69 0
-123 82 -146 489 490 0
-495 11 16 17 18 -488 0
-21 -7 -8 25 26 -61 -67 0
-33 -27 -28 -36 -38 -53 55 0
-374 25 27 28 34 35 37 246 247 255 0
67 -46 61 63 68 406 547 592 0
-31 1 3 -5 13 -15 16 17 18 -34 186 0
26 -15 16 17 18 21 -25 27 28 345 -406 0
265 32 35 39 40 250 270 285 0
79 72 73 77 78 80 456 0
469 72 73 75 76 452 468 0
13 11 12 14 17 0
584 104 105 106 108 109 561 0
22 21 23 28 29 30 0
22 21 28 29 30 218 0
201 23 24 28 29 30 0
89 471 472 481 487 500 0
285 31 34 36 39 40 255 0
285 31 32 33 36 39 40 0
390 61 64 67 68 411 0
392 61 64 66 390 399 420 0
70 61 69 390 391 398 0
352 54 -60 342 354 374 377 0
336 54 55 56 58 59 60 0
336 53 54 59 60 0
348 54 59 60 337 346 347 350 0
371 54 58 59 60 336 354 0
61 -13 -16 -46 62 63 0
39 -15 -20 -24 -25 -34 38 0
-208 -61 63 -71 381 383 426 427 428 0
-208 -61 -71 381 386 387 398 411 426 427 428 0
61 -12 -16 -46 62 64 0
39 31 34 40 260 276 277 281 0
-114 -82 87 -135 -142 488 0
-220 88 -231 480 495 0
81 -33 37 38 71 72 -73 82 276 0
55 51 53 54 56 57 0
-484 4 -6 -480 -481 0
-354 -55 -313 337 345 353 0
-449 -33 37 38 81 82 276 0
-448 -33 37 38 81 82 276 0
-404 -33 37 38 81 82 276 0
-403 -33 37 38 81 82 276 0
51 52 -313 360 363 371 0
-359 -33 37 38 81 82 276 0
55 51 54 57 -313 372 0
-405 51 52 -55 -398 0
68 61 62 -63 -319 401 411 0
-404 -33 37 38 71 72 74 276 0
340 -51 58 -71 -76 142 -313 347 360 0
-79 11 12 13 16 17 -18 -78 0
82 72 -73 -313 0
-272 -34 37 38 276 -331 0
-123 84 85 86 -146 0
341 -12 -14 52 59 60 -83 -84 342 0
56 -12 -14 52 57 58 -83 -84 0
56 51 52 53 55 57 0
392 -62 69 70 386 387 390 391 0
70 64 69 381 382 390 0
393 64 69 70 381 382 399 420 0
9 8 149 152 0
102 101 103 105 109 110 0
340 -51 57 59 60 342 345 360 0
343 -51 60 337 339 342 346 371 0
343 -51 337 342 344 346 347 360 371 0
216 -29 207 218 234 238 241 0
208 -29 216 219 221 228 232 238 240 0
2 4 -146 -481 -497 0
389 -61 69 382 386 387 391 411 0
352 58 -60 337 360 374 377 0
344 -60 345 350 357 360 374 377 0
359 -60 340 346 347 360 377 379 0
370 -60 344 345 365 374 375 0
208 -21 30 207 231 232 236 0
409 68 -69 388 390 393 400 421 0
371 53 55 58 59 60 336 0
353 55 58 59 60 336 371 0
350 55 56 57 59 60 353 0
217 -30 207 218 235 239 242 0
302 -15 18 -52 -55 160 167 174 187 0
71 72 74 -313 0
67 -13 -14 -23 -25 61 63 68 0
-313 61 62 405 406 420 0
62 -55 -56 63 64 68 321 383 421 422 0
-482 -114 -135 0
-347 -114 -135 0
-392 -114 -135 0
-572 -114 -135 0
-437 -114 -135 0
-482 -117 -138 0
-347 -117 -138 0
-392 -117 -138 0
-572 -117 -138 0
-437 -117 -138 0
-482 -115 -136 0
-379 -132 -134 0
-379 -147 -149 0
-289 -147 -149 0
-289 -143 -145 0
-199 -143 -145 0
-559 -88 -90 0
-14 -12 51 52 -55 -83 -84 0
-234 16 17 18 -35 37 276 278 0
-235 16 17 18 -35 37 276 278 0
-167 12 16 17 18 165 166 0
-234 16 17 18 -25 -26 -35 38 0
-123 11 -12 13 -146 -147 166 186 0
-344 -31 72 73 74 249 252 281 0
-344 -11 16 17 72 73 74 162 0
58 52 56 353 354 360 371 376 377 0
61 64 65 69 70 391 400 420 0
66 63 64 65 69 70 420 0
-26 -8 -15 -25 -34 0
-356 35 36 38 251 -345 0
-355 31 35 -36 281 282 -345 0
52 5 -8 51 -313 360 0
81 -33 37 38 51 52 54 82 276 -488 0
400 -1 -6 -46 -63 382 398 399 420 0
-62 381 395 396 397 401 405 406 411 0
-201 22 23 26 27 216 217 228 0
-16 5 -8 -14 -34 35 0
-208 -31 36 -61 62 251 278 382 387 405 406 0
-352 51 52 53 471 -481 488 0
-387 5 -71 73 75 76 420 0
-433 -11 16 17 -61 63 162 381 383 0
-433 -11 16 17 -61 62 162 382 387 405 406 0
73 74 75 433 434 439 440 0
74 73 433 434 437 439 440 0
79 -72 74 77 78 80 426 456 0
2 4 5 83 -84 85 86 0
-433 -11 16 17 -31 35 162 252 281 0
74 73 431 432 433 434 438 441 442 0
-394 33 38 39 40 276 -381 0
-20 -18 72 74 75 76 77 0
-386 35 36 38 -313 -381 0
-389 -11 16 17 72 73 74 162 0
-437 -14 16 17 18 -42 0
243 24 25 26 30 201 221 0
67 64 68 69 381 404 411 0
-231 -25 26 28 -328 0
30 25 201 220 226 240 241 243 0
110 102 104 106 109 562 600 0
433 72 74 75 78 80 445 0
372 53 59 60 338 341 346 347 0
109 106 107 108 110 -471 0
350 59 60 337 338 347 353 371 0
424 -70 397 399 400 410 411 422 0
603 101 105 106 107 110 0
102 101 104 105 106 107 0
102 101 103 105 106 107 0
581 104 105 106 109 561 602 604 0
598 103 104 105 110 561 600 0
599 103 104 105 109 561 600 0
574 104 105 108 109 110 561 562 0
582 104 106 107 109 110 561 0
593 103 104 106 109 110 561 0
581 104 106 108 109 110 561 0
592 101 104 106 110 570 603 0
234 -25 30 201 219 227 231 233 0
282 -17 -19 -28 -29 35 40 -56 -59 0
173 15 18 -56 -59 161 165 166 195 0
-71 -51 58 371 432 433 434 461 -472 -488 0
78 71 -72 76 77 79 80 0
-143 11 16 17 -135 165 0
-497 72 -77 -473 -488 0
53 -23 -25 -45 51 52 0
-55 -45 347 354 360 -411 0
-282 -150 -276 0
-3 83 -84 85 -219 0
52 59 60 338 339 357 360 371 0
-387 72 73 -78 -383 0
-66 7 -56 -62 -63 -319 0
55 57 58 336 337 345 364 365 0
141 -5 -57 -72 -76 -319 356 430 0
30 -7 -8 25 29 -36 -38 0
-188 15 16 17 -324 0
-473 71 -73 -427 448 449 0
-60 337 352 365 370 377 379 0
-393 62 -66 -313 381 391 0
-56 -328 337 341 348 353 360 372 0
-220 86 -236 480 495 0
-234 7 16 17 18 143 0
-427 72 73 74 -313 0
-377 -7 8 25 26 28 0
394 63 64 68 69 70 411 0
232 21 22 24 28 231 236 0
227 21 22 25 28 220 226 0
107 -5 -7 -8 11 16 104 -105 -109 -174 -328 0
376 52 54 55 60 337 0
17 15 18 -328 0
173 11 12 17 18 -328 0
87 4 -5 -7 -12 -13 84 85 0
353 51 52 56 57 58 0
423 -17 -20 61 62 63 410 411 0
70 61 63 69 -319 405 406 420 0
-443 72 73 -74 -313 427 0
-59 343 347 358 364 378 0
-432 3 4 -8 -81 -82 -83 0
450 72 73 433 434 451 452 0
-331 62 64 65 66 387 0
249 34 -35 36 39 40 -246 285 0
-63 62 384 398 401 402 403 404 0
-346 -52 54 -319 336 0
82 62 -63 -313 0
65 61 62 66 68 -313 0
-452 88 -461 480 495 0
-65 -62 -63 -74 -75 0
-254 -11 18 36 37 38 160 161 249 0
27 21 28 212 218 232 -328 480 0
214 21 25 28 218 -328 0
-232 25 26 28 206 219 225 0
-338 52 53 54 -319 0
73 72 432 436 454 455 456 457 461 0
33 38 39 251 254 259 262 276 287 0
69 62 64 66 70 386 387 0
73 72 -319 429 432 461 0
-357 61 62 -63 66 -319 -375 0
52 54 337 343 344 354 357 371 0
64 63 65 66 381 420 0
-34 7 -24 -25 38 -331 0
-394 -62 -331 386 391 401 0
399 -62 66 67 69 70 387 391 396 420 0
392 -62 63 64 66 386 387 420 0
73 74 75 76 77 432 0
74 72 -313 433 434 445 446 447 0
34 35 38 251 258 264 279 280 282 285 -313 0
-337 35 38 246 255 259 271 276 -341 0
-433 -62 63 381 391 -426 488 0
66 62 63 68 405 421 422 0
-280 6 26 27 28 143 0
-162 62 63 64 -195 411 0
345 51 54 59 374 377 379 0
239 21 25 28 29 221 227 0
122 -5 -7 61 63 -68 -84 85 135 192 282 488 0
-23 -6 -7 -13 -16 25 0
130 -6 -7 -8 13 -16 23 -25 -27 -34 -38 0
-20 -7 -10 -25 -45 0
201 -7 -9 -28 -33 -37 -38 -40 -55 -56 -60 488 0
-287 -7 8 25 26 28 0
4 -7 -12 -13 -82 -83 -88 0
-250 31 -36 37 38 246 247 249 0
287 33 35 38 39 246 271 0
270 31 36 38 255 -331 0
271 31 33 37 38 270 276 0
287 38 39 246 247 255 270 271 276 0
563 5 -23 -26 -104 110 585 589 0
-29 25 27 -36 -38 -107 -110 0
400 -43 61 -63 -105 -110 420 0
-73 426 443 444 445 446 448 449 0
-70 52 53 54 -58 -68 0
69 4 -5 61 -62 63 65 67 70 82 0
-61 383 385 386 387 392 399 0
11 13 15 17 19 20 51 52 -55 82 0
62 63 67 384 387 405 406 0
55 51 52 57 353 372 0
16 11 12 15 19 20 176 0
63 62 383 384 405 -411 420 0
-12 -14 -15 61 62 67 82 0
55 52 54 57 337 374 0
-18 14 15 17 52 -58 162 198 -472 -488 0
573 561 562 565 570 580 586 587 588 -591 598 599 600 605 0
-270 -45 52 -55 -472 -488 0
-12 -14 62 66 67 68 82 0
-68 -37 -38 62 -65 -84 282 387 402 480 496 0
68 -34 -36 62 63 67 -328 406 411 0
14 -5 -7 -15 16 18 82 85 87 0
-411 -45 52 -55 -472 -488 0
-73 427 440 443 444 445 446 0
-282 35 36 37 -38 -328 0
-344 -21 -61 62 67 205 207 232 387 398 411 0
11 14 15 16 19 20 -22 -23 255 0
65 62 64 66 68 -313 0
570 -5 -8 13 -15 16 17 -20 23 25 26 27 -28 -30 242 0
-4 -5 -34 38 -76 -77 0
-167 -5 -84 135 -496 0
-275 -18 -24 -183 192 195 226 227 0
115 -74 -77 -83 -84 -88 135 -141 0
11 15 17 18 -54 -55 -83 -84 0
371 58 59 60 -81 -83 -84 -101 -105 0
-271 -46 62 63 -65 383 0
-397 35 36 37 -38 81 -82 -260 480 0
-444 -24 26 28 -43 232 0
387 62 67 -68 69 70 399 406 0
411 62 63 67 68 383 0
72 73 433 434 450 452 453 0
-249 24 -25 26 28 232 -246 0
-340 52 53 54 -328 0
-72 426 436 438 439 440 444 0
60 51 52 59 353 0
57 52 58 59 338 354 360 374 0
-400 -5 -15 16 17 18 -219 336 0
66 62 64 65 387 398 421 422 0
246 34 38 39 247 255 276 287 0
66 61 63 65 68 -319 0
-39 33 36 37 253 261 278 0
-390 -62 63 -313 382 0
-480 54 59 60 -471 0
76 71 72 75 78 -319 0
12 16 17 162 173 174 180 0
383 64 -65 69 -405 410 0
79 71 75 76 77 80 0
433 73 74 78 80 456 457 461 0
82 1 4 -5 -7 85 87 0
-457 5 84 85 86 -450 0
-79 73 74 78 426 459 463 0
231 -25 -33 -37 -43 -45 0
201 23 24 -25 -324 0
212 23 24 -25 28 -201 0
234 -25 28 30 204 219 225 0
207 -25 29 30 215 225 231 232 0
-194 -6 8 25 27 28 0
43 42 -46 62 63 -65 -226 0
404 7 62 64 69 340 387 399 405 422 0
423 62 384 386 400 402 403 404 405 406 409 422 424 0
214 21 23 25 26 30 -68 -69 0
213 25 28 30 205 218 241 242 0
431 -53 -54 -71 -81 -84 432 456 0
-427 72 74 78 444 445 448 449 0
66 63 65 67 69 70 381 0
68 67 -313 381 383 391 398 411 0
-429 -85 -313 -426 0
108 101 102 103 105 596 605 0
-570 87 88 495 -580 0
64 61 68 390 392 399 421 422 0
222 21 24 25 27 30 238 0
-353 54 59 60 -471 0
106 561 562 563 570 571 578 591 592 593 600 605 0
-373 25 27 28 -146 147 0
51 54 58 59 -319 347 349 359 0
-18 -8 -11 -81 -83 -85 480 0
59 52 60 340 353 354 360 375 0
-151 26 28 30 -142 0
-15 167 174 180 188 -324 0
-403 71 72 74 472 481 0
108 -6 -7 101 102 104 106 107 0
53 52 60 342 343 360 371 378 0
-429 63 64 -65 -426 0
11 13 17 18 166 -328 0
480 -83 -319 -471 0
580 101 104 -106 107 108 -570 598 0
-65 -46 61 62 -271 398 0
-74 4 -5 -73 -76 0
-108 -7 -34 -36 -105 -106 0
103 106 107 108 561 563 571 605 0
-436 -313 -426 0
3 4 -6 13 14 15 17 19 20 381 0
146 -6 -142 0
-142 -15 16 -324 0
-496 11 16 17 18 -488 0
19 11 12 14 -15 18 20 0
167 -15 160 162 174 180 187 0
-353 51 52 54 -319 0
449 -33 -38 71 74 -82 -83 437 448 461 0
71 72 73 -319 0
449 72 74 79 427 434 0
449 71 74 435 441 442 448 0
255 7 -11 -16 34 38 39 40 0
173 -16 -17 20 35 38 40 161 165 166 195 0
-36 -8 -16 -18 -35 0
-497 14 15 17 18 -488 0
13 11 12 17 18 -56 -59 0
19 -8 16 -18 20 -56 -57 0
-43 25 28 30 -53 -56 -57 0
-40 15 18 -20 -37 -56 -57 0
411 -57 -59 62 63 64 68 0
368 52 59 -337 340 341 345 353 359 374 377 0
101 -32 -33 -38 105 106 107 -109 0
102 -8 103 105 -109 -237 0
102 -8 101 103 105 -106 -324 0
280 -35 249 261 268 276 277 278 0
-30 -27 51 53 54 -57 0
354 58 59 60 336 338 346 371 0
-209 -61 -71 381 382 383 426 427 428 0
-209 14 15 17 18 72 73 74 165 0
-209 -11 16 17 18 72 73 74 0
-389 14 15 17 18 72 73 74 165 0
-388 14 15 17 18 72 73 74 165 0
-208 -11 16 17 72 73 74 162 0
562 106 561 563 570 574 578 585 588 591 592 593 600 605 0
-181 72 73 74 78 -186 0
-269 61 62 64 81 82 0
-253 -11 16 17 18 -51 336 337 338 0
105 104 106 108 561 581 600 605 0
-29 -15 16 17 18 -24 -25 -34 38 0
-343 -11 16 17 -71 162 426 427 428 0
-389 -11 16 -51 162 187 336 337 338 0
-214 25 26 30 215 216 243 0
-376 15 -17 25 -27 191 195 201 220 226 240 0
389 62 64 67 68 388 411 0
423 62 64 65 -69 400 421 0
389 62 64 67 68 69 411 0
421 62 64 382 387 402 411 422 0
389 7 62 64 69 340 399 404 420 0
-570 34 38 39 40 -562 0
250 32 33 35 38 272 0
271 33 35 37 38 246 0
274 35 38 40 253 261 281 0
286 31 34 35 38 40 255 0
33 31 32 35 38 -67 -69 0
261 35 38 -39 251 268 283 0
253 35 38 40 250 259 266 283 0
32 31 34 36 38 -45 0
-471 34 37 38 -106 -108 -480 0
258 38 39 40 247 271 277 0
257 38 39 40 247 270 281 0
-46 15 18 -26 -27 0
59 51 60 -82 -83 -102 -104 0
82 11 15 16 18 -64 -65 0
163 13 15 16 17 20 166 0
196 13 14 16 18 159 169 197 0
404 -63 69 384 387 390 398 400 0
-495 11 15 17 18 -488 0
-371 -7 -71 -76 340 0
588 105 561 562 565 570 573 580 587 591 600 605 0
-106 565 573 580 586 592 593 605 0
-280 16 17 18 26 27 28 0
-131 86 -146 480 495 0
-436 71 -72 74 -319 435 0
-359 -72 74 -75 81 84 -354 426 0
75 71 76 78 79 80 0
192 -18 -54 -55 -83 -84 162 195 -324 0
191 11 15 18 -54 -55 -83 -84 0
19 11 15 17 20 -54 -55 -83 -84 0
-350 -12 -13 -18 0
76 -18 -20 71 73 75 77 0
-285 -8 -24 -34 -38 0
201 23 24 26 27 -58 -59 0
369 56 57 -59 336 345 346 -472 -488 0
373 58 -59 347 354 360 376 0
351 -59 343 353 354 360 375 0
396 -43 -62 -102 -103 386 391 395 411 0
424 61 -70 397 399 410 422 0
-201 23 26 27 28 216 217 0
-438 71 74 -313 -406 -410 445 473 480 0
-31 249 253 254 281 282 285 0
-319 51 52 53 0
-40 280 284 287 289 0
-56 -6 25 -26 27 340 346 355 374 0
-377 15 16 -17 18 -42 -67 386 398 0
-498 105 106 -473 -481 561 581 600 605 0
566 105 106 561 563 571 574 582 587 605 0
-394 51 54 -57 -390 0
201 23 28 220 225 226 231 240 241 242 0
53 51 55 58 -59 346 0
7 -16 17 -26 27 -374 0
-446 -7 -435 -444 -461 0
-17 -11 -16 -31 -35 0
-63 -313 382 -391 0
-206 23 26 28 201 208 225 231 242 0
-433 -11 15 -16 -21 -25 26 28 161 162 206 0
66 63 64 67 384 395 0
67 61 62 68 399 406 0
-65 -61 72 -75 -81 -83 -84 0
-432 3 -8 -81 84 -85 0
195 15 16 20 163 165 166 173 0
15 8 18 25 28 -46 0
-285 25 26 30 -288 0
-252 -31 38 282 285 -324 0
-488 51 52 59 -494 0
26 21 28 212 218 -331 0
-142 -25 26 28 143 -279 0
-22 213 214 215 234 235 0
16 11 17 166 177 -324 0
-399 -24 25 26 27 -43 0
-403 51 54 60 -390 0
-258 51 -56 -255 -319 0
-489 51 -55 -319 -480 0
-339 51 -55 -319 336 337 0
375 52 54 56 337 339 354 0
344 52 54 58 59 354 371 0
342 52 53 56 57 360 0
365 52 53 57 59 340 342 0
362 52 56 59 60 337 342 357 365 0
359 52 -60 342 365 374 377 0
358 52 60 337 338 343 353 360 378 0
372 52 59 60 338 339 360 371 375 0
29 -8 25 30 -35 -36 0
237 -9 25 -28 30 -37 -38 0
289 25 -28 -38 -46 240 278 285 288 0
-40 -38 72 73 74 -78 0
-422 51 -52 56 58 59 -397 0
347 51 -52 54 57 60 345 0
375 51 53 55 56 346 0
374 51 57 58 59 354 360 0
227 21 25 26 28 -218 0
242 21 25 26 29 215 218 0
33 25 26 34 35 -37 39 40 218 281 0
-201 23 25 -28 29 30 215 236 0
241 25 -68 -69 201 220 226 240 242 0
216 25 -29 205 206 218 236 243 0
229 25 30 208 216 236 237 240 0
238 25 30 207 215 218 236 241 243 0
239 25 29 201 221 227 237 238 244 0
375 54 55 56 59 60 336 0
373 54 60 336 337 345 376 378 0
379 54 59 336 337 345 374 377 0
571 103 -105 106 561 564 594 595 600 0
572 101 -105 109 581 582 585 595 0
361 59 60 336 337 345 346 360 375 0
340 59 60 336 341 345 346 353 354 360 0
372 59 60 336 337 339 347 350 354 371 375 0
269 -40 254 262 270 282 287 0
590 105 106 107 108 109 570 0
589 105 106 107 563 570 603 604 0
109 102 103 104 105 110 0
597 101 102 105 107 110 598 603 0
84 52 53 54 -56 62 63 -66 81 -141 -319 383 -471 0
61 63 65 -319 393 420 0
-74 443 450 451 452 453 0
54 55 56 58 59 60 345 0
37 31 38 262 269 276 279 283 284 0
34 35 37 38 247 261 262 0
-14 -12 -34 38 -43 -45 281 0
-55 -43 -45 52 54 -456 0
110 -105 106 109 561 562 570 587 593 0
-429 -55 -313 360 -426 0
62 63 67 68 414 415 -473 -488 0
69 63 70 381 383 389 391 0
-341 51 -57 -313 336 338 0
76 75 78 79 80 426 428 0
79 73 74 80 426 0
107 101 102 106 108 578 605 0
-456 -45 54 -55 336 337 345 0
-225 -45 54 -55 336 337 345 0
-276 27 29 30 -282 0
-438 -1 -7 -456 488 0
-70 52 54 -57 -67 337 0
-73 62 64 -66 -76 -81 -83 0
-67 386 396 397 401 407 0
-59 58 336 337 345 364 369 0
-65 51 -55 -63 -64 0
432 7 -34 -35 72 73 -319 0
65 61 62 67 68 398 0
-180 -45 51 52 -55 353 0
273 31 37 39 40 255 276 0
280 -35 249 255 271 277 278 279 0
206 23 -27 28 29 30 -201 0
209 26 27 29 215 218 219 225 233 0
46 -17 -18 -109 -110 0
46 -27 -28 -109 -110 0
106 561 563 566 571 572 574 579 582 585 587 593 605 0
209 24 25 27 28 29 -201 0
-57 -37 -40 52 337 362 0
65 62 63 67 388 389 417 0
76 73 74 75 77 441 442 0
-331 62 63 64 -386 0
108 101 106 107 109 110 0
-331 62 64 67 68 -386 411 0
-58 -63 -68 -70 342 -488 0
561 105 106 107 109 578 582 588 0
105 103 104 110 561 598 601 0
-107 566 574 587 596 600 601 602 0
-46 15 18 25 -26 28 0
21 -14 -17 22 25 27 28 -84 -88 0
-411 61 62 -63 67 87 88 398 481 0
-331 25 26 28 0
-46 -42 51 57 58 353 0
-328 25 27 28 0
494 52 55 57 58 -59 -84 472 481 0
-187 15 -17 18 -324 0
-45 -5 16 18 -25 26 0
-28 -8 -16 -17 -26 0
-105 561 579 585 592 593 594 599 0
109 101 102 106 107 108 590 0
107 101 106 110 575 576 578 603 0
-495 11 15 16 17 -488 0
65 62 63 66 67 387 0
-87 82 90 -466 476 0
107 102 103 105 106 567 0
-411 12 16 17 162 -405 0
102 101 103 104 106 107 0
-163 62 63 64 -71 426 427 429 430 452 0
-582 15 16 18 176 -579 0
65 62 64 67 387 398 400 0
-45 16 18 -25 26 28 0
-226 -46 62 63 -65 383 0
58 51 52 57 -65 -66 321 353 0
-163 -31 35 62 63 64 252 281 0
-60 344 352 354 365 377 379 0
-52 -17 -18 -19 -42 -46 51 0
-492 11 14 15 16 -488 0
-173 87 88 -180 480 0
-18 -8 -16 -25 -26 0
341 52 53 56 58 337 360 0
164 13 15 16 17 19 166 0
163 15 16 18 165 166 173 197 0
171 11 15 16 17 165 178 185 0
17 16 18 -324 0
-599 6 16 17 18 143 0
167 13 16 18 161 166 180 0
19 12 16 18 20 161 180 195 0
189 11 13 16 18 166 190 0
198 16 17 20 188 189 0
177 14 16 17 19 20 162 0
189 16 17 162 165 183 190 0
19 12 13 16 20 161 180 0
166 13 15 17 18 160 0
182 12 13 15 18 160 0
184 11 15 18 20 178 191 0
196 15 18 160 168 181 197 0
196 13 14 15 18 -161 169 194 0
-217 61 -62 63 81 -82 480 0
394 -62 63 65 381 395 406 0
-18 -8 -17 -26 -27 0
-18 -8 -17 -25 -27 0
-358 71 72 74 81 82 0
-38 -8 -25 -26 -35 0
-11 -8 -18 -21 -25 -26 0
-34 31 35 38 261 268 272 275 0
-343 -11 16 62 63 64 162 187 0
-208 -11 16 62 63 64 162 187 0
-347 11 15 16 17 -42 165 0
169 11 15 16 18 -165 0
-80 64 -68 -78 381 382 390 0
-30 -28 71 72 73 -78 0
64 62 67 68 382 411 0
-46 61 62 63 -65 -136 0
72 73 75 78 433 434 461 0
-389 -21 26 72 73 74 206 207 0
106 105 107 108 570 589 590 0
-388 -21 26 72 73 74 207 232 0
-163 -21 26 72 73 74 206 207 0
-424 15 16 17 72 73 74 -432 0
-166 61 62 -63 64 67 71 72 -73 74 0
-457 -46 62 63 -65 383 0
61 -3 -6 -46 62 63 0
-365 61 62 63 71 72 73 0
-46 -23 -26 61 62 63 0
71 7 -24 -25 72 74 78 0
63 62 67 387 405 406 411 0
77 62 63 67 68 71 72 73 -74 78 0
73 72 78 428 456 457 461 0
457 72 78 427 428 443 456 461 0
434 72 73 78 433 450 461 0
75 7 72 74 78 341 433 434 0
-389 25 26 28 -31 36 -206 278 0
-388 -31 35 72 73 74 252 281 0
-389 -31 35 36 38 72 73 74 0
-276 71 72 74 78 -270 0
-106 565 573 578 582 587 588 591 596 605 0
80 72 73 75 79 430 452 0
-36 -34 -35 72 73 74 78 0
72 73 79 80 428 0
-447 -73 74 432 440 468 469 0
-60 337 352 360 374 377 379 0
251 -22 -23 34 35 36 -37 39 40 165 0
286 35 36 252 260 267 278 287 0
282 35 39 40 251 255 272 0
397 61 63 67 69 405 406 0
424 61 63 -70 410 411 422 0
423 63 64 70 381 382 411 421 0
388 -61 63 381 383 389 0
396 63 65 67 68 70 406 0
70 63 65 67 68 69 383 0
396 63 67 68 70 383 411 0
217 21 24 26 -30 232 244 0
233 21 26 29 30 214 218 0
204 26 29 30 219 225 240 0
125 -21 -28 90 481 493 0
453 73 -74 450 451 452 0
-69 -68 71 72 74 -78 0
-268 71 72 74 471 -480 488 0
430 72 73 74 432 457 461 0
459 72 73 80 428 461 468 0
433 72 73 75 78 80 461 0
434 -71 72 73 77 432 433 456 0
458 71 72 73 451 452 0
443 71 72 -75 78 456 457 0
433 -71 72 80 428 445 446 447 0
434 -71 72 429 430 432 433 443 0
454 73 -74 428 436 455 0
-235 7 16 17 18 143 0
-281 -34 35 38 -135 0
-227 -4 -34 38 -135 0
55 51 52 56 353 375 0
87 4 6 -8 -62 -63 82 85 88 0
-392 11 15 16 17 -42 165 0
64 -62 69 382 392 393 397 420 0
-411 -42 -45 51 -55 353 0
-225 -45 51 52 -55 353 0
-374 11 14 15 -16 -36 37 38 165 195 276 0
-185 -24 27 -34 35 225 237 273 281 0
-164 -21 25 26 27 -28 -31 249 281 0
-70 51 52 -58 -68 353 0
-451 6 -15 16 18 -270 336 0
-276 36 37 38 -328 0
17 11 14 15 165 -328 0
-472 81 82 478 479 0
-456 -42 -45 51 -55 353 0
-73 427 432 437 443 445 446 456 468 469 0
-411 62 -63 67 87 88 398 402 481 0
73 72 -84 -88 285 433 434 450 461 0
63 7 62 67 68 340 386 387 405 0
108 104 105 107 570 598 599 0
-440 11 15 16 17 -18 -82 -83 -84 0
19 11 14 -15 18 20 165 191 0
-350 11 15 16 17 -18 -82 -83 -84 0
-20 17 -52 -60 194 199 573 0
-206 -51 58 -236 339 0
-495 -63 -313 382 -399 -481 0
11 13 15 166 191 192 195 0
58 52 56 57 -319 354 0
-71 72 73 429 451 452 461 468 469 0
40 39 276 277 278 281 282 285 0
-11 13 -15 17 18 156 158 190 193 0
-11 -7 -8 15 16 -31 -37 0
51 53 55 -328 346 375 0
-56 54 -328 337 348 0
20 17 18 19 186 0
-488 52 59 60 481 494 499 0
494 -51 59 60 -62 -64 488 493 0
372 55 336 337 338 345 346 353 371 375 0
-2 -5 -7 16 -43 -45 173 0
13 11 12 15 16 195 0
1 -7 -8 11 15 16 -34 -38 0
-595 25 -28 -34 35 -228 237 240 273 281 0
-217 35 36 37 -38 81 -82 -260 480 0
-52 -328 340 347 349 350 0
-135 -45 51 52 -55 353 0
21 25 26 27 -28 -83 -165 228 0
-177 21 25 26 27 -28 -82 -83 165 0
59 51 58 345 360 371 374 377 0
109 105 106 108 561 562 602 0
-342 -28 218 233 240 -328 -336 0
-109 104 105 108 570 598 601 0
-313 36 37 38 -264 0
-56 -328 338 339 346 350 355 371 0
46 -16 -328 0
101 105 107 108 109 573 578 0
-483 3 -5 -480 -482 0
-393 87 88 -411 488 0
15 11 16 166 176 195 198 199 0
77 73 74 76 78 426 0
-31 35 253 254 281 282 285 0
-138 11 15 16 -150 165 0
-62 61 63 65 391 393 420 0
-78 432 440 447 468 469 0
-232 -130 -219 0
-281 -282 -324 0
362 -54 55 56 -375 0
21 23 26 27 211 215 228 0
246 34 35 36 37 -313 0
447 -73 -313 427 436 437 450 461 0
377 -7 8 55 56 58 341 495 0
384 -61 381 383 386 387 398 400 0
387 -12 -15 62 65 67 82 0
-225 62 63 67 -219 387 0
469 -18 72 73 -78 188 192 195 432 0
359 -51 52 54 56 57 339 358 0
173 11 15 16 17 165 166 0
-433 -11 16 -61 64 162 187 381 382 0
19 15 17 20 181 -488 -497 0
337 57 58 -328 336 345 360 0
189 -15 160 165 166 173 187 188 190 0
46 -37 -38 -109 -110 0
13 11 12 14 15 0
45 46 -58 -59 -67 -68 0
-26 -8 -17 -18 231 237 -328 0
-72 74 426 432 435 439 456 468 469 0
71 72 443 444 450 461 468 469 0
53 54 55 57 -59 336 0
135 -6 7 82 -83 -84 85 -107 -108 114 0
-269 72 74 78 -427 444 445 481 0
-496 72 -76 -473 -488 0
-101 561 562 563 564 565 567 0
36 34 246 247 255 260 277 288 289 0
600 105 106 561 562 581 582 587 588 605 0
-105 106 564 572 585 592 593 605 0
-3 -5 -83 85 -106 -108 480 0
-164 -21 72 73 74 205 207 232 0
-55 -51 -52 -65 -81 82 0
-435 72 -73 427 441 442 443 0
-107 106 566 570 587 592 600 605 0
-101 62 -65 -81 -84 -105 -313 0
104 -7 46 101 103 106 108 574 0
32 34 37 38 247 276 0
-21 28 204 206 208 239 0
-218 25 27 28 201 220 0
-55 51 -82 -83 -102 -105 -319 0
-248 31 -34 38 246 249 281 -313 0
-31 249 250 252 286 287 0
70 66 68 69 386 398 399 405 0
-550 -55 64 -65 -201 337 345 360 382 390 0
102 103 106 108 566 585 605 0
-180 71 72 -75 78 -186 443 0
437 -75 -319 -426 444 0
-30 -27 63 -67 383 394 0
-141 4 114 123 130 0
51 -33 -37 52 -84 -88 -319 -353 0
-53 58 -313 336 338 354 356 0
-279 7 -25 27 143 207 215 218 0
67 62 66 68 -313 405 0
57 55 58 336 337 338 345 346 353 0
-389 61 -70 381 382 383 0
-65 70 383 392 399 414 0
-581 84 489 492 -596 0
-59 51 58 345 360 373 376 0
-72 73 426 439 440 441 442 456 0
177 11 12 15 -18 -173 0
-74 428 436 443 450 451 453 0
-62 61 66 70 391 396 399 420 0
-5 3 114 -166 -167 0
-180 11 14 -15 166 173 187 0
77 72 74 76 427 458 0
-408 62 64 -68 383 398 0
77 72 73 75 78 428 0
-271 -4 -7 -276 0
72 74 75 77 78 427 0
-18 11 12 15 20 177 182 198 0
-441 -62 84 381 391 472 0
110 101 102 105 107 570 578 603 0
-141 135 -481 -488 -491 0
60 57 58 59 336 353 354 360 0
-487 -60 344 359 -481 0
59 51 58 345 360 365 370 371 379 0
53 52 58 59 336 339 344 370 371 0
-474 -55 -319 -472 -480 0
-404 51 54 59 -390 0
-427 -81 -435 0
84 -62 -65 -73 -75 0
-437 61 -62 63 68 -319 -456 0
73 79 80 426 428 436 0
-56 -26 -30 340 346 355 0
70 63 65 67 69 381 406 0
403 -2 -6 -22 -26 -63 205 398 404 0
163 -16 164 166 175 186 191 192 0
213 -26 205 226 231 236 237 0
203 25 27 28 213 220 0
165 -22 -23 31 34 35 37 -328 0
457 71 72 73 76 78 0
413 61 63 64 66 67 0
489 -1 -73 -76 -82 84 0
446 -73 74 75 76 447 0
-269 71 -73 74 435 472 481 0
79 -2 7 -73 74 75 80 440 0
447 -73 427 435 444 445 452 0
384 -32 -33 -61 -81 -83 385 420 0
431 -32 -33 -71 -81 -83 432 456 0
439 -31 -33 -72 -81 -82 438 440 0
439 -72 435 437 438 440 0
441 71 -72 73 436 442 0
441 -72 73 426 436 442 0
442 -72 75 433 435 436 437 438 439 0
442 -72 433 435 436 437 440 461 0
441 -72 426 435 442 450 451 453 0
441 -72 430 432 435 436 437 442 452 0
338 -51 -331 336 337 340 342 0
-142 8 -331 0
160 -11 18 161 -324 0
60 -55 56 57 58 -64 -65 82 0
343 -55 60 347 354 360 0
103 -81 -82 -88 104 105 106 -108 0
3 4 5 -82 85 481 490 0
350 -52 59 60 -102 -104 -105 337 371 0
-81 -31 -33 -52 -53 0
351 -52 60 336 346 355 356 357 0
349 -52 59 60 342 345 346 347 0
441 71 73 74 80 0
442 73 74 79 426 434 0
429 73 74 76 77 78 0
79 73 74 76 80 429 432 0
-69 -68 71 73 74 -78 0
440 71 73 74 438 457 0
439 71 73 74 437 438 0
79 71 73 80 436 0
421 -67 386 397 401 407 0
189 -14 181 182 183 190 0
150 -46 -324 0
33 31 32 34 37 0
278 34 36 37 246 247 255 0
268 31 32 34 36 37 40 0
385 62 67 68 383 399 406 0
-255 -23 -28 -83 260 0
481 -82 90 472 493 0
-60 52 359 365 370 371 379 0
-498 105 107 -108 -473 -481 582 0
8 -7 -11 16 17 18 -61 62 63 64 -67 0
32 33 34 38 250 277 0
-69 62 388 403 405 406 421 0
-25 212 219 225 233 -324 0
-23 25 28 220 223 224 0
31 32 33 38 39 40 281 0
-59 -17 -20 343 351 353 373 378 0
-51 -6 -8 -11 -18 55 341 0
-490 11 -15 18 19 20 -488 0
-136 4 -6 121 128 -482 0
-5 -6 143 -324 0
-166 -73 -180 427 435 443 447 0
-67 -57 -59 394 401 407 0
-498 -84 88 -313 471 495 507 510 0
22 23 24 26 27 30 208 0
-401 -5 62 -63 135 386 405 420 421 422 0
-34 38 270 272 -328 0
-84 -5 -6 -13 -15 481 495 498 0
480 -5 -13 -15 -187 495 0
-447 -73 74 432 440 449 468 0
76 74 75 77 79 434 440 0
66 62 63 65 67 -68 386 388 389 0
-420 -68 -331 386 395 398 0
-84 6 -23 -25 87 488 495 0
341 52 54 60 -313 342 354 373 0
57 52 54 58 60 342 354 373 0
-82 14 15 16 17 -18 -84 -319 -440 471 0
67 61 65 68 -319 398 400 0
142 -5 -150 -328 0
-30 209 217 218 232 239 244 0
-35 31 38 39 258 265 277 280 0
104 101 103 106 107 561 572 605 0
-231 25 -26 233 -324 0
586 101 -106 564 573 580 592 593 605 0
-65 52 -55 -64 -81 82 0
102 103 105 106 563 600 605 0
-115 103 104 105 106 -146 0
-104 87 -105 -106 -108 480 0
105 102 106 562 563 578 600 605 0
-67 -57 -59 386 394 398 0
-213 51 -52 -236 350 -495 0
15 17 20 162 165 183 193 195 0
-102 51 -55 -72 -73 -105 -319 0
-411 1 3 -5 62 -63 68 382 398 0
-27 62 -67 232 236 240 241 382 383 398 0
-15 -16 -106 -108 0
-6 -75 -77 -85 115 482 0
-55 51 -52 -64 -65 360 369 370 0
-102 -1 -106 -107 0
-55 51 -61 -62 -71 -75 -319 354 0
-85 -55 -81 -83 -84 -102 -103 0
-496 62 -66 -473 -488 0
-69 15 -16 17 18 -62 -102 -107 0
-194 15 -16 17 20 199 0
-16 1 4 -5 -7 -15 -81 82 85 0
-74 1 4 -5 -76 82 0
-55 -64 -65 -81 82 347 0
51 54 345 351 358 370 371 379 0
-17 12 13 16 -71 -72 116 182 0
237 24 -26 27 30 85 201 238 243 480 0
-108 2 -7 -102 -104 -105 0
-101 102 -105 106 -431 -473 475 480 562 0
-103 51 52 -55 -83 -84 -105 0
-331 62 -67 -473 -488 0
7 1 -83 136 480 492 495 0
-101 62 -65 -81 -83 -84 -105 0
-55 -51 62 -65 -81 -84 -313 0
-88 -81 82 -105 106 562 563 572 592 605 0
108 -105 106 562 563 572 578 592 605 0
-55 -81 -83 -84 -85 347 0
-86 1 4 -6 -76 -77 -83 -84 0
-75 52 54 57 58 60 -73 -79 0
17 15 -16 18 20 163 165 166 173 199 0
-56 51 -64 -66 276 -313 348 0
66 61 62 67 68 -313 0
-52 -43 59 -102 -103 336 345 346 0
-340 51 -56 336 337 338 0
-581 3 4 -6 -570 0
-32 35 258 259 261 262 0
-32 83 177 259 261 262 276 0
-95 93 94 519 527 547 550 558 0
-20 -17 63 64 65 -67 68 381 0
-435 71 -72 73 436 448 449 0
-1 -5 -7 83 85 87 -481 0
-97 93 521 529 540 551 555 556 0
-352 -72 73 74 -336 488 0
446 -2 -7 -52 -55 -73 -82 -83 206 -319 445 0
392 4 -5 61 -62 63 67 68 82 0
481 -2 -6 -76 -77 -84 85 0
-69 -6 8 -61 -101 -107 0
142 7 -51 58 -71 -76 -319 336 337 0
280 33 34 38 246 279 281 0
217 21 23 24 25 28 216 0
216 21 23 25 30 220 226 240 241 0
189 11 13 14 16 17 174 190 0
476 -8 -61 -68 -81 474 480 0
493 -60 82 344 352 472 0
-400 -2 82 495 0
271 31 32 33 37 270 0
424 61 -68 69 395 398 0
404 61 64 69 390 397 0
70 61 64 67 69 393 399 0
423 61 -69 396 398 411 421 0
423 61 390 391 398 411 421 422 424 0
87 84 85 -102 -106 -108 0
562 105 107 108 109 110 561 0
109 101 104 -105 110 -480 -489 0
595 -105 106 107 108 -471 594 0
603 101 103 104 106 107 110 0
550 -105 564 572 579 592 593 594 0
599 101 104 105 107 108 570 0
336 53 54 55 56 58 0
372 54 55 57 59 60 337 375 0
374 55 57 58 59 338 345 0
409 -68 -382 395 402 410 0
340 53 54 57 58 59 60 0
356 54 56 58 339 345 349 371 0
375 54 59 60 337 339 340 345 0
339 54 59 60 342 345 371 0
372 54 59 60 337 341 347 371 375 0
226 23 27 28 201 225 231 0
234 21 23 24 27 28 235 0
234 28 -29 238 241 0
238 21 22 23 28 30 241 0
221 28 29 30 206 226 231 232 0
278 39 40 271 277 285 -471 -480 0
-169 -2 -480 481 489 0
-102 -73 -74 -83 -104 0
-85 -63 -65 -72 -73 0
-433 52 -55 354 -426 -429 -481 488 0
-22 -23 25 28 214 216 217 0
-386 1 3 -7 -71 -73 -75 0
-104 105 106 571 578 587 588 0
-107 73 -77 -81 -82 -101 -319 0
-93 92 94 517 535 536 537 538 0
-369 -62 63 -65 73 -75 -319 384 405 428 437 0
-16 169 176 181 186 192 193 194 0
-55 51 -313 347 360 0
-25 -5 -6 -24 71 73 74 -75 78 0
-31 250 251 252 -324 0
34 35 246 247 251 255 277 283 284 285 287 0
-271 -34 35 281 282 283 284 0
337 52 54 55 -67 -70 372 0
-25 7 -45 -108 -110 0
-387 -4 -8 -81 -85 0
-432 -4 -8 -81 -85 0
-207 -4 -8 -81 -85 0
-252 -4 -8 -81 -85 0
-162 -4 -8 -81 -85 0
-342 -4 -8 -81 -85 0
323 -4 -8 -81 -85 -294 0
-440 -14 -18 -82 -85 0
-395 -14 -18 -82 -85 0
-260 -14 -18 -82 -85 0
-350 -14 -18 -82 -85 0
-215 -14 -18 -82 -85 0
7 8 72 -313 331 0
73 -38 72 74 75 76 80 278 282 285 0
-28 25 207 215 228 237 240 0
561 103 104 107 109 597 599 604 0
59 60 336 338 345 346 354 355 375 0
106 101 103 104 107 109 604 0
36 31 33 35 37 261 262 0
-109 2 4 -8 -102 -104 0
105 101 103 104 107 571 597 598 0
104 101 103 105 106 107 0
-83 34 35 36 37 -81 -82 0
25 -36 -38 -107 -110 201 221 227 238 239 244 0
-15 -45 -107 -110 -142 0
31 33 35 37 -38 40 260 283 -313 0
-52 347 348 349 350 0
-8 1 4 -81 -83 -84 207 252 0
-54 -83 -102 -103 -319 338 353 0
-82 61 69 70 -83 -84 398 0
-151 101 103 105 106 109 -146 0
110 101 103 104 106 109 600 0
101 102 103 105 109 597 602 0
108 105 107 109 561 562 563 570 599 0
-383 62 63 64 67 405 406 0
101 102 103 107 109 110 597 0
-604 -7 8 25 26 28 0
-103 4 -6 -10 84 -107 130 0
101 102 103 106 107 109 604 0
-117 -138 -146 -147 481 483 488 0
-45 -8 -28 -35 -38 0
-279 -25 -35 -38 -141 232 -331 0
53 51 52 55 374 376 377 0
28 25 -46 -108 -110 242 0
-4 -6 -7 -8 -105 106 110 561 562 570 -585 0
383 -61 62 63 65 -406 420 0
107 102 104 106 108 110 562 0
-109 22 25 27 -28 29 30 -81 -83 -103 -105 0
36 34 35 40 -81 -82 -83 286 -471 -480 0
-39 35 37 246 247 255 274 283 0
104 105 107 109 561 562 570 604 0
65 62 66 68 382 405 421 422 0
-101 -61 62 -105 -106 382 408 421 422 0
101 102 103 104 107 109 604 0
-38 246 247 255 273 278 285 -328 0
-55 -4 -5 -42 -45 294 353 0
65 62 63 67 70 381 406 423 0
-108 104 105 561 562 570 603 604 0
66 -38 -40 -61 62 63 67 405 0
-30 -4 -28 31 -34 36 37 -38 255 270 0
-495 -42 -46 58 341 342 372 -488 0
-36 8 38 -46 276 0
381 -61 64 67 68 69 385 404 0
387 -61 66 67 69 383 397 399 0
-87 5 -77 -81 -84 136 0
37 31 32 33 35 40 283 0
-383 -61 67 387 398 405 406 0
107 102 104 105 106 109 604 0
101 102 104 105 -106 107 108 0
-269 62 64 67 68 411 472 481 0
582 102 -103 104 105 107 109 599 0
63 -61 62 64 67 -81 83 147 385 496 498 0
36 35 38 286 287 0
-69 -68 71 72 73 456 457 461 0
-69 -68 71 72 73 75 76 0
108 102 103 104 107 594 599 0
110 102 103 104 107 109 597 0
-30 -10 -38 39 -45 0
-81 82 88 474 475 491 0
-29 26 28 216 223 229 232 0
-363 -54 342 350 353 378 379 0
594 -6 102 104 -105 107 108 331 562 599 0
4 -6 -7 -12 -16 -88 480 0
27 25 -36 -38 -46 0
244 -9 25 29 -46 237 240 242 0
235 -6 -10 -30 -36 -38 242 0
-310 -33 37 38 -328 0
415 62 63 64 66 67 423 0
159 -15 174 180 186 187 188 0
359 -53 -73 -84 337 345 358 444 447 461 0
372 52 53 -56 -328 360 371 0
375 52 -81 82 -85 -328 0
195 15 16 -18 -58 -59 0
19 11 15 17 -18 20 -54 -55 -83 215 0
215 21 24 25 27 29 30 0
222 26 29 -142 -152 201 228 0
342 -51 -328 336 338 341 354 0
447 -27 29 30 -83 -88 201 221 227 0
344 -51 336 337 338 343 0
278 36 39 40 277 285 0
602 -104 105 106 563 588 589 0
571 101 -104 105 106 107 578 0
376 -54 338 346 353 360 365 0
70 64 65 67 68 69 390 0
423 64 70 381 382 390 411 421 0
122 7 135 480 -481 495 498 0
149 7 -71 -78 -81 84 85 86 144 150 0
599 103 104 105 -107 109 561 604 0
602 106 -107 108 109 574 587 592 0
-81 -55 -61 -63 -85 0
33 31 32 34 36 0
33 31 32 34 0
103 102 104 106 107 109 604 0
68 62 64 66 399 421 422 0
-107 -5 -6 -34 38 -105 286 287 0
398 4 -5 61 62 65 -82 -83 129 406 420 0
101 102 103 105 107 586 0
107 -5 -7 -23 -25 102 103 105 0
101 102 104 105 107 597 0
51 -7 8 52 54 56 353 357 377 0
-33 -23 -30 35 36 37 268 578 0
68 -23 -25 61 62 67 -84 -85 0
-51 -5 -7 -328 336 338 339 357 372 430 0
-104 83 86 88 -105 -107 0
21 22 23 26 28 231 241 242 0
107 102 104 105 562 597 0
-108 2 3 -7 -102 -105 0
-61 -331 381 382 383 391 411 423 424 0
-61 62 382 383 389 411 421 423 0
-63 62 64 -331 399 400 402 0
-64 2 4 -5 45 46 62 -82 -84 383 398 405 0
-11 -5 -6 18 -21 -25 -331 0
39 32 33 34 38 40 0
33 32 34 38 276 286 287 0
-57 25 26 28 52 341 353 377 0
-76 4 -5 -12 -13 -73 -82 -83 0
360 52 57 58 60 337 373 0
13 14 15 16 17 156 0
-376 -7 8 25 26 28 0
31 32 33 37 38 283 284 0
-64 62 63 67 385 405 408 0
-374 34 35 37 -146 147 246 247 255 0
57 58 59 60 340 354 360 0
12 13 15 16 17 -18 158 196 197 0
-14 7 -15 -18 -34 -331 0
-19 -4 -6 -18 -34 35 -38 272 0
-268 -63 67 68 71 72 74 381 383 411 0
-36 17 -18 19 20 -34 -35 162 165 -168 180 0
33 31 34 36 40 259 288 0
13 11 12 15 16 192 196 197 0
183 12 15 16 -18 162 -177 196 197 0
-34 -5 -6 -14 -15 38 -331 0
-243 -5 -13 15 18 152 -175 176 -222 -233 0
-30 7 12 15 17 18 -23 -25 143 -157 0
-34 38 270 271 -331 0
-23 -28 31 34 -38 -84 488 0
-29 -7 -26 -28 31 32 34 35 36 144 150 -285 0
52 -28 -30 51 60 341 353 373 376 377 0
-136 31 32 33 -34 35 -146 278 0
-337 -51 52 53 353 358 359 0
-51 -21 -25 122 336 338 339 342 371 0
-60 338 346 352 353 359 374 377 379 0
-58 52 -84 -86 278 342 357 0
57 54 56 58 59 60 336 0
-495 11 16 17 -324 -488 0
-104 563 571 578 585 586 589 600 0
-106 561 563 571 580 591 598 599 600 0
103 -45 104 105 106 561 600 0
-578 11 16 17 -324 -585 0
-495 -105 -473 -481 579 594 595 0
24 23 27 201 237 -324 0
105 102 103 104 106 600 0
228 23 25 26 -28 201 241 242 0
-207 14 15 17 -18 19 20 84 201 0
14 11 12 17 19 20 174 0
-102 561 562 572 573 575 583 589 602 603 0
-11 -5 -7 -8 -18 -31 -328 0
37 32 38 249 -313 -328 0
-225 -34 -232 273 -328 0
-57 51 52 -331 356 0
-54 51 55 56 362 364 365 0
26 28 206 214 218 236 -324 0
78 71 72 75 443 461 0
-51 55 340 341 342 0
107 101 105 108 570 571 578 605 0
110 101 102 106 108 109 578 0
104 101 102 103 105 0
-564 74 -75 444 -561 0
102 103 107 108 563 564 585 605 0
-591 101 104 105 -106 572 579 0
-65 51 -55 -64 -82 -83 -84 0
103 101 107 108 561 571 572 585 605 0
-105 -471 591 592 593 594 595 0
-604 -39 283 288 -597 0
-64 383 390 393 400 405 408 409 410 0
109 101 103 107 108 110 571 0
-181 -6 115 123 -173 0
-3 4 -5 -84 85 -106 -108 488 0
437 74 -75 -313 -426 0
-76 -5 -7 341 438 445 454 455 0
-251 63 -67 -246 -319 0
-23 -6 -7 -13 -16 219 0
-348 52 -56 -313 336 346 0
-496 -66 400 -473 -481 0
-65 383 392 399 414 415 0
70 63 69 381 383 391 0
-77 431 439 446 452 0
-64 -71 -73 -81 83 -84 -319 0
14 -6 -7 15 -16 18 -83 -84 -88 0
-267 51 -53 59 60 -282 -371 0
183 16 17 -35 37 162 165 174 180 -235 276 278 0
411 -57 -59 61 63 64 68 0
257 31 33 34 37 -328 0
596 -106 573 578 591 597 598 599 0
499 471 472 480 500 0
43 81 -473 480 -481 0
389 -66 69 393 400 406 0
580 -103 109 110 562 581 582 0
86 85 87 88 471 486 487 0
237 21 22 27 29 30 218 0
22 21 23 27 29 30 225 0
347 56 57 58 338 354 0
274 -39 247 261 277 283 288 0
253 -39 261 268 277 283 288 0
208 -29 216 219 220 231 241 243 0
129 -3 83 495 496 0
423 -69 388 394 403 409 411 0
409 -69 384 385 396 403 420 0
434 -71 426 429 430 432 433 443 0
431 -71 426 427 428 429 432 0
455 -71 426 427 430 432 433 457 0
352 -60 344 353 354 360 372 377 0
370 -60 344 352 353 374 375 0
352 -60 344 359 360 372 377 0
359 -60 336 342 350 360 374 377 0
352 -60 342 359 365 374 377 0
352 -60 339 342 359 365 371 0
-199 -10 -40 0
217 -30 209 218 233 239 242 0
217 -30 219 225 239 242 244 0
209 -30 219 220 225 226 231 242 244 0
349 59 60 341 342 348 353 354 360 0
349 59 60 337 338 348 350 353 0
350 59 60 337 338 339 341 345 346 353 0
486 83 90 473 0
275 -40 254 262 284 287 289 0
357 59 60 336 338 346 354 371 0
424 -70 389 397 401 410 411 0
570 101 104 105 106 107 0
574 101 103 104 105 106 0
603 105 106 107 110 561 562 0
562 105 106 107 108 561 605 0
575 101 105 106 107 110 582 0
600 103 105 106 109 110 561 0
563 103 105 106 109 110 578 600 0
576 105 106 107 108 561 571 578 0
580 104 105 107 108 561 605 0
567 102 103 104 105 107 0
601 101 103 104 105 108 110 0
599 101 102 103 105 107 597 0
571 101 103 105 109 602 604 0
580 105 107 108 109 561 578 586 0
230 -43 101 104 106 107 109 575 0
570 101 104 106 107 108 110 0
564 103 104 106 107 109 110 0
110 103 104 106 107 108 561 0
575 101 104 106 107 109 570 582 0
347 54 -55 339 354 0
70 61 64 381 390 396 403 0
85 2 5 -7 83 480 -495 496 0
24 23 26 28 206 209 216 242 0
-446 3 -6 -435 -437 0
-495 2 -7 83 85 480 496 502 0
-88 -82 -84 105 107 -108 567 582 0
-496 62 -66 385 -488 0
-486 71 74 442 449 -480 0
80 71 73 436 441 454 0
-75 -62 -65 -82 -83 429 437 450 0
336 21 26 27 28 -52 53 218 346 471 488 0
35 34 38 246 265 266 281 0
-63 -53 -56 64 68 231 382 390 401 0
-15 11 174 180 186 187 189 190 0
-21 204 207 208 209 236 0
-106 563 564 573 580 585 596 597 605 0
564 102 104 -105 109 110 -562 0
580 102 104 105 -106 -562 0
488 -52 53 71 74 -313 336 346 435 471 0
-53 -313 336 338 354 356 357 0
-593 3 6 114 -142 -579 0
-495 -65 384 399 -481 0
66 61 63 67 68 384 391 0
-593 -7 -481 -498 -579 0
592 -105 564 571 575 579 588 591 605 0
103 101 -105 106 107 561 571 575 588 605 0
109 102 103 110 563 565 586 587 596 600 0
136 -4 -141 0
-51 -6 -7 8 -31 -39 52 336 337 338 342 0
-421 -67 69 388 396 403 410 0
-59 51 351 358 364 0
-65 64 384 396 397 399 0
-78 73 432 436 441 454 469 0
66 61 64 68 69 70 412 0
15 16 17 162 170 183 0
-68 25 26 27 387 395 398 424 0
17 18 19 186 190 193 194 0
25 30 236 237 238 240 241 243 0
148 -6 18 -20 143 146 152 197 0
84 89 90 471 0
-480 34 35 37 283 284 -471 0
480 86 87 88 495 0
-25 -5 -6 -107 -108 -109 234 235 0
-109 -5 -6 7 -15 -35 -107 -108 142 0
-23 -5 8 -13 -15 16 17 18 -29 -174 0
-26 23 25 205 226 236 237 0
336 2 -5 12 -15 16 17 18 -25 -26 201 236 237 240 -328 0
360 51 56 60 345 373 375 376 378 0
-225 1 2 -5 17 18 167 -328 0
90 34 35 37 -39 81 84 250 471 0
-75 434 437 444 450 459 0
31 -5 6 34 -108 -109 255 281 282 285 -328 0
-11 -1 -9 15 16 164 195 516 0
360 -21 -25 52 59 60 122 342 371 372 375 0
24 -25 28 29 30 34 37 38 219 283 284 0
57 54 56 58 336 337 345 365 0
-4 -5 -7 -34 -108 -109 283 284 0
-56 -46 346 347 355 360 371 372 0
-471 59 60 371 372 375 -481 -495 0
-188 15 -18 187 189 190 192 0
-177 21 25 -28 -173 237 240 0
-230 12 15 16 17 -20 -218 0
23 12 15 16 17 21 25 26 27 -28 -82 170 0
-74 -319 432 450 451 452 0
22 23 25 26 28 203 -328 0
87 2 4 -5 -7 -46 83 -313 336 341 342 371 372 375 480 0
43 -1 -9 -11 15 16 -18 25 -28 83 195 237 240 480 0
-235 6 36 37 38 143 0
-55 343 347 354 360 370 0
-444 73 -75 427 435 443 0
-57 51 54 -331 345 0
106 102 104 107 109 562 604 0
38 31 33 40 261 276 277 281 0
-75 73 429 437 450 0
-2 122 123 0
-331 51 -57 -313 346 0
-580 -2 -596 0
107 101 102 104 106 582 605 0
107 101 102 108 578 579 585 605 0
-579 84 484 490 -593 0
-103 561 562 570 578 580 582 592 605 0
-65 384 390 391 398 414 415 0
432 -6 -7 -71 386 426 428 429 445 0
388 -7 62 68 150 386 387 389 398 411 422 0
432 4 7 72 -74 -319 450 0
393 61 63 -319 392 420 0
420 61 62 63 405 406 0
-495 51 -52 -55 57 58 -328 0
-3 -8 -17 -18 -23 0
170 21 25 27 -82 -83 218 237 238 239 0
-271 -46 61 63 64 66 67 0
396 63 67 68 397 405 406 411 0
289 37 39 254 262 270 276 278 282 284 0
424 -70 389 393 399 410 422 0
602 101 102 104 106 109 600 604 0
572 104 106 107 108 570 579 0
587 106 108 561 562 570 585 592 605 0
89 81 87 90 483 485 495 0
215 29 30 207 218 231 232 236 0
88 87 481 489 490 0
460 -80 434 442 446 447 455 0
89 90 -561 -562 0
1 3 4 122 123 0
-566 5 -8 62 64 -313 411 0
423 62 70 386 387 388 398 411 421 0
354 -1 7 -45 51 58 -313 360 371 0
-81 -61 -64 -73 -313 0
78 74 75 76 77 0
22 21 23 24 27 0
89 81 83 90 0
110 101 105 106 107 108 0
110 101 102 104 105 106 0
108 101 102 104 105 107 0
108 101 102 104 105 107 0
-38 31 -82 -84 177 267 278 282 285 0
-52 336 348 349 350 351 352 0
488 471 486 487 0
62 61 64 403 404 0
62 63 386 387 405 406 411 420 0
26 23 25 28 206 216 217 0
-18 162 166 175 188 195 198 199 0
220 21 -26 28 29 30 -218 235 236 0
228 21 25 26 27 -28 -218 0
-55 -72 -75 -81 -82 -313 360 0
-26 -6 -53 -56 -59 236 400 0
6 -67 -70 -76 -80 0
-108 1 2 -7 -104 -105 0
-6 1 -5 122 130 136 0
-340 27 28 29 30 218 -336 0
-386 -61 62 67 407 411 420 421 422 0
101 105 106 107 108 605 0
-337 72 -73 74 -359 481 0
-384 72 73 -75 -383 0
-85 74 -75 -81 -82 -83 0
29 23 24 30 201 237 240 0
-437 -72 73 74 -319 429 -450 0
-331 34 -37 38 251 255 0
-58 25 -28 51 60 237 240 350 353 0
-13 -6 -8 -16 -23 25 27 0
-346 -52 54 -319 338 0
-59 343 345 346 347 353 354 360 375 0
54 55 57 336 337 345 372 0
7 147 -324 0
-14 15 16 184 185 195 0
12 13 14 15 16 195 0
22 21 23 25 26 240 0
-23 25 223 224 236 237 240 0
488 2 4 -84 -141 482 498 0
54 -51 52 55 337 371 372 375 0
23 21 25 211 236 237 240 0
-590 -13 15 16 -23 25 195 236 237 240 0
-313 34 35 246 281 282 285 0
14 11 15 16 165 195 0
33 34 35 246 281 282 285 0
-14 16 -42 -82 -85 187 0
-123 85 -141 -146 481 0
-4 -6 -7 -8 -24 25 0
-219 -23 25 232 233 -324 0
-19 14 15 16 -22 -29 178 195 525 0
-54 5 -8 -313 338 346 360 0
-34 35 -104 -105 274 281 282 285 319 0
-578 11 15 16 195 -585 0
-595 -14 15 16 -34 35 195 281 282 285 0
-166 -12 15 181 182 183 0
-254 -11 15 18 -21 25 -147 -150 191 0
14 11 15 -45 165 191 192 195 0
21 -12 -13 25 211 218 236 237 240 255 0
-352 21 218 231 232 233 236 237 240 471 488 0
-130 -12 17 -147 -165 -324 0
-104 105 106 110 563 589 600 0
-218 -24 25 220 221 222 0
107 102 104 105 109 110 597 0
-85 482 489 0
11 12 15 18 173 191 195 0
-14 15 16 -18 -24 25 26 -34 35 38 195 281 0
101 102 107 108 109 110 586 0
173 11 12 15 191 192 195 0
-489 104 -105 106 108 -480 601 602 0
101 104 107 110 570 597 598 603 0
-55 -82 -84 -102 -105 339 354 0
-19 14 15 18 166 171 178 191 0
-482 -45 52 -55 337 -481 -483 0
-262 21 218 231 232 233 236 237 240 471 488 0
-30 -12 -20 23 25 230 236 244 570 0
-19 15 166 171 178 184 191 192 195 0
-217 -31 35 -246 281 282 285 488 0
13 12 14 15 18 191 0
-20 -11 -13 33 35 -40 281 282 285 571 0
-495 11 15 191 192 195 -488 0
-138 11 -14 15 -147 -150 165 0
13 11 14 15 191 192 195 0
2 3 -6 -7 101 -102 103 104 -105 106 109 0
488 -1 -7 -141 482 0
-24 25 229 230 236 237 240 0
-34 35 274 275 281 282 285 0
30 23 25 -147 -150 208 216 236 0
481 1 4 -5 85 -141 -146 -488 0
-595 -24 25 -34 35 236 237 240 281 282 285 0
-106 101 102 110 578 596 597 598 0
-13 -7 -8 -17 -20 -23 25 238 0
107 102 105 106 108 578 0
-218 -23 25 229 230 236 237 240 0
-595 15 17 18 -34 35 -181 281 282 285 0
101 -105 106 110 570 571 578 600 601 603 0
102 103 104 106 110 600 601 603 0
-23 25 -103 -104 -147 -150 223 269 0
-24 25 -43 -147 -150 229 579 0
-21 -2 -7 -8 25 205 427 472 0
52 55 343 344 353 371 372 375 0
-230 -14 15 16 -34 35 195 281 282 285 0
-208 -11 15 16 -31 35 195 281 282 285 0
24 22 23 25 26 240 0
-184 -24 25 -34 35 236 237 240 281 282 285 0
-471 105 -106 110 596 597 598 0
2 3 4 -7 11 15 -104 -105 -141 192 195 488 0
-141 -7 -45 0
-12 15 18 168 169 0
-72 435 436 438 439 440 441 442 0
-60 340 352 359 365 370 375 0
-166 -24 26 28 -43 232 0
170 11 15 16 17 -166 0
101 104 105 106 109 110 575 0
105 104 107 109 110 573 575 597 0
-104 105 107 109 110 586 588 0
-73 -33 -37 221 -313 427 435 0
-588 15 16 18 -578 -579 0
-22 25 26 27 216 217 0
102 103 104 106 107 110 603 0
-432 25 26 -28 218 240 -426 0
65 61 -62 -313 391 393 420 0
-386 34 38 276 -313 -381 0
561 103 104 105 110 598 603 0
381 -62 65 -313 391 393 420 0
33 34 37 38 246 -324 0
-62 -313 381 391 392 393 420 0
439 -72 426 436 440 444 445 456 457 0
-62 -313 386 387 391 392 393 420 0
-73 71 72 76 -313 444 447 0
-62 382 391 392 393 396 397 420 0
383 62 63 66 382 398 415 420 421 423 0
76 74 75 78 426 446 0
102 101 104 105 110 598 0
-497 103 105 106 -107 108 -481 0
-52 58 336 346 349 351 352 354 0
54 52 55 337 342 356 357 377 0
-52 -62 -66 186 347 349 350 0
-51 -8 147 336 337 338 339 341 475 0
77 71 74 75 76 -313 0
-74 73 76 78 450 452 0
-454 61 62 -313 398 471 -481 488 0
75 72 74 76 77 -313 0
162 15 17 -102 -107 165 183 193 195 397 0
-103 105 562 580 581 582 583 0
283 35 37 246 247 255 270 272 273 284 0
452 71 72 76 -313 450 0
54 52 55 57 58 358 359 0
78 72 74 76 79 80 457 0
-384 62 64 69 399 404 415 0
103 106 107 108 109 110 571 0
77 72 75 76 78 449 0
77 71 72 75 76 -313 0
457 -68 -69 72 73 74 456 461 0
457 72 78 -313 428 444 456 461 0
409 -62 63 65 68 381 407 410 421 422 0
257 31 34 36 37 -313 -328 0
-336 -55 -313 -495 0
-345 -52 53 54 55 57 58 -313 0
13 -5 -7 12 14 16 -31 -35 0
101 102 104 106 108 109 578 602 0
393 61 -62 -313 391 392 420 0
405 -7 8 62 63 384 387 406 -415 0
-108 11 13 15 -17 -103 -105 0
406 62 63 385 386 387 405 420 0
13 12 15 16 17 163 166 185 0
-106 -25 -103 -110 231 232 233 359 0
-104 11 16 18 -103 -105 187 0
38 250 254 255 261 268 270 271 277 284 -331 0
24 -11 -13 23 26 27 28 -82 -84 0
109 101 104 105 106 108 602 0
-58 52 342 357 363 0
570 -46 104 105 106 108 109 0
110 101 102 105 107 109 597 0
11 12 15 16 18 21 25 26 28 0
-427 104 105 107 108 109 -426 0
110 101 104 106 107 575 576 603 0
109 101 104 105 107 110 597 0
109 101 102 104 107 108 599 0
102 104 105 106 108 109 602 0
-14 15 16 17 184 185 0
562 -103 105 580 582 583 602 0
-51 -46 336 337 341 342 360 0
-58 -328 350 357 363 368 375 0
27 21 26 29 217 218 233 0
-173 11 12 15 -18 21 25 -28 237 240 0
228 21 22 25 26 -28 -218 0
110 101 102 104 107 109 597 0
27 21 22 25 26 -43 534 579 0
21 11 12 17 -18 22 25 26 27 0
76 -18 -20 71 72 74 457 0
-87 -4 -6 11 -14 17 -83 -84 -324 0
-13 -18 21 26 29 30 -82 -84 232 0
23 -4 -7 -11 -17 22 25 26 27 0
109 101 102 104 105 599 0
59 53 55 341 342 346 374 375 0
32 34 36 247 285 -324 0
-21 -11 -13 24 27 28 -82 -84 202 204 0
-38 -82 -84 177 249 267 273 282 285 0
-331 11 14 16 18 165 0
136 -4 -7 -146 0
-38 252 255 273 282 285 288 289 0
-28 24 25 207 215 222 240 0
-72 73 433 436 440 442 456 457 461 0
-28 81 90 207 215 228 240 267 486 0
-599 -25 26 27 31 -35 36 37 255 270 -278 0
-27 25 206 214 227 236 241 242 0
-279 16 17 18 26 27 28 0
-58 25 -28 237 240 342 346 357 379 0
-434 -11 16 17 18 -31 249 281 282 285 0
23 -11 -13 24 25 26 27 -82 -84 0
12 13 14 17 18 19 164 0
190 -15 16 17 18 171 174 184 0
-60 -45 344 352 353 374 375 591 0
-105 101 102 104 591 592 593 594 0
31 34 35 36 37 255 0
27 -6 8 25 -28 30 31 34 35 -36 37 -38 255 0
-58 -73 -78 -83 -84 342 350 0
33 31 34 36 37 261 262 0
-35 21 22 24 25 -26 27 -28 -38 -45 0
-36 21 -22 25 -26 31 35 -146 283 284 398 0
240 25 -28 207 228 233 237 -255 -488 0
-599 16 17 18 26 27 28 0
110 101 102 104 105 601 603 0
-602 25 27 28 31 33 34 -36 37 282 0
105 101 102 104 107 601 603 604 0
-132 25 28 34 35 -38 -83 -84 -147 226 285 -331 0
23 -11 -12 24 25 27 28 111 0
28 26 206 214 227 236 -324 0
-324 11 14 16 17 165 0
-19 -8 -12 -22 25 -102 -103 143 0
-352 -22 25 26 27 -32 38 258 277 0
-34 270 271 272 273 0
-4 -7 -103 -146 -488 0
336 -18 -20 54 60 337 345 354 364 373 376 0
102 101 104 105 601 602 603 604 0
-30 26 -101 -103 127 217 230 232 244 0
54 58 336 354 359 370 371 372 373 376 377 0
32 34 37 38 247 -328 0
-60 -103 -106 235 344 352 365 0
28 21 23 26 214 216 217 231 241 242 0
-457 -46 61 62 -65 398 0
-370 -46 104 -105 106 109 561 582 0
-102 101 105 573 574 575 576 0
-26 231 236 237 -328 0
-106 11 13 -15 17 -103 -105 0
-286 -7 8 25 26 28 0
-21 -6 -7 -27 -31 35 38 0
-85 -55 -83 -84 -101 -103 -480 0
247 25 27 -28 29 30 34 36 37 -38 40 -83 -84 -252 288 0
267 31 34 -38 -255 0
102 101 104 106 -146 601 602 603 604 0
-152 52 -60 -146 342 359 365 0
217 23 24 25 27 207 216 243 0
-270 -45 51 52 -55 353 0
-26 25 236 237 -328 0
-23 -13 -15 -20 25 26 27 -28 -106 -110 0
-189 23 25 28 36 37 38 -159 201 211 236 -270 0
-24 -7 -8 25 26 -34 -38 0
-496 16 17 19 20 180 -488 0
-270 -45 52 53 54 -55 0
-73 -21 -22 -27 124 169 443 448 449 0
-183 -34 -188 271 -331 0
-53 -51 -60 82 493 0
-9 -6 -7 -11 -19 -51 55 58 0
-72 433 435 436 439 440 442 456 0
282 32 33 35 -38 39 40 251 0
-114 101 -102 105 -141 -142 -143 0
-28 25 207 215 222 237 240 0
-28 -3 -6 25 -107 -109 207 228 237 240 0
-136 -34 35 38 -146 0
26 8 14 16 19 20 21 25 27 -28 -45 228 480 0
66 61 63 65 69 70 420 0
-490 -6 11 14 -15 -488 0
399 61 -63 64 68 394 400 0
-302 -22 236 237 240 -324 0
-30 -6 8 -14 18 -28 -34 -38 39 -45 0
-62 381 390 391 392 395 421 422 0
16 -7 -103 -146 -488 0
-25 201 219 225 -324 0
-22 -16 -18 -27 -28 -52 55 0
259 33 34 -37 251 0
277 -33 38 276 281 -313 0
407 61 62 -313 398 405 408 0
446 -53 -57 -73 74 232 -313 444 0
57 52 54 55 58 -313 0
-435 71 -72 73 -313 0
259 34 -37 46 251 -313 0
254 34 36 39 277 278 285 -313 0
362 56 58 -313 339 341 346 349 0
3 -5 -7 -65 -66 -82 -83 84 87 0
152 -6 -7 8 25 -29 243 0
546 -6 -7 8 -45 -59 378 0
103 -6 -7 -46 101 104 105 0
86 -6 -7 -23 -26 85 480 0
8 -6 -7 16 17 -35 -38 -324 0
1 4 -6 -7 -84 85 481 490 0
1 -6 -7 -13 -14 -83 -84 481 490 0
222 -6 -7 -9 25 30 -45 201 228 0
414 -7 8 63 66 -69 423 0
422 -7 8 62 63 64 68 411 0
410 -7 -51 -58 62 63 65 66 68 0
183 -10 -15 -45 162 165 0
-166 -7 -84 -169 -498 0
29 -5 -7 -10 -18 -20 26 0
-270 -5 -7 -15 16 18 -23 -27 336 0
209 -30 215 228 235 239 242 0
209 -5 -7 -8 -30 -34 39 217 239 271 0
-109 -6 -7 -110 0
3 4 -6 -10 84 85 -106 -107 0
430 -6 -7 -71 74 386 429 432 0
142 -6 -7 -51 -57 -71 72 74 432 444 0
23 24 26 28 201 240 -331 0
-37 31 34 255 281 285 -331 0
-602 15 17 18 25 27 28 0
-24 -6 -7 -8 25 -34 -38 0
-37 -15 -16 281 285 -331 0
107 102 104 105 106 603 604 0
-30 23 209 230 235 236 237 240 0
-14 5 -8 -15 -16 -34 0
494 25 26 27 -28 81 -83 -103 -109 480 0
24 21 23 25 26 214 0
-285 36 37 -38 278 286 287 0
-62 67 381 391 393 395 399 0
-36 34 35 250 255 281 283 284 0
-7 -6 -103 -488 0
-38 252 255 271 273 277 278 282 288 289 0
27 25 26 243 244 0
27 25 26 -82 -83 170 207 228 0
-34 -4 7 -8 -106 -108 0
-489 51 90 374 375 471 -480 486 -488 0
-58 51 -82 -83 -84 -86 -143 0
-232 26 27 28 -331 0
-58 51 55 350 353 372 375 0
-52 51 58 -328 345 346 349 0
-25 15 16 -18 -27 -28 0
62 -55 -56 -60 61 69 398 420 596 0
-40 7 -25 26 27 -35 -38 0
74 72 73 79 -101 -108 152 0
26 25 206 207 215 221 222 227 228 0
26 22 24 25 27 207 -324 0
-277 35 -37 38 -324 0
28 25 205 206 213 218 221 227 0
52 53 54 56 58 60 376 0
-59 -18 -20 55 56 376 0
56 -18 -20 55 345 346 353 375 376 377 379 0
-72 426 435 436 437 461 468 469 0
-9 -5 -6 -34 38 -105 -110 -331 0
34 38 246 247 255 276 -331 0
-162 -5 -6 -8 -81 83 85 88 0
27 21 23 -25 26 28 229 230 0
-23 26 28 30 221 223 0
28 25 206 214 218 -328 0
57 25 27 28 -51 -52 218 339 350 0
26 25 28 201 221 227 240 0
-219 -25 29 221 224 231 233 0
24 23 25 -26 201 237 -331 0
26 25 28 206 217 227 241 0
26 25 28 206 216 227 242 0
-19 -14 -25 -34 -35 231 232 233 271 272 273 0
-25 -14 -20 -34 -35 231 232 233 234 0
-75 51 -55 73 -83 -84 347 437 459 460 0
-72 -82 -88 195 426 435 436 437 461 0
-75 -52 -55 72 -82 -83 -84 429 0
-20 8 -17 -18 -141 0
-52 342 345 346 347 349 351 352 0
-565 7 -8 -51 339 341 0
-14 -17 -20 -34 -108 -110 270 271 0
-37 -8 35 251 255 272 286 287 0
-51 -328 336 337 338 341 342 0
-8 -5 -6 34 37 246 247 255 276 0
55 51 -331 345 346 353 372 0
-482 51 -55 -480 -481 0
385 62 63 64 67 413 0
-68 31 34 -38 -62 -82 -83 0
-68 51 -58 -62 -82 -83 -84 0
55 53 57 59 60 337 346 372 0
52 -51 54 55 -331 337 374 0
-1 -6 -72 -141 435 437 440 0
-163 52 53 54 -71 73 74 429 432 461 0
-343 -11 15 -16 17 72 73 74 162 0
-72 -11 -16 -51 -52 435 436 437 440 0
-65 -83 -84 -103 -105 384 392 0
-78 73 -84 -88 285 432 440 0
25 21 22 229 230 236 237 240 0
-58 31 34 35 36 -38 52 54 60 255 337 0
-9 -5 -6 38 -39 286 0
11 12 13 15 17 166 184 199 0
58 51 56 -331 345 346 353 0
-374 15 17 18 -36 37 38 276 0
-11 7 -16 -31 37 38 0
-58 36 37 -38 -51 -52 -82 -83 270 0
-395 -62 387 390 391 423 424 0
-282 34 37 -38 250 255 276 283 284 0
-58 34 -38 -51 -52 89 472 -480 493 494 0
-101 -51 52 56 58 -83 -84 -103 -105 0
-58 34 35 36 37 -38 -52 -82 -83 0
62 4 -5 -52 -55 61 -82 -83 -84 398 400 420 0
57 55 336 337 338 345 346 353 372 0
-59 55 58 336 337 345 364 0
13 7 11 12 -15 -34 -331 0
-599 -5 12 -15 16 17 -18 174 180 0
-78 -18 -20 73 74 432 0
71 73 74 78 456 457 461 0
-59 343 351 353 369 376 0
-78 61 62 -68 -72 -82 -83 -84 0
-61 62 67 382 384 388 389 406 0
66 63 64 68 -331 384 0
-38 34 -62 -68 -82 -83 252 0
63 -61 62 64 65 68 -331 0
32 31 35 36 45 46 266 270 -313 0
-187 16 17 18 169 176 180 0
433 73 74 -82 -88 195 434 456 457 461 0
-35 249 255 270 278 279 280 0
-264 -313 -324 0
-264 -24 -25 -53 -55 0
313 -24 -25 -53 -55 -324 0
324 -24 -25 -53 -55 -313 0
-310 -24 -25 -53 -55 321 0
-362 -319 -331 0
-407 -319 -331 0
-362 -34 -37 -74 -75 0
-407 -34 -37 -74 -75 0
319 -34 -37 -74 -75 -331 0
-315 -34 -37 -74 -75 322 0
51 59 -331 345 346 353 370 374 0
-14 -5 -6 -8 -15 -34 -331 0
-125 101 102 -103 104 -143 -147 604 0
-35 249 251 255 270 277 278 -328 0
57 51 55 56 345 346 353 0
-34 -5 -6 -8 -14 -15 270 272 0
-14 -5 -6 -8 -15 -17 -34 0
-6 -103 -480 -488 0
-34 37 -56 -59 270 273 0
246 37 247 255 270 272 273 278 283 284 0
71 73 74 75 435 436 439 440 0
-34 -4 6 39 271 283 284 289 0
-78 31 34 -38 -72 -82 -83 0
-271 31 34 -135 136 255 273 277 278 285 0
-36 35 250 255 270 272 273 283 284 285 0
-16 11 15 17 168 175 -328 0
-34 -4 -18 -20 31 36 -38 255 270 272 0
36 35 38 246 247 255 272 0
338 -51 55 58 336 337 373 374 0
-34 6 -105 -108 273 -328 0
-34 271 273 274 275 277 0
-34 270 273 274 281 284 287 0
-71 -7 -8 73 74 77 426 427 456 477 0
72 -7 -8 73 74 456 457 461 477 0
-30 205 220 226 235 242 244 0
-239 15 17 18 35 -36 250 255 270 272 273 285 0
-180 -34 37 -188 -328 0
-18 163 165 184 188 192 195 199 0
-599 17 18 20 -602 0
-57 54 -331 341 345 0
-15 -6 11 167 174 180 0
218 25 205 207 209 213 215 235 237 241 242 0
-38 31 32 35 273 282 286 287 0
-15 13 159 167 188 189 190 0
-17 -7 -8 -56 -58 187 195 -331 0
-274 -14 15 16 17 26 27 28 -225 0
-143 11 12 16 -18 -142 173 0
-228 11 12 16 -18 -218 0
34 31 32 36 277 -313 0
28 6 11 13 15 16 -18 25 26 143 183 0
-28 25 26 207 215 228 240 0
-183 11 13 16 -18 -34 37 38 -43 -46 180 195 0
-38 31 260 278 282 285 -313 0
67 62 64 66 68 -313 398 0
12 11 13 16 18 187 0
34 31 32 266 -313 0
173 11 12 18 187 -328 0
27 25 26 207 215 218 0
272 -34 35 38 250 258 -313 0
37 35 38 250 258 -313 0
35 31 36 260 -313 -331 0
-45 -2 -5 -7 -11 15 16 18 -43 0
-68 -34 -35 -38 -64 -84 88 282 480 0
-36 34 250 258 282 -313 0
277 34 36 246 252 260 -313 0
24 21 22 23 -26 28 0
-21 29 205 207 209 232 0
-36 34 250 258 265 0
-2 -5 -7 -12 18 -328 0
-186 13 -15 17 18 -83 84 160 161 192 193 194 0
130 -3 -141 0
-122 84 85 -141 492 0
-60 -1 -5 -45 344 359 365 0
-35 33 37 249 257 276 278 0
-72 -1 7 -54 -58 73 74 -82 -84 426 0
225 21 22 -25 26 28 -57 -59 0
34 7 -11 -16 38 -57 -59 255 0
-74 72 73 78 -319 451 452 0
-67 62 -331 386 398 0
-58 -18 54 188 192 195 336 337 345 379 0
37 38 249 270 -313 -328 0
64 63 65 68 388 389 393 0
17 11 13 166 188 -328 0
-277 -278 -328 0
-246 -254 486 488 0
15 -26 -28 -46 -84 161 162 -498 0
21 22 28 218 234 235 236 0
13 11 17 166 188 -328 0
-28 23 207 215 233 240 243 244 0
105 106 561 578 581 582 587 588 600 605 0
-15 14 159 165 188 189 190 191 0
33 31 32 38 277 -328 0
-270 -24 28 -277 -328 0
-14 -6 -9 -45 183 185 0
-491 1 4 -6 -488 0
-8 3 -81 -82 125 138 162 0
-56 340 346 355 373 374 0
-375 -58 341 346 356 376 377 0
-26 -16 -18 -25 -331 0
-349 -22 215 234 235 -371 0
-3 -5 -6 -8 -23 221 0
28 -2 -5 26 219 225 241 242 337 0
-12 -2 -5 -7 170 -328 0
71 61 63 64 -72 74 435 471 488 0
-105 564 572 582 585 591 592 600 605 0
78 73 75 76 77 0
2 4 -7 -84 85 -141 488 0
19 -7 8 11 12 15 20 -46 173 0
19 18 20 -35 -36 187 0
129 -7 84 85 135 -141 0
3 4 -7 84 85 -141 -480 488 0
-491 3 4 -7 -146 -480 0
151 4 -7 8 -103 -104 -108 0
388 -66 389 393 400 406 0
96 93 94 95 97 98 0
97 92 93 94 95 98 0
96 92 93 94 97 98 0
-6 2 4 -82 -84 86 -87 88 0
-67 -57 -63 -70 338 349 0
-7 -6 9 55 -60 150 379 0
107 106 561 562 564 570 572 579 588 605 0
-489 85 -480 488 491 501 503 0
21 23 25 28 211 216 217 226 0
-33 -23 -26 35 267 268 269 398 0
-360 51 52 -54 -55 60 -75 83 339 354 429 -437 444 450 473 0
-66 61 390 397 404 406 418 0
-340 33 -36 38 271 -336 0
-37 -23 -27 34 251 259 443 0
-397 51 53 54 57 58 81 84 360 0
-107 561 563 592 596 600 601 602 0
-142 3 4 -5 -6 116 124 0
-253 -72 73 78 -246 450 461 488 0
-360 51 52 59 354 359 370 0
-5 -64 -66 -82 -83 -84 135 0
65 61 64 67 68 390 0
-490 61 -66 -319 -480 0
-63 61 -313 390 398 0
-491 -6 -481 -488 -489 0
-55 59 90 339 370 471 -480 486 0
-69 63 64 388 396 0
60 -51 55 57 58 59 345 346 353 0
-254 72 73 74 -246 432 439 456 -484 488 0
-5 4 -7 -63 -66 -82 -83 131 0
5 3 -82 85 136 481 490 0
-16 5 -56 -59 186 0
-360 54 -55 -319 336 337 345 0
-51 -55 -75 -81 -82 -83 -319 0
-490 -66 -319 -472 -480 0
-18 12 14 16 17 162 198 199 0
77 72 74 75 76 -319 432 0
-36 31 258 271 282 283 284 0
-62 3 -5 135 381 391 392 395 421 422 0
429 72 74 -313 432 461 0
-73 71 -313 440 443 445 446 -473 0
-70 63 389 391 411 422 424 0
-391 -61 67 -381 387 405 406 0
-168 3 4 7 -61 -62 156 0
-442 -32 258 259 260 471 488 0
-58 54 342 350 357 0
-262 -62 63 381 391 471 488 0
-39 37 253 255 273 279 283 0
-40 254 255 271 280 287 289 0
28 26 27 30 234 -331 0
-34 270 271 285 288 289 -331 0
-328 57 336 345 350 -472 -488 -495 0
110 102 103 105 109 563 0
-58 -18 188 192 195 342 350 353 379 0
61 62 68 87 88 398 401 402 405 406 420 481 0
-72 -43 73 -102 -103 426 436 441 0
7 71 72 -73 -74 -75 78 79 80 0
-114 -82 85 87 -142 488 0
62 64 66 -313 384 420 0
-25 21 26 28 212 218 232 0
-34 39 270 275 281 282 285 0
-32 246 258 259 260 262 279 0
-104 563 571 578 586 587 588 605 0
-104 83 -84 86 -105 -107 -108 0
-74 428 437 440 443 451 452 458 0
57 58 59 338 339 345 354 360 374 0
-38 32 252 273 285 -313 0
-32 35 260 261 262 281 0
-246 -31 38 250 261 262 277 0
-444 52 -55 -319 -427 0
385 63 -66 -319 -381 0
-21 -6 -8 -51 -56 206 -324 0
107 101 105 106 573 575 576 578 0
-55 -52 -85 -102 -103 0
-54 -52 -102 -103 0
-28 207 215 222 229 233 236 244 0
-72 426 437 438 439 440 444 0
-52 55 58 -331 348 0
-28 24 25 207 215 237 240 0
-215 35 -38 -201 282 285 -313 0
-11 -5 -7 16 18 -21 -25 0
-56 340 348 355 373 374 0
-38 252 260 273 285 -313 0
40 34 37 38 39 250 255 0
-55 52 -319 339 354 0
-88 -5 -7 -12 -15 135 0
-340 51 -56 -319 336 337 0
-67 61 -319 394 401 0
-66 61 83 -102 -106 -313 0
-150 141 -142 -146 0
-24 203 211 218 225 227 228 0
-105 106 564 572 579 587 588 600 605 0
-573 -82 87 480 -591 -597 0
-586 88 480 497 -591 0
-76 430 438 445 451 0
-496 -5 -66 -84 135 -473 -481 0
-390 61 63 -319 391 395 399 400 0
-55 -62 -65 -81 -82 -319 354 0
-592 5 -6 83 -84 85 86 -579 0
-151 -7 9 153 0
105 101 102 104 596 597 605 0
85 4 5 -6 -7 -84 86 -103 -104 488 0
21 22 24 29 30 218 231 236 240 0
-257 34 -35 38 249 255 261 262 285 0
104 102 106 107 108 564 570 605 0
-283 25 27 28 -146 147 0
-586 -7 84 85 -141 -585 0
103 102 106 108 109 110 587 0
-24 227 228 229 231 235 239 0
-39 -31 -33 -59 347 364 378 0
104 106 109 110 561 562 570 600 0
-107 1 -5 -74 -75 -77 -106 122 0
-492 129 135 -142 -480 0
-436 -72 435 439 450 451 453 0
-4 135 137 0
-62 -13 -16 258 381 390 396 397 0
-57 -37 -40 54 337 349 0
-403 51 52 54 353 472 481 0
-161 15 16 -17 162 163 164 0
-33 -35 37 38 51 52 -53 59 219 276 472 481 0
-217 -72 -426 435 436 437 440 461 488 0
-489 -75 -319 -426 -480 0
-55 -63 -65 -319 339 354 -480 481 0
-11 -3 7 -21 -23 161 162 0
51 -33 -35 37 38 52 81 84 219 265 266 276 -319 472 481 0
-184 -24 27 -34 225 237 271 273 277 0
-384 73 -75 -319 -381 0
-65 63 -319 384 392 0
74 62 63 64 -72 -381 435 488 0
384 63 -65 -319 -381 0
-591 72 73 78 428 -596 0
-75 -55 -73 -82 -83 -319 -427 0
-77 3 -6 -73 -75 -82 -83 0
-105 106 566 572 579 585 593 605 0
-186 -15 16 18 160 165 181 0
-71 -55 -61 -64 -75 -313 347 0
485 3 -5 -6 136 481 482 488 0
498 -5 -6 -13 -15 -84 488 495 0
2 -5 -6 -13 -14 -17 480 488 0
88 -4 -5 -6 -12 -14 -83 84 0
230 -4 -5 -6 -8 29 30 -34 -37 -84 -87 201 205 242 0
440 -1 -5 -65 -66 71 73 -319 0
125 -3 -5 -21 25 26 27 -28 -45 84 0
22 -4 -5 25 26 -27 28 -64 -66 206 0
-233 -237 -331 0
-39 -5 7 -8 -109 -110 0
102 -5 -8 103 104 105 -106 0
135 -5 7 71 72 75 78 0
403 -5 -63 135 382 390 399 404 420 0
108 -5 -45 103 105 107 561 0
601 -5 -45 101 -102 105 -576 603 0
3 -5 6 -12 -14 84 87 0
3 4 -5 -480 -483 0
1 -5 87 88 135 480 481 489 0
65 66 67 68 0
272 -6 -8 -24 27 -34 271 -324 0
123 -6 -74 -77 -82 -84 136 0
150 -35 -36 -45 0
61 62 63 -319 0
382 62 67 68 -319 411 0
387 62 63 -319 386 411 0
401 62 68 -319 382 386 411 0
388 62 67 68 -319 383 389 411 0
345 51 54 55 58 371 0
383 -64 -73 -74 -319 0
394 -62 66 392 395 0
438 -53 -58 -72 84 -319 426 457 0
443 -71 72 74 -319 -428 0
449 71 72 -102 -104 -319 448 0
451 73 -74 78 450 452 0
78 73 75 -319 426 461 0
-61 -54 -63 -319 -471 0
432 -71 73 -319 426 429 461 0
400 61 -64 -319 390 393 405 420 0
338 55 58 -319 336 337 339 345 371 0
253 -31 35 37 38 254 0
355 52 59 60 337 340 360 375 0
124 3 -6 -7 101 103 104 -105 109 110 0
246 33 34 36 37 39 -45 0
431 73 74 -319 427 432 437 438 440 456 0
251 34 35 38 -46 255 0
409 61 62 63 405 422 424 0
4 -7 -15 -16 -23 -25 -87 -146 0
196 12 13 14 16 162 197 0
235 -25 -35 -37 233 234 0
-389 -61 64 70 381 404 0
-229 -43 101 102 -105 106 109 600 0
-5 2 -7 83 85 87 135 0
86 4 -6 -84 101 105 -107 -481 488 495 498 0
591 -4 10 -34 35 -105 275 281 563 570 592 593 0
107 102 106 109 561 562 563 578 604 0
-4 -61 -65 135 295 0
-67 64 -72 -77 191 386 403 404 0
-102 103 561 571 572 573 574 0
-414 62 64 69 -313 -384 0
-104 4 5 -7 -84 85 -103 -106 488 0
-108 103 105 -106 561 563 571 600 603 604 0
-495 61 -65 -313 -481 0
-75 -62 -65 73 -82 -84 429 0
102 104 105 107 108 562 563 596 605 0
-26 207 216 217 220 226 231 236 243 0
-2 -21 -29 -101 -103 125 209 517 0
-108 103 106 567 575 582 585 600 605 0
-115 1 -5 -6 111 112 136 -141 0
-27 201 221 227 240 241 242 0
38 31 35 39 40 258 266 0
-36 34 -56 -59 250 255 282 283 0
30 26 29 232 233 236 240 241 0
25 22 23 29 30 207 226 0
-101 51 -55 -61 -62 -71 -73 -105 -319 0
340 -51 58 -319 336 337 -371 0
-75 -55 -63 74 -319 -339 345 360 382 -399 405 0
-370 64 -65 -75 381 382 390 429 436 444 0
103 -105 106 107 108 564 571 582 605 0
29 23 27 30 201 225 237 0
-32 257 258 261 262 285 0
108 102 105 107 562 563 578 596 605 0
-130 -84 85 -146 483 488 0
-390 -319 -382 0
359 -60 336 339 347 365 371 379 0
66 63 64 65 69 389 420 0
-11 15 18 160 161 0
73 71 74 441 442 455 0
-87 -81 -82 -84 105 -107 581 0
-57 51 -73 -76 232 -319 349 0
-331 -51 -319 336 337 -341 0
-106 -62 -66 -71 -72 580 586 591 0
-400 63 -66 -319 382 390 0
33 31 36 37 38 261 262 277 0
-404 71 -73 -82 -83 443 472 481 0
106 101 103 105 561 574 588 605 0
-142 85 131 137 -141 481 488 0
-55 59 336 337 345 360 370 0
-74 428 451 452 453 454 455 0
375 51 53 55 56 -319 336 360 0
-85 3 4 -5 -65 -66 -82 -83 0
-78 51 -58 -72 -82 -83 -319 0
-3 7 73 -74 75 -319 426 0
56 42 43 52 53 55 58 365 0
32 34 38 39 247 254 269 0
-254 62 63 64 72 74 76 77 78 0
-55 51 -319 347 354 0
384 -61 62 63 66 67 -319 0
-72 -13 -17 259 426 435 441 442 0
-216 63 67 68 405 406 411 471 488 0
-72 75 -319 426 435 440 461 0
246 33 34 39 40 278 282 0
-38 32 34 252 268 269 278 282 0
38 35 36 253 254 255 272 0
25 28 214 218 221 227 -328 0
66 67 68 69 70 390 405 0
-54 57 -319 338 360 363 0
-73 4 7 -74 75 -319 427 0
-54 51 56 -319 360 375 0
-38 34 -72 -78 -82 -83 252 0
-38 252 260 267 272 278 282 0
-86 51 -58 -82 -83 -143 -319 0
74 72 73 75 432 461 0
53 -3 -5 -45 51 52 0
-1 7 -72 73 75 78 0
74 -68 -69 72 75 77 427 432 0
54 53 58 59 343 344 347 349 0
-66 3 4 -5 -63 -82 -83 0
56 53 57 58 59 342 352 360 0
-269 72 -73 74 75 430 432 472 481 0
-268 72 -73 74 75 432 461 472 481 0
-79 3 4 -8 -78 -82 -83 -89 0
-76 3 4 -5 -73 -82 -83 0
-432 7 -8 -81 84 85 492 0
-313 61 62 64 0
-38 34 252 260 268 269 278 282 0
221 25 201 227 237 243 244 -328 0
-432 1 4 -8 -81 -83 -84 0
-54 57 -64 -66 276 360 363 0
-352 61 63 64 471 488 0
61 62 67 -313 398 408 411 0
-55 -45 51 54 -135 345 0
25 -17 -19 -46 -57 -58 237 -377 0
28 15 18 25 -46 241 242 0
-319 72 426 427 432 444 445 446 456 457 461 0
26 28 208 216 225 232 235 241 242 0
56 -45 51 57 58 59 591 0
-63 382 390 403 404 405 406 420 0
25 26 208 216 218 239 240 242 244 0
-62 381 392 394 395 396 397 0
-78 -28 -29 -43 72 432 469 0
73 72 433 436 453 454 455 456 457 461 469 0
405 63 -64 -313 408 -411 421 422 0
-62 381 394 395 396 397 411 0
-218 -23 26 28 30 227 229 0
482 3 4 7 88 -480 481 0
-163 -21 25 26 27 -28 72 73 74 0
73 72 74 433 434 0
-58 31 34 -38 -52 -82 -83 0
-319 51 -54 55 56 375 0
-40 -38 -61 62 63 67 -68 405 406 0
-84 51 59 60 -82 -480 0
-27 -8 26 -35 -37 241 242 0
85 4 7 -12 -13 -480 488 492 0
-23 25 26 27 -33 -40 223 578 0
-122 2 7 111 120 136 0
22 25 27 205 207 226 228 237 0
-72 74 76 429 435 440 441 442 0
-319 61 62 66 67 413 0
-66 4 -5 -12 -13 -63 -82 -83 0
-21 -6 -8 25 27 -51 -56 0
-55 -54 -58 61 -62 63 67 -82 -85 0
-348 53 54 56 57 58 373 374 0
27 25 26 201 207 215 228 0
-61 7 67 340 384 387 0
61 67 68 390 391 398 411 0
-75 -51 -52 -55 -82 -83 -319 0
-90 3 4 -8 -38 -40 -82 -83 0
458 71 72 74 76 446 0
60 51 52 55 -56 353 0
33 31 32 35 38 281 0
269 35 38 39 254 262 281 0
275 35 36 38 39 259 269 0
266 32 35 36 38 251 0
33 31 32 35 38 -56 -59 0
255 31 34 35 38 -57 -59 0
286 35 38 250 255 271 277 287 0
286 35 38 246 247 255 271 277 287 0
255 31 34 -36 38 -56 -59 0
32 31 34 36 38 -331 0
264 -35 249 257 270 0
256 31 -35 38 264 -324 0
256 31 33 37 38 39 40 0
268 31 32 37 38 40 271 0
143 -36 38 276 -328 0
247 34 37 38 246 255 -328 0
247 32 34 36 38 277 0
268 31 32 34 38 40 0
253 34 38 254 255 276 277 281 0
251 32 33 34 36 38 0
258 31 -36 -255 271 0
268 -37 38 251 259 272 287 0
262 31 33 36 37 38 261 0
259 31 33 36 38 270 0
257 36 38 39 40 251 270 0
261 36 38 -39 251 268 270 0
253 38 -39 261 268 270 281 0
253 38 -39 261 268 270 271 276 0
269 38 -40 249 262 284 287 0
286 38 246 247 255 270 271 276 287 0
286 38 -225 -231 246 247 255 287 0
169 16 18 176 182 -324 0
-40 -38 61 62 64 -68 0
398 61 62 68 -331 411 0
413 61 62 63 66 67 0
-411 63 -64 67 68 405 0
388 62 63 389 405 406 420 0
423 61 62 63 66 410 421 0
401 -63 65 66 68 0
401 -63 68 399 400 0
424 62 65 66 69 398 405 420 422 0
492 61 62 -63 67 402 480 481 491 0
68 -51 -55 62 64 67 -81 -83 0
398 -57 -59 61 62 68 411 0
-40 -37 61 62 64 -67 0
338 -51 58 60 336 337 339 0
-411 -61 62 67 68 384 0
70 62 69 384 386 387 398 0
60 51 59 -73 -74 -83 0
367 51 56 58 59 60 0
375 51 52 55 60 353 0
376 51 52 55 -59 358 0
379 51 52 53 56 59 377 0
366 51 52 58 60 353 376 0
358 51 52 56 57 58 359 0
403 51 52 54 55 56 59 -63 382 411 0
-340 51 -56 59 60 337 338 0
219 -33 -35 51 59 60 345 346 0
173 -7 8 11 15 -26 -28 -46 165 166 0
-241 -7 8 15 16 18 0
124 3 4 -7 15 16 18 166 176 426 0
422 -7 8 61 63 68 391 411 0
-29 -7 -9 -57 -58 0
-39 -7 -9 -67 -68 0
4 -7 -10 -103 -104 -108 0
-84 61 69 70 -82 -83 -480 0
-58 7 -56 331 0
-338 51 52 53 -54 343 344 0
-25 203 212 218 219 231 232 233 0
-259 51 -52 58 -281 351 352 0
27 25 30 216 223 229 237 241 0
-27 -8 25 -36 -37 241 242 0
-351 61 -62 84 390 391 472 0
-28 -8 -35 -37 -58 -59 233 237 0
67 7 62 63 -319 340 382 413 0
-319 51 53 54 -55 -360 0
-346 -52 53 54 55 56 57 -319 375 0
432 -62 -64 72 75 -319 448 449 461 0
-217 56 57 58 84 354 360 472 0
-75 -14 -17 304 429 444 450 0
-25 30 216 223 225 231 232 233 0
-4 -8 -13 -14 21 25 26 -28 214 0
-26 15 18 -46 231 237 0
-63 -53 -56 67 231 382 391 399 403 404 0
-338 -51 52 54 58 354 364 365 371 0
-68 -58 -70 342 345 363 0
-381 -61 62 64 67 382 392 395 0
-328 -51 56 -340 341 342 347 353 0
52 51 54 343 358 359 0
-337 51 52 54 343 344 0
55 -8 -37 -38 51 53 54 372 0
-173 21 22 25 -176 237 240 0
56 -37 -40 53 54 55 58 0
-40 -38 72 74 75 76 427 0
353 -8 -37 -38 51 52 55 372 0
-269 51 52 54 84 472 -480 0
-68 34 -38 -61 -62 -82 -83 0
30 25 -33 -37 -39 -53 -56 237 -285 -288 0
-251 -51 55 56 -285 0
-358 61 62 64 472 481 0
-217 -62 63 64 67 68 411 471 488 0
-251 31 34 -37 246 247 0
-1 7 -72 73 74 78 429 0
72 -38 -40 73 74 429 450 461 0
-182 21 25 28 -176 216 217 0
55 -8 -37 -38 -51 52 54 337 372 0
-63 3 -5 62 67 -82 -83 382 398 402 0
-488 -8 -37 -38 51 55 372 -480 0
354 -51 52 54 57 59 60 345 372 375 0
-78 432 435 441 442 448 449 453 0
-72 78 428 435 437 441 442 461 0
-72 -66 -68 -82 -86 -319 426 435 457 0
31 34 37 38 255 276 0
74 72 427 431 432 435 441 442 448 449 456 0
73 428 433 434 437 439 440 451 452 458 0
74 427 429 432 433 434 435 441 442 448 449 461 0
-25 22 26 -173 -176 204 233 0
75 71 72 78 -319 461 0
-85 73 -75 -82 -84 433 434 0
73 72 433 434 450 453 461 0
-253 -51 52 56 57 58 -246 360 -480 488 0
54 51 52 61 62 64 -319 472 481 0
-54 -63 -64 360 362 364 365 372 0
-52 -55 -57 61 -62 63 64 68 0
25 26 30 206 208 215 216 218 241 0
-52 51 54 345 351 352 0
-26 -33 -36 205 216 217 226 231 237 398 0
-1 -6 -46 61 -62 64 390 0
-22 25 26 214 216 217 0
-344 -31 36 -246 251 278 -337 -480 488 0
35 34 36 37 -62 -68 -82 -83 0
22 23 25 26 206 207 227 -328 0
-35 -5 -6 -34 71 73 74 -75 78 0
36 31 32 35 -37 38 268 269 0
-163 62 -68 81 84 382 383 -387 -471 0
-328 51 52 -56 -319 0
-382 61 62 64 388 389 0
-163 72 73 74 81 84 -471 0
-262 -62 63 67 68 383 411 471 488 0
217 -8 21 25 26 -36 -37 216 222 227 0
221 21 25 205 206 213 215 218 227 237 0
221 21 25 215 216 217 218 227 237 0
-46 -51 55 58 341 0
-352 31 -32 33 35 36 38 471 488 0
53 52 55 57 58 -319 0
-381 61 63 64 388 389 0
-27 23 28 206 214 227 0
-382 62 63 -319 399 400 420 0
65 -61 62 63 68 -319 386 0
-65 51 -55 -63 -319 -480 481 0
66 61 62 65 67 -319 0
-75 51 -55 -73 -82 -83 -319 0
481 51 -55 -73 -75 -319 -480 0
23 24 26 27 28 216 217 0
-40 -36 52 -56 57 58 338 354 360 0
-1 7 71 -72 73 75 -319 0
214 24 26 28 201 206 218 219 227 -328 0
392 61 63 67 -319 -411 0
-33 -38 51 54 56 57 -58 84 0
-135 72 73 78 -141 428 0
-4 -8 21 25 26 -28 -34 -37 215 0
-72 73 75 -319 426 438 439 0
-146 1 7 124 131 136 0
-341 32 35 36 38 -337 0
65 62 63 66 67 69 381 410 0
-62 61 68 69 390 392 397 406 0
-45 -43 51 52 -55 -411 0
360 51 -55 -313 -346 0
346 51 57 58 -313 -328 0
-3 7 71 72 73 458 0
78 73 74 75 426 461 0
61 -54 -56 62 63 65 67 276 0
-26 25 201 220 226 236 237 0
23 21 25 26 211 214 227 0
-259 21 23 25 26 -272 0
-170 3 -8 -81 -82 138 156 0
411 64 68 381 382 390 410 421 422 423 0
-23 29 219 220 240 242 244 0
-64 63 67 -319 381 405 406 0
-55 60 339 345 360 369 0
-488 4 7 -319 471 -480 492 495 0
53 51 54 55 349 372 0
-135 -34 37 -141 -143 0
-129 71 73 -74 75 80 -141 468 0
-261 71 -72 73 436 471 488 0
65 62 63 67 387 406 0
57 51 55 -319 337 345 372 0
-64 -5 61 62 -63 68 135 405 409 410 0
-64 62 63 68 405 406 409 410 0
-31 -3 7 -8 37 338 383 473 0
-39 37 252 261 268 279 283 0
-109 -5 -6 -8 -34 37 -105 0
78 4 7 72 -74 75 -319 0
360 52 57 58 60 337 343 351 358 375 0
-107 7 -34 37 38 -105 0
-319 62 63 68 384 386 0
-74 -319 428 450 451 452 0
33 31 32 37 276 278 282 0
-64 62 66 68 386 405 409 410 0
101 104 107 108 109 110 570 0
-73 -82 -83 -101 -102 443 448 449 0
-442 61 63 64 84 472 0
-262 61 63 64 84 472 0
-359 61 62 64 472 481 0
7 15 16 18 -480 0
-72 429 435 436 438 439 440 0
-72 -319 426 435 437 438 439 0
76 72 73 77 -319 458 0
73 -5 -7 72 -319 341 431 458 0
73 6 72 -319 341 429 432 0
-484 103 104 105 106 -107 -471 0
-405 51 -55 -313 -391 0
-72 426 435 436 438 441 460 469 0
-37 251 255 272 285 286 287 0
74 72 73 75 77 462 0
73 72 -319 429 431 462 0
-71 -5 -7 72 73 341 428 429 432 0
73 72 -101 -108 152 -319 428 433 0
52 53 54 55 57 60 0
77 71 73 76 -319 458 0
-71 -5 -7 73 341 429 431 432 0
77 71 72 73 76 458 0
385 -61 64 67 381 399 402 413 0
252 34 36 37 -38 -45 255 0
66 -61 63 64 384 387 421 422 0
-72 73 -319 426 438 439 458 0
-11 -6 -7 -17 -51 55 58 0
59 54 56 57 58 60 345 0
66 62 63 67 68 -319 0
336 -51 53 54 55 374 376 377 0
59 51 58 60 -83 -85 371 0
369 51 -59 358 364 378 0
-489 51 -55 59 60 0
349 -27 -30 51 -57 58 360 371 0
379 51 53 55 56 59 346 0
375 51 55 56 345 346 353 0
367 51 54 56 58 345 0
352 51 54 58 351 354 356 0
352 51 53 54 59 0
348 51 57 58 59 60 360 0
354 51 56 57 58 360 0
269 31 -34 35 37 261 262 268 271 0
253 -34 35 -37 40 261 266 271 273 0
-43 -12 -14 -34 36 -45 0
243 -16 -20 25 26 27 -36 -38 0
278 -8 -16 -27 -35 -45 0
168 11 14 15 -16 -165 0
19 11 13 15 18 20 -480 481 490 0
168 13 -16 18 160 180 191 0
86 5 -12 -16 84 489 0
260 11 14 15 16 17 -18 -84 0
177 33 34 -38 -82 -84 252 0
11 15 16 17 -54 -55 -83 -84 0
56 57 58 -82 -84 -85 0
87 -13 -15 -25 -27 -82 85 480 0
226 -25 -26 201 219 237 -328 0
-19 8 -18 -25 -45 0
201 23 24 27 28 -56 -59 0
219 21 22 -25 -218 0
212 21 -25 26 219 225 0
-232 24 -25 26 206 214 219 240 0
208 -25 26 27 30 212 219 225 0
216 24 -25 -27 28 206 221 242 0
420 -1 -6 -46 61 63 -319 405 406 0
453 -6 -74 -82 -84 -319 428 451 0
59 51 56 58 60 -495 0
440 71 73 -319 438 457 0
-342 62 -319 -337 -341 411 0
400 -22 -24 -32 -33 61 62 -319 420 0
400 62 -66 -72 -76 -319 -471 480 0
445 -62 -65 -73 -82 -83 -319 427 446 0
447 71 72 -319 444 461 0
447 72 -74 -319 428 450 461 0
457 72 73 78 -319 456 461 0
447 72 -319 427 429 432 444 461 0
469 72 74 -319 427 433 434 445 446 448 0
65 -37 -38 -40 61 63 64 0
428 -62 -64 -74 -319 0
372 -31 -33 -36 -56 -319 347 371 0
432 73 75 76 77 -319 0
407 61 -64 -319 391 402 411 0
447 -52 -53 -81 82 -319 432 438 440 456 457 -497 0
385 -319 382 386 387 390 393 400 -411 420 0
460 -71 426 427 428 431 432 433 0
-10 -7 -20 -57 -58 0
-29 -7 -8 -109 -110 0
-328 51 -56 345 346 353 0
72 -313 433 434 443 445 446 450 452 453 458 0
-29 234 238 241 243 0
55 51 56 -319 345 375 0
-62 -102 -107 194 381 390 391 396 0
61 -52 -54 62 -269 -319 472 481 0
-27 201 221 227 232 236 240 0
28 27 205 213 226 -324 0
-27 206 221 227 232 236 240 0
-562 34 35 37 -51 57 58 255 -319 -328 0
52 53 57 58 -328 361 364 365 0
73 -5 -7 -319 341 426 431 438 439 458 0
-207 -28 201 202 204 206 228 -328 0
-34 -4 -6 -7 35 273 0
40 31 36 37 38 261 268 271 0
25 24 201 220 221 222 236 237 240 0
-69 64 388 396 402 411 421 0
76 71 72 -73 77 -319 432 440 449 450 468 0
-21 25 26 29 206 209 0
57 51 -54 -319 360 372 0
-29 -4 -6 8 -28 -34 -38 -45 272 0
58 -6 -7 8 51 55 374 377 0
78 72 75 77 427 451 0
-25 -34 -38 -45 201 219 0
-37 38 -104 -108 277 281 286 455 0
72 73 -319 426 427 430 432 457 0
456 72 -73 -319 427 435 445 447 457 0
-73 -82 -83 -101 -102 -106 435 443 447 457 0
260 33 34 -38 -45 -252 282 285 0
447 -73 84 -319 427 435 445 452 490 492 0
-40 -38 71 72 74 -78 0
252 34 36 37 39 -104 -106 255 365 0
-434 -11 16 -31 36 162 187 251 278 0
-490 101 105 -106 109 110 -480 0
-324 36 37 38 0
-71 -7 -8 74 -142 146 341 429 431 477 0
51 55 -319 -328 345 375 0
55 -46 -319 341 342 345 375 0
-74 76 -319 428 450 452 0
-432 25 27 218 220 226 236 -426 0
282 33 35 37 -38 40 246 274 0
-5 -6 -7 8 331 0
74 71 73 438 439 440 0
74 -33 -38 71 73 -82 -83 437 438 0
78 72 73 74 77 456 0
73 71 -319 437 438 439 0
-116 1 4 -7 111 112 0
-78 31 36 37 -38 -72 84 270 0
-24 -25 -26 -34 39 40 272 0
84 -22 -28 170 0
-3 -6 -8 -104 105 106 108 110 0
102 104 105 -106 562 566 581 597 605 0
101 102 105 106 108 581 605 0
-76 71 73 438 451 0
-116 85 -146 -480 481 490 497 0
-106 105 108 565 573 574 581 587 598 599 0
78 72 73 75 77 454 455 0
-38 34 -45 252 255 282 285 0
104 105 106 108 570 598 601 602 0
78 73 75 77 438 451 0
-8 -6 -7 34 -38 -45 252 255 0
-441 21 25 28 84 218 221 227 472 0
-36 23 25 28 -34 -37 201 0
-109 36 37 -38 39 -104 -106 500 0
-89 3 4 -8 -38 -39 -82 -83 0
598 104 105 -106 108 566 570 599 0
102 103 105 107 108 598 599 0
75 72 73 78 427 451 452 461 0
-216 -31 35 -246 281 282 285 488 0
-488 105 107 108 -480 598 599 0
36 34 35 -37 38 246 268 269 277 0
101 -45 103 105 107 108 598 0
-250 23 25 -26 27 28 -246 0
-43 -24 25 27 28 534 579 0
-131 11 15 16 18 25 26 28 435 0
-60 55 374 377 379 0
-116 -137 -146 481 483 488 0
-354 -55 336 337 345 353 358 359 0
347 -55 -319 -336 354 0
36 34 35 37 40 261 268 0
-490 101 105 -106 107 108 110 -480 0
71 73 74 438 439 442 455 468 0
-76 -83 -86 -101 -103 438 445 451 0
-76 73 -319 430 438 0
-138 3 4 -8 121 -143 -150 -482 0
106 101 105 108 109 110 570 0
-490 105 -106 109 110 -472 -480 0
-38 34 35 -82 -83 -101 -102 282 285 0
75 73 74 76 77 79 469 0
73 -5 -7 72 -319 341 429 431 0
-35 -104 -106 276 277 278 279 365 0
51 -33 -38 54 56 84 365 377 -480 -493 0
-71 -7 -10 426 427 428 433 567 0
252 34 36 37 -38 40 255 261 268 0
252 34 35 36 -38 255 286 287 0
-268 72 -73 74 75 76 77 472 481 0
-73 -319 427 435 447 456 457 461 0
71 -33 -38 73 -82 -83 -319 438 457 0
68 63 66 381 405 421 422 0
-64 -36 -38 63 -319 383 405 406 497 0
101 104 105 107 108 570 605 0
-432 33 35 37 -38 40 283 -426 0
35 34 36 -38 246 247 255 286 287 0
-247 72 74 79 -254 0
-34 -6 -7 -8 -24 -26 270 0
-590 15 16 18 -23 26 27 28 -176 0
-77 73 -319 431 439 0
-492 3 15 16 18 161 -480 0
-232 26 27 28 241 242 0
103 -104 105 106 108 -426 -439 605 0
584 -103 105 106 566 580 582 583 0
103 104 105 106 108 574 0
-22 26 27 28 216 217 0
-51 -5 -8 339 340 341 475 0
-39 34 249 250 261 268 286 0
-268 51 52 54 353 472 481 0
105 103 106 561 589 590 600 605 0
-56 51 -63 -66 231 -319 336 337 348 0
-474 54 -55 354 -471 0
107 7 105 106 331 -471 -480 -485 0
56 57 58 -319 336 337 345 0
-344 -11 16 62 63 64 162 187 0
-104 -2 -5 -64 -66 105 106 571 587 588 0
-54 -3 -5 -33 -35 52 249 -319 0
102 103 105 106 108 587 0
-1 7 71 -72 73 -75 78 -319 -437 0
437 73 -75 433 434 451 452 453 454 455 0
-359 72 -319 429 432 443 446 461 472 481 0
-358 -62 -64 72 75 -319 432 461 472 481 0
-105 106 564 572 582 585 592 605 0
-70 51 52 54 -62 -65 84 -354 472 0
39 34 38 40 251 255 276 0
-57 51 -331 345 362 0
-17 15 19 20 161 169 173 195 0
-106 -65 -66 -71 -75 573 580 586 591 0
-55 339 345 360 369 370 0
-54 52 58 -319 337 360 362 0
-430 -66 69 393 406 -434 0
-487 31 37 38 276 279 283 284 -480 0
-12 -5 -6 -15 81 -83 85 88 -319 0
-439 -5 -114 482 488 0
70 69 -71 -73 -81 -84 390 0
449 72 -73 427 443 448 0
-268 71 72 74 81 82 0
-269 71 72 74 81 82 0
-40 -38 71 72 74 76 77 0
492 71 72 -73 74 78 85 444 481 0
364 -54 -73 -74 338 365 0
3 7 -72 -73 75 78 135 0
449 -73 74 75 427 440 446 448 0
-212 11 12 -15 16 -52 -54 -55 0
159 -15 167 174 180 0
167 13 14 -15 191 195 -324 0
233 -25 201 221 225 231 -324 0
217 -25 28 204 219 225 234 0
204 24 -25 28 29 30 -201 0
233 21 22 -25 27 29 30 480 0
580 -25 -30 -60 344 352 365 0
-222 24 -25 29 30 201 219 0
220 25 -26 205 226 236 237 0
213 25 -26 205 218 236 237 0
213 21 -26 -56 -57 -65 -67 220 0
221 25 26 -58 -59 206 214 0
238 25 27 30 -43 -53 -58 237 0
202 22 24 25 26 27 0
208 -21 25 26 27 209 0
22 25 26 28 206 218 0
208 25 26 28 216 227 242 0
208 25 26 209 214 215 218 233 240 0
214 25 26 29 30 206 218 0
217 21 24 25 26 28 216 0
217 23 25 26 -27 -28 29 207 227 0
-27 25 -35 -36 -331 0
-251 25 -27 28 29 30 218 -246 0
236 23 24 25 28 201 0
217 -22 25 27 28 216 0
239 25 28 201 221 227 238 0
241 21 22 24 25 28 30 0
242 25 28 29 205 220 226 231 0
208 24 25 27 28 30 216 0
208 25 28 209 216 217 218 236 0
223 22 24 25 27 28 209 0
243 21 22 23 25 27 30 0
239 25 27 237 238 243 244 0
29 22 23 24 25 30 -46 0
208 25 -29 216 218 236 243 0
29 22 23 24 25 30 206 0
239 22 23 24 25 29 236 242 0
222 25 -30 207 217 239 242 0
244 21 25 29 207 213 214 218 236 0
496 21 24 25 29 30 83 215 495 0
213 25 29 30 205 218 231 240 0
-19 -17 -26 -56 -59 -141 0
122 5 83 135 -141 495 496 0
-123 -141 481 482 492 495 0
-27 -8 -26 -56 -58 0
20 17 18 -26 -29 -35 -36 0
368 -51 52 53 54 56 -331 0
342 -51 52 -328 337 341 360 0
-495 52 56 57 58 480 0
546 8 -45 58 -59 0
373 52 54 -59 337 376 378 0
492 4 -5 -6 -102 -103 -488 495 0
88 4 -5 -6 85 -103 -104 480 0
12 -5 11 16 -17 18 -331 480 0
399 -1 -5 61 62 67 68 -82 -84 405 0
398 -38 -40 61 62 -331 411 0
254 -5 -10 -14 -15 -40 255 287 0
82 -5 11 -15 -16 18 -324 481 0
-276 -2 -5 38 39 40 -53 -56 0
3 -5 13 -16 17 18 -270 -328 336 0
3 -5 13 -16 17 18 -328 336 -411 0
-189 -5 8 -25 26 28 -142 0
191 -8 -17 -25 -27 161 165 182 0
-28 -5 -26 -35 -45 0
446 72 -77 -427 452 0
70 63 68 69 381 383 393 405 0
-66 62 69 -313 385 400 410 0
-446 4 -7 83 85 122 -427 -471 496 0
63 64 66 381 384 392 420 0
-33 265 268 269 277 278 285 0
-142 1 -7 -8 122 129 138 0
67 63 68 69 391 392 397 400 404 406 415 0
-260 35 37 -38 258 261 262 0
-46 -3 -5 -6 61 63 -64 65 68 0
70 62 64 68 69 390 399 401 0
14 11 12 16 17 189 190 0
-58 -319 342 350 357 0
-26 25 27 201 220 226 238 244 0
58 57 -65 -66 -319 321 336 337 345 0
-4 -6 -7 -8 -34 35 0
-57 -35 -37 -40 337 349 451 0
-20 7 190 194 199 -480 0
104 106 107 564 570 575 582 605 0
-578 103 -104 105 -106 107 562 597 605 0
-3 5 101 102 103 106 605 0
471 -82 -313 -473 0
-65 381 382 390 405 414 415 0
216 -25 204 217 218 220 226 232 233 0
62 61 -313 398 406 409 422 424 0
-370 -65 72 73 -75 381 382 390 405 428 0
25 28 -56 -59 236 240 241 242 0
-339 6 72 73 -319 367 432 0
-32 38 251 259 261 262 266 276 0
107 105 106 563 570 603 604 605 0
105 101 102 103 -106 587 603 604 605 0
110 102 106 109 562 563 578 588 600 0
-39 251 261 268 274 283 288 0
-399 51 -55 -319 -390 0
-37 6 -57 -59 281 0
-75 72 73 429 459 460 0
-39 34 253 261 276 286 288 0
-29 26 208 216 218 241 243 0
-74 -64 -67 71 73 78 281 -319 451 0
-337 72 -73 74 -343 481 0
-471 51 -55 -319 -339 -480 0
103 101 102 106 107 603 604 605 0
-52 58 347 348 349 0
-135 3 4 -5 121 -142 -392 0
-487 34 36 38 -40 251 -480 0
-64 -5 -63 -66 -405 0
104 102 106 108 562 566 581 605 0
-76 -5 -71 -77 341 0
-106 565 573 581 582 586 591 605 0
-495 101 103 107 108 -481 561 605 0
-150 101 102 105 -106 110 -142 581 597 0
-72 78 80 427 436 437 441 461 0
102 101 104 106 107 582 605 0
28 24 29 30 201 219 236 0
-221 5 84 -218 489 490 0
-77 5 73 -319 386 439 0
-65 63 381 383 391 414 415 0
-106 101 573 578 579 585 596 597 605 0
102 103 104 -106 565 592 597 605 0
-364 71 72 73 471 -481 488 493 0
-365 71 72 73 471 -481 488 0
-2 -7 101 102 104 105 -580 605 0
-85 -55 -75 -82 -83 -319 0
-390 62 -63 -313 381 0
-52 -22 -201 214 215 231 345 346 488 0
-578 52 59 60 -562 0
-64 63 -319 383 391 0
107 101 105 106 -480 -492 605 0
-415 51 53 54 -55 72 74 -75 444 0
-168 84 85 86 -191 0
106 1 2 5 101 102 103 -105 605 0
-152 51 53 59 -146 346 379 0
-62 5 -7 -67 74 -77 -313 381 0
-286 61 64 -67 -259 471 -480 481 0
60 52 55 57 58 59 353 0
344 52 54 55 337 359 376 0
365 -51 52 53 55 -344 372 377 0
372 52 54 55 57 59 60 0
338 -51 52 56 58 337 339 0
42 43 -51 52 -54 340 353 360 375 0
368 52 54 56 57 337 0
339 52 53 56 59 60 341 0
365 52 56 57 58 59 354 0
340 52 53 57 58 59 60 0
341 52 56 58 59 60 360 0
372 52 57 59 60 337 360 0
295 -46 -52 -54 -56 -62 -63 0
403 -33 -37 -38 -63 66 381 404 405 0
565 -63 -66 -82 -83 104 105 -106 0
403 -63 382 390 399 400 402 404 0
445 -38 -40 71 72 74 444 0
430 72 73 74 75 -461 0
469 71 72 73 450 451 468 0
432 72 73 75 451 452 461 0
468 71 72 73 77 80 456 0
460 -68 -69 72 73 74 444 459 461 0
457 -68 -69 71 72 74 456 461 0
447 72 74 -78 432 0
431 -71 72 429 430 432 0
392 -62 66 -381 386 387 0
391 -62 63 68 -331 381 411 0
397 63 64 68 69 386 411 0
-53 -52 -61 -62 -81 0
-262 -62 81 -82 381 390 480 0
409 -62 -64 -338 -341 -342 410 411 0
413 -62 381 390 393 405 408 420 421 422 0
436 -58 -59 71 73 -78 0
449 -72 73 426 -435 448 0
79 5 -72 73 74 78 386 442 456 0
-217 71 -72 74 81 84 0
-217 71 -72 81 -82 435 480 0
-261 -72 81 -82 426 435 480 0
-352 -72 426 435 436 471 488 0
-216 -72 81 84 426 436 0
439 -72 426 435 436 437 438 0
441 -72 426 -437 442 444 450 0
441 -72 426 438 439 440 442 0
233 -28 -58 -59 237 240 0
447 -58 -59 -78 432 436 0
373 -38 -40 -59 347 354 360 376 0
244 -30 -56 -59 235 242 0
414 -56 -59 -69 421 423 551 0
33 32 34 35 37 -56 -59 0
13 11 14 17 18 -56 -59 0
8 -57 -59 0
165 11 14 18 -57 -59 0
259 34 -37 -57 -59 247 285 0
424 -57 -59 -70 389 391 404 411 0
201 23 24 26 28 -57 -59 0
487 55 57 58 -59 358 364 488 0
369 54 56 58 -59 336 358 0
358 -59 -68 -70 339 351 364 0
351 -59 343 -345 360 375 0
373 -59 337 351 360 376 378 0
378 -59 343 351 354 364 0
242 -27 -108 -110 201 220 227 232 240 0
-40 -5 15 16 17 -18 -35 -38 0
46 8 -328 0
1 3 -5 11 13 17 18 19 20 0
565 -1 -5 -87 -106 -165 591 605 0
-71 -55 -73 -81 -85 0
-104 4 5 -84 86 -103 -105 0
-52 51 56 349 350 351 352 0
-17 187 191 195 -331 0
471 -22 25 27 28 -52 336 345 346 488 0
161 16 18 166 176 189 190 0
-35 34 39 40 250 255 277 278 0
480 -319 473 0
-107 106 566 570 575 582 587 592 605 0
-75 71 73 437 450 0
-206 63 -67 -201 -319 0
-217 -32 38 251 259 266 276 471 488 0
-64 -5 62 68 135 383 405 409 410 0
-22 30 213 214 216 233 0
108 106 107 561 562 570 585 605 0
-65 -55 -63 -82 -83 364 365 -382 0
-250 1 3 -6 -61 -63 -65 0
-216 -72 78 428 432 435 437 461 471 488 0
-159 1 4 -5 -51 -53 -54 0
422 63 66 68 69 381 405 0
-103 -43 -52 81 -82 83 -102 336 346 0
-400 63 64 -66 381 403 404 0
-411 -5 61 63 64 68 122 129 0
-272 -34 37 251 261 268 281 285 287 0
-16 5 -52 -56 -59 393 0
-262 21 26 27 28 218 471 488 0
-32 -6 -7 -8 257 261 262 0
-52 54 336 345 351 352 0
-102 106 561 572 574 575 605 0
69 63 65 66 70 391 420 0
73 -71 72 76 78 433 450 455 460 0
-28 207 215 228 233 237 240 0
104 102 103 108 109 110 565 0
110 101 102 104 109 580 582 0
422 62 63 -67 68 69 405 406 0
-15 18 -52 -60 186 187 189 573 0
-106 565 573 580 591 597 598 602 0
28 24 26 27 -201 216 217 232 0
-384 -81 87 88 -411 480 0
-102 101 105 573 574 575 605 0
-85 51 54 -55 -62 -63 -82 -481 0
-490 101 104 105 -106 -480 0
-94 526 533 537 540 541 542 543 0
-95 94 519 527 534 547 550 558 0
-32 34 37 38 250 255 261 262 0
-104 -2 -5 -7 -84 87 -103 -105 480 0
-581 1 4 -6 122 -578 0
-276 -35 36 37 278 283 284 0
-22 25 27 215 216 217 0
-582 84 85 86 -600 0
378 -58 60 336 337 345 363 0
-192 15 16 17 -328 0
170 11 15 16 17 173 0
163 14 15 16 164 165 195 0
163 15 16 17 164 165 183 0
196 15 16 18 -102 -108 442 0
162 12 14 15 16 176 195 0
199 12 14 15 16 162 164 196 0
-213 11 14 15 16 17 -282 0
170 -18 162 177 183 192 0
158 12 13 15 17 18 0
19 11 15 18 20 165 182 0
14 11 15 17 18 -22 -23 255 0
19 11 12 15 20 173 191 0
177 11 15 19 20 166 176 195 0
163 14 15 160 164 165 193 194 195 0
-37 -8 -17 -18 -35 0
423 61 63 64 65 67 424 0
423 61 63 64 67 393 424 0
407 -64 66 68 405 0
385 63 64 65 67 68 0
388 63 64 68 70 381 393 394 0
388 63 65 67 68 387 389 406 0
397 63 67 68 69 383 411 0
397 63 68 69 386 405 406 411 0
171 16 17 -18 20 178 184 188 0
19 -10 11 13 16 17 -18 166 0
162 -11 16 -31 -35 -36 0
166 11 16 17 18 174 0
176 16 18 161 166 -324 0
165 14 16 18 161 -324 0
166 16 18 161 165 173 -324 0
198 -18 -36 -38 -56 -60 188 195 0
192 -18 -35 -38 -45 195 0
267 32 34 37 -38 -247 0
267 -38 252 260 270 271 285 0
237 -28 -35 -38 -45 240 0
252 32 34 37 -38 -247 0
252 32 34 36 -38 -247 0
-267 33 34 -38 247 255 0
252 33 34 -38 -246 0
-432 33 34 -38 -426 0
260 34 -38 247 278 285 -328 0
267 32 -38 39 40 252 270 271 0
289 32 37 -38 39 249 270 282 0
279 36 -38 39 286 -288 0
273 31 -38 260 267 0
242 25 26 28 201 206 216 221 240 0
352 -52 59 -102 -103 336 0
346 -32 -33 59 60 -81 -83 0
-486 -382 -388 0
109 3 -5 -103 104 105 -106 110 135 -561 0
2 -5 -23 -24 83 87 88 0
60 -52 59 -61 -62 -81 0
295 -46 51 -52 -56 -62 -64 -328 0
355 -32 -35 51 59 60 174 345 357 360 0
377 51 54 55 56 59 357 375 0
-29 -6 -9 -56 -58 0
-4 -8 -17 -18 -34 0
-4 -8 -27 -28 -34 0
-29 -9 -27 0
-30 -10 -27 0
-108 1 4 -7 -103 -104 0
103 101 102 104 107 108 605 0
-491 105 -107 -480 566 587 0
-55 -63 -65 -102 -103 -319 339 354 0
-72 73 78 -319 426 438 439 0
-107 5 84 85 86 -104 -105 0
-103 105 106 562 570 578 605 0
-55 51 -74 -75 -82 -84 -313 0
28 24 26 27 30 208 216 0
-5 2 -64 -66 -82 -84 135 0
103 101 102 106 107 108 605 0
108 102 104 106 107 562 605 0
-341 63 -67 -319 -336 0
-48 0
283 34 -36 246 247 255 278 284 285 0
78 71 73 75 76 -319 451 0
-27 24 206 221 234 235 236 240 0
-25 216 217 219 225 231 232 233 0
28 23 24 25 27 216 217 0
36 34 38 247 261 262 277 0
-55 51 -53 -72 73 -75 81 84 -405 426 0
46 6 31 34 36 -38 255 0
-150 36 39 40 -142 0
-71 73 75 430 431 432 0
-51 -5 55 -61 -66 141 342 0
-71 73 77 -319 426 430 432 0
-18 162 166 168 177 181 195 -324 0
-25 6 -45 -107 -110 0
-129 11 16 18 -142 166 -328 0
57 52 55 -319 337 342 345 372 0
-18 -36 -38 -107 -110 188 195 199 0
-328 51 -56 -319 345 0
25 207 215 222 236 237 238 239 240 241 242 0
-347 -52 53 71 73 74 339 360 455 471 488 0
-331 62 63 -67 -319 0
18 15 161 168 169 182 -328 0
72 6 73 -319 341 431 432 0
-262 -72 -426 435 436 439 440 456 488 0
-51 6 52 54 56 337 339 430 0
51 54 345 373 374 376 377 378 379 0
34 31 35 36 39 255 284 287 0
-35 38 246 247 255 270 279 280 0
-17 -1 -7 -8 15 -34 -38 169 176 426 0
166 15 20 161 162 165 173 188 193 194 195 0
-30 23 25 217 230 239 242 0
-28 24 25 26 207 216 217 240 0
31 34 35 37 38 255 0
-227 -34 38 -236 270 0
74 21 26 28 71 -72 84 218 232 471 488 0
219 -25 26 201 207 215 225 231 232 0
26 -7 -8 25 28 -34 -38 201 221 0
-30 -28 -58 -68 342 381 382 -480 0
-227 -34 35 38 -236 0
78 73 77 -319 429 430 456 0
-110 -5 -7 46 -108 0
-11 6 -31 -35 159 162 -328 0
-85 -55 -82 -83 -84 -101 -102 -480 0
-55 54 59 339 345 370 0
-384 71 73 77 -319 -385 -387 0
76 72 73 75 78 -319 0
58 -55 56 57 59 60 345 346 353 0
-51 -7 -8 -46 -61 -67 339 0
-58 -38 -40 51 350 353 0
-270 -45 51 54 -55 345 0
58 8 54 55 344 345 371 0
55 51 56 57 -319 345 362 0
56 51 57 58 -319 345 362 0
-25 -6 7 -107 -110 232 233 235 0
-29 -5 -6 -107 -110 238 241 243 0
-51 8 -331 336 337 338 342 374 0
25 -7 -8 26 -61 -67 216 217 218 0
-59 8 51 54 55 345 0
16 18 -45 -102 -108 -110 196 442 0
-59 8 51 58 345 360 0
-152 -7 51 58 59 145 345 360 371 0
-17 15 -102 -108 191 195 196 442 0
34 38 246 247 255 281 -324 0
-38 -72 -78 -82 -83 252 273 0
35 38 -46 -108 -110 254 262 269 0
-16 161 168 175 181 186 192 0
-46 -51 58 -319 341 347 354 0
37 34 38 250 255 276 -324 0
34 31 38 -45 255 276 281 0
-28 207 215 218 233 237 240 0
34 36 38 246 247 255 -324 0
-38 34 37 252 255 278 282 0
-356 31 34 -37 38 -345 0
-18 -72 -78 -79 188 192 485 0
-432 -5 -6 -8 -81 85 88 480 0
-58 51 -68 -70 350 353 0
58 51 345 360 371 373 374 376 377 0
-36 38 -46 -108 -110 276 0
-59 8 72 73 74 -78 339 345 364 0
76 64 -68 71 74 75 77 381 382 390 468 0
34 246 247 255 277 278 283 284 285 0
65 62 63 66 67 -319 0
-59 8 71 72 74 -78 339 345 364 0
37 -5 -6 8 9 38 -107 -110 283 -331 0
-55 54 339 345 370 373 376 378 0
77 71 72 75 -319 427 432 435 462 0
-352 71 74 84 -350 -447 472 -480 0
-40 -10 -58 342 345 363 0
34 35 252 255 281 283 284 286 287 0
-265 35 37 38 268 269 0
-25 204 212 225 231 234 235 240 0
78 7 71 72 -73 -74 -319 0
32 31 33 270 272 -328 0
-38 252 259 267 278 282 288 289 0
-28 82 207 228 233 237 240 267 0
-51 7 -331 339 342 362 371 375 385 0
62 63 -83 104 105 106 -319 0
34 33 36 -38 40 246 253 261 277 0
34 -6 -7 -8 -45 246 247 255 0
-38 34 246 247 255 278 282 285 0
393 -62 64 69 382 397 -411 420 0
-282 35 36 -38 40 281 283 0
-40 -5 6 16 17 -35 -38 0
-13 174 176 177 -328 0
-52 59 336 345 346 352 0
-195 51 55 -142 -319 345 0
-35 11 12 -15 16 17 -34 -38 0
-240 51 55 -142 -319 345 0
-150 34 -142 246 247 255 283 284 0
-282 35 36 -38 281 283 284 0
-74 -71 72 73 77 -319 450 451 0
-4 -5 -7 -8 -34 36 0
78 72 73 77 -319 456 0
52 8 54 57 337 368 374 0
-420 51 55 -142 -319 345 0
78 -55 -57 72 73 77 -319 322 0
75 71 73 77 78 -319 0
66 61 63 68 -319 412 0
-411 -62 67 68 87 88 488 0
-35 -6 -7 8 32 33 -45 252 0
-216 -35 37 -246 -249 250 278 488 0
-74 71 78 -319 450 451 0
360 8 51 58 345 371 374 377 0
55 56 -319 338 343 344 345 375 0
-59 51 56 58 345 364 376 0
-8 -6 -7 53 54 55 60 343 0
76 71 75 77 -319 435 0
76 71 72 77 78 -319 0
58 51 55 -319 -328 349 371 0
-101 -7 63 -83 104 105 106 -319 0
-24 -27 -43 45 46 444 0
-12 -14 -34 -37 -43 45 46 0
45 46 331 0
460 45 46 -105 -108 0
-28 -27 -33 -38 -43 45 46 0
-29 -28 -37 -38 45 46 0
-30 -28 -37 -38 45 46 0
-53 -43 45 46 -55 -105 -108 0
-59 45 46 -55 -65 -67 0
-57 -43 45 46 -52 -72 -73 0
-65 -43 45 46 -63 -105 -108 0
-19 -18 -27 -28 45 46 0
-27 -18 -20 -28 45 46 0
-20 -18 -37 -38 45 46 0
-19 -18 -37 -38 45 46 0
-60 45 46 -58 -67 -68 0
-80 -23 -27 45 46 -74 0
-12 -17 45 46 -73 -80 0
-80 -13 -17 45 46 -74 0
-2 -7 45 46 -73 -80 0
-80 -3 -7 45 46 -74 0
-1 -7 45 46 -72 -80 0
-80 45 46 -75 593 0
-1 -7 45 46 -72 -79 0
-43 45 46 -62 -67 -72 -73 0
-12 -17 45 46 -73 -79 0
-79 -2 -7 45 46 -73 0
-43 45 46 -73 -75 227 0
-79 -23 -27 45 46 -74 0
-79 -13 -17 45 46 -74 0
-79 -3 -7 45 46 -74 0
-75 45 46 -79 548 0
-152 46 -142 0
103 104 105 108 109 331 561 0
-151 45 -146 0
24 25 -26 28 45 205 213 241 0
39 -6 8 33 34 37 40 252 0
-235 -231 331 0
-282 -5 46 -278 0
-40 -10 38 0
-25 -7 -17 -28 45 46 -146 0
-59 8 -56 0
594 46 -55 -60 -105 324 564 572 579 0
-37 25 26 -38 45 46 0
-168 -5 46 -122 -192 0
-27 -7 -26 -108 -110 0
-37 8 -36 -328 0
-186 -193 331 0
-186 -194 331 0
-189 46 -187 0
-421 -39 253 261 268 288 0
-276 -284 331 0
-231 -238 331 0
-231 -25 26 27 237 331 0
-37 -5 -36 143 331 0
-287 45 -281 0
-15 -6 -7 18 147 0
-17 -16 -56 -58 331 0
-1 -7 45 46 71 -72 73 74 0
-13 -17 45 46 71 72 73 -74 0
28 5 8 -25 0
21 22 -25 26 28 46 218 0
-151 46 -142 0
-278 -282 -331 0
-16 -7 -17 -18 0
60 8 52 58 -472 -488 0
-59 -38 -58 151 152 -276 0
-277 -5 -285 331 0
-16 8 -15 46 0
-37 -7 8 -35 0
-56 8 52 54 337 374 0
-239 45 -236 0
-27 -25 46 -103 -106 -110 0
-101 -5 -7 46 -106 -110 0
-107 -6 -7 45 -101 -110 0
101 102 103 104 -105 108 109 331 0
-272 45 46 72 73 74 -75 0
-27 -26 45 -103 -107 -110 0
-146 -5 8 0
-110 -36 -37 45 -104 -107 0
-37 -35 46 -104 -106 -110 0
-17 -16 45 -102 -107 -110 0
-110 -15 -17 46 -102 -106 0
56 42 43 45 46 -51 52 53 58 0
8 -141 331 0
-26 -27 -43 45 -53 -56 0
-16 -17 -18 331 0
-281 35 36 38 45 0
147 7 331 0
-15 8 -146 188 331 0
46 -5 7 103 104 105 331 561 0
5 -8 103 104 105 331 561 0
601 7 101 103 104 106 108 331 561 0
102 -7 101 104 105 109 331 0
103 104 -106 331 561 591 597 598 0
-37 -7 -36 -38 0
31 32 33 34 0
339 8 -51 52 56 60 336 338 357 0
-59 8 -51 58 336 337 360 0
-26 -5 6 150 231 237 331 0
422 8 62 331 382 383 398 411 423 424 0
-235 -5 7 8 -35 38 -107 -108 143 0
-19 -18 26 -28 30 45 46 233 0
11 8 15 16 -17 165 166 173 -422 0
147 5 45 0
25 -7 8 15 16 18 26 28 331 0
-188 -5 -195 331 0
11 6 14 16 17 -35 36 38 146 165 -188 0
147 -6 -7 45 0
8 -51 52 54 58 -331 337 374 0
-14 -7 8 15 16 -17 18 -34 38 -46 271 0
24 -7 23 26 -28 29 207 244 0
-11 -15 -17 38 45 -105 -108 255 331 0
-331 25 45 205 207 213 215 218 237 0
258 -6 8 -36 46 250 282 -313 0
251 35 38 45 255 272 331 0
-17 -7 -15 -18 0
28 8 25 26 -421 0
147 -6 45 -142 0
-141 -7 147 0
22 23 24 25 26 -28 150 208 209 331 0
-331 8 -51 -55 58 337 347 360 374 0
-43 45 46 62 64 68 411 0
-25 -6 -7 8 -15 -146 0
-25 5 -15 147 0
-26 -7 8 46 237 238 239 0
-59 8 58 337 351 364 0
-43 -53 -55 -56 225 331 0
24 -7 21 23 26 29 30 0
60 -7 8 -52 -146 336 346 350 354 0
-341 8 51 -57 336 337 377 0
14 12 13 17 18 331 0
21 23 24 -25 27 28 237 331 0
-57 8 51 345 346 353 377 0
110 104 105 -106 109 561 562 570 0
-37 -7 34 -38 286 287 -471 -480 0
-596 331 -602 0
-59 8 55 58 0
-37 -8 25 -27 -35 -45 201 220 227 328 0
-318 -319 0
20 5 -9 18 0
-90 -85 -105 -109 0
-312 -313 0
-323 -324 0
-9 -286 0
-487 31 38 39 270 281 -480 0
599 105 107 109 -110 561 578 604 0
167 15 17 -18 174 180 -188 -328 0
167 13 18 161 166 180 187 -328 0
344 54 -55 59 347 354 0
-196 8 -27 -45 240 0
265 31 32 34 -36 0
-374 31 32 33 -36 -146 270 0
364 -59 343 351 354 375 0
-253 52 53 58 72 73 74 342 360 371 0
286 -37 40 -143 -147 -150 0
250 34 35 37 39 40 255 0
40 31 33 34 35 39 281 0
288 32 34 35 36 40 247 267 0
286 31 34 35 36 40 255 0
269 31 32 34 35 247 268 281 0
271 31 35 37 39 40 255 0
248 32 33 35 37 39 40 0
33 31 32 35 36 45 46 0
-448 -33 35 36 81 82 267 0
286 31 35 36 40 255 273 277 0
-277 35 39 40 278 282 0
220 24 25 26 -28 29 205 -237 0
591 -45 -60 -103 -106 344 352 372 377 0
222 7 -28 -107 -109 201 228 0
225 26 -28 -78 -79 207 215 240 0
454 73 -74 426 450 453 455 461 0
234 26 27 28 235 0
223 22 26 27 28 209 218 229 0
378 53 54 55 60 336 0
22 -3 -6 -14 -16 21 25 26 28 0
-186 -6 -15 -237 0
8 -6 -35 -36 0
-379 -6 15 17 -56 -58 -331 0
378 8 52 -59 480 -495 0
338 -6 -10 -54 -82 -102 -104 360 0
4 -6 -87 -480 -488 0
181 3 4 -6 13 15 17 19 20 381 0
-434 -11 15 -16 32 33 35 36 38 162 0
-397 21 24 26 28 -32 35 37 38 232 0
258 33 -34 38 250 270 281 -331 0
-248 -34 38 -61 62 249 281 382 383 -433 0
-19 -9 -15 0
-20 -10 -15 0
110 104 105 106 107 109 570 0
-58 -38 -40 51 54 345 0
-25 201 219 225 231 232 233 0
78 1 3 -5 73 74 76 -106 -107 122 426 0
68 -7 8 61 63 64 65 422 0
-550 54 -55 -65 339 354 383 392 399 0
-383 -61 63 64 -319 -381 387 405 407 0
-360 54 -55 -319 339 345 0
-40 -37 -38 -61 62 63 64 65 406 0
-324 8 45 0
-57 -51 -52 -55 61 63 68 -319 0
103 101 102 104 106 110 603 0
-74 -54 -57 277 -319 428 450 452 0
76 -71 73 74 78 79 431 432 460 0
70 -32 -38 63 69 -104 -109 381 383 0
-360 54 -55 -319 338 345 0
-29 6 -108 -110 238 243 0
-76 6 62 63 -71 -319 384 0
-57 6 -51 62 63 -319 384 0
387 -61 62 65 66 -420 0
-489 -55 360 369 370 -480 0
-415 -55 72 74 -75 339 345 360 444 0
-85 -55 -83 84 360 370 471 505 0
-262 71 73 74 84 455 472 0
58 51 56 57 -319 345 0
62 63 65 -319 386 387 0
-422 8 34 35 36 -38 252 255 0
90 34 36 -39 84 253 472 481 0
103 101 102 106 108 109 602 0
66 -7 8 63 64 68 70 384 0
-75 73 74 426 459 460 0
66 61 62 65 68 69 410 0
-73 431 435 443 444 445 447 0
-61 -7 8 62 66 383 384 387 389 0
252 34 35 36 -38 40 84 90 -285 472 481 0
107 102 103 105 106 109 604 0
-73 75 -319 427 435 445 446 0
13 11 15 16 19 166 189 190 199 0
-110 35 37 -38 40 -46 -109 0
-18 16 170 177 183 188 196 197 0
-25 204 212 218 231 232 233 0
-36 -35 -46 101 103 105 -106 109 0
110 -51 -53 -83 84 104 105 109 0
109 104 105 -106 108 561 562 570 602 0
77 72 75 76 -319 432 435 0
54 56 58 59 60 336 356 376 377 0
51 52 -55 56 61 62 -63 66 -319 345 0
-55 6 8 34 -38 -83 84 -319 0
58 8 51 55 56 -319 345 0
110 6 -35 -38 101 104 106 107 570 0
-395 33 34 -38 -381 0
237 24 -26 27 29 30 201 480 495 0
-253 -11 13 16 17 62 63 64 166 188 0
-64 62 63 386 405 408 409 410 0
-253 -23 -28 -61 64 -68 83 -246 382 0
-28 16 17 -18 -25 -26 -46 0
-365 61 63 -64 471 -481 488 0
27 25 26 -32 -33 -53 -55 165 208 209 218 0
-105 101 102 579 591 593 594 602 0
-74 432 436 443 450 451 452 0
387 -61 62 64 67 382 -413 0
12 13 14 15 17 -328 0
-215 25 26 27 216 217 0
15 17 162 166 177 -328 0
-216 -32 36 38 257 471 488 0
-58 3 4 -5 -25 -28 -52 -53 0
-24 25 26 -43 227 -354 0
21 22 24 25 26 29 242 0
24 22 23 25 26 29 242 0
71 72 73 75 78 88 -313 471 495 0
-73 -53 -54 74 -313 430 432 444 0
-285 35 38 281 288 289 -328 0
-53 51 58 -328 354 356 0
-67 -7 8 63 386 391 422 0
55 51 56 57 346 355 358 359 374 376 0
22 23 24 27 30 205 208 0
381 -22 26 27 28 -62 63 391 471 488 0
-262 -72 73 426 436 471 488 0
-217 -62 63 65 67 68 406 471 488 0
-262 -62 63 65 67 68 406 471 488 0
-68 51 53 -58 -62 83 0
21 23 25 27 29 30 211 0
-15 -22 -25 159 173 187 188 -328 345 0
-398 -63 401 405 406 408 0
-27 22 25 26 30 206 227 241 0
68 62 65 66 -313 386 0
54 51 52 -53 58 -328 376 377 -471 0
-72 -53 -54 426 436 438 440 457 0
72 6 74 -313 341 427 431 458 0
-74 4 -5 428 436 450 452 453 461 0
-68 51 -58 -62 83 -313 0
-53 51 -62 -63 -313 0
73 71 -74 88 436 450 453 480 495 0
74 71 72 77 445 458 0
-68 51 -58 -62 -63 83 0
52 51 53 360 374 376 377 0
-226 -46 63 64 -65 381 0
28 23 24 27 201 -328 0
-72 426 435 436 437 439 462 0
-353 52 53 57 58 -313 -328 0
15 17 83 162 166 260 -328 0
-15 14 -16 17 159 174 188 331 0
21 -7 23 24 26 27 216 217 0
57 52 56 58 59 60 -62 -63 340 0
-336 23 24 27 29 -328 -342 0
339 -51 52 56 58 59 60 -360 0
218 21 22 -23 25 26 241 242 0
-336 -51 52 60 345 346 347 376 0
-166 -24 25 26 27 -43 0
159 13 14 -15 17 18 331 0
52 -51 57 58 -313 -328 338 0
406 -7 8 62 63 65 387 391 422 0
-341 -51 52 337 362 376 377 0
383 62 65 66 391 403 404 420 0
-341 -68 -337 395 409 410 -420 0
22 21 25 26 218 227 241 242 0
62 64 66 -313 384 387 0
62 64 67 -313 384 387 0
11 1 3 -5 13 -15 17 18 186 -328 0
-64 -23 -26 -46 265 383 391 0
-63 64 382 390 399 401 402 0
-106 565 573 578 579 585 596 597 605 0
-19 8 -15 -35 36 37 38 0
-216 31 33 36 37 38 471 488 0
-397 31 33 36 37 38 471 488 0
-17 6 8 18 -28 -30 -67 -68 0
-74 -5 83 122 135 -313 428 450 452 0
-75 -51 -55 -81 -84 429 437 444 0
-57 8 53 54 336 377 0
64 62 63 65 67 385 0
64 -7 8 62 63 387 411 422 0
-30 -28 61 -68 395 398 0
-21 -7 -9 25 26 -61 -67 209 0
-63 -5 62 135 -313 382 399 420 0
-422 8 11 16 -18 166 177 188 0
-74 73 76 432 436 450 452 0
-424 15 16 17 25 26 27 0
-206 -51 -240 -328 336 338 354 0
27 21 22 25 26 30 225 229 237 0
36 6 8 16 17 18 -35 38 0
-207 62 64 69 70 -240 411 0
53 8 54 56 58 336 351 352 377 0
-30 -28 62 -68 382 383 398 411 422 0
-30 -28 52 54 56 57 -58 354 0
64 -51 -56 62 141 -313 384 420 0
54 15 16 18 52 53 56 342 377 0
-63 62 -313 384 387 398 400 0
21 23 25 26 29 30 211 0
-400 4 -5 16 17 18 180 -328 336 0
-342 25 26 27 218 -336 0
-192 16 17 -18 186 -328 0
-23 6 8 -13 16 -17 18 25 26 -28 0
-73 -63 -64 -313 427 0
68 -7 8 62 63 65 66 411 422 0
-63 -43 -46 64 226 -313 381 391 400 420 0
-340 -51 52 54 -328 355 0
167 6 17 18 33 -35 38 180 -328 346 0
-36 32 38 250 265 277 -328 0
-341 25 28 218 -328 -336 0
-261 53 54 56 57 58 471 488 0
-67 -7 8 62 64 382 390 422 0
-216 53 54 56 57 58 471 488 0
-72 426 436 437 438 440 441 442 0
-420 62 63 383 391 411 421 422 0
-15 159 174 180 186 187 189 190 0
-14 -18 -62 -68 83 86 88 181 0
72 -51 -54 -58 -313 427 456 457 461 0
-234 6 8 37 38 150 276 0
-219 6 -15 18 -270 -328 336 0
-344 72 73 78 79 -339 461 0
152 -2 -7 8 11 13 15 16 20 -328 0
398 -43 -46 62 -63 226 -313 385 386 0
16 13 15 -18 19 161 164 183 196 197 0
14 11 15 16 20 165 189 190 196 0
-55 2 6 8 -51 62 63 83 294 -342 381 422 0
28 6 8 -15 18 -25 26 186 0
-14 -18 21 25 27 -28 29 30 -32 -34 0
-3 6 -13 15 16 25 -26 0
-64 -33 -36 83 220 -319 0
-34 39 -142 -150 271 275 0
-76 3 4 -5 -82 -83 -319 430 438 0
150 45 -146 0
225 22 -25 26 27 29 30 -218 0
-85 -55 -82 -83 343 360 -487 0
347 -46 -55 -319 341 342 354 0
-59 -313 341 342 351 364 373 0
14 11 13 16 18 187 195 0
-34 270 274 275 281 282 285 0
106 -16 -17 -46 104 105 109 570 0
-23 -7 -8 -13 -17 25 -328 0
61 -12 -13 -16 -46 62 398 0
-106 105 565 573 580 597 598 602 0
-138 -24 25 -150 -328 0
-271 -34 36 38 281 -328 0
135 -5 -7 11 16 17 18 85 87 -88 0
-69 5 147 388 396 398 411 423 0
-52 337 340 341 342 345 346 351 352 0
-130 3 4 7 112 120 0
-16 -6 -8 -14 -34 35 37 0
26 28 201 221 227 240 -324 0
-52 -1 -5 -45 345 -471 -481 0
110 103 105 561 562 587 597 598 603 0
-65 -46 381 399 405 414 592 0
-12 15 -82 -83 168 169 215 0
53 52 54 56 -319 341 342 0
405 62 382 386 387 390 403 404 406 411 420 0
-11 15 160 163 164 195 0
-62 383 384 386 387 390 391 396 397 0
-40 -38 71 72 73 -78 0
22 21 24 25 26 232 240 0
-142 141 -146 0
-273 -135 -285 -328 0
55 -51 54 56 -328 337 349 350 375 0
-429 -5 -7 -51 52 58 -328 456 0
71 72 78 443 456 457 461 0
54 51 52 337 359 373 376 378 0
78 -6 -7 72 74 75 76 386 0
-105 -473 -481 579 591 592 593 594 0
104 7 101 102 103 106 601 0
83 -1 -64 -66 495 0
-192 15 -16 18 195 198 199 0
-220 7 -16 18 136 181 191 381 0
-16 -46 -108 -110 186 192 0
30 25 29 -46 -108 -110 237 240 0
-271 -34 35 45 -46 -108 -110 282 0
55 56 336 337 338 345 346 353 375 0
-103 107 110 562 570 578 591 603 0
-423 -18 25 26 27 188 192 195 0
-331 381 382 383 390 391 398 411 -420 0
423 381 382 383 390 391 398 411 -420 424 0
-34 -6 38 -105 -107 150 286 287 0
-70 389 390 391 398 411 422 424 0
110 103 107 108 109 561 563 571 0
-37 -38 251 255 272 277 282 286 287 0
14 11 16 165 188 -331 0
-67 -331 386 394 398 0
-7 1 4 -5 -12 18 131 -328 0
101 105 106 573 575 576 578 581 587 0
107 105 106 108 571 576 578 584 0
-180 -34 38 -187 -328 0
-196 -7 8 -24 26 28 -142 -182 0
106 103 104 105 574 575 600 0
19 11 14 16 -18 20 165 -328 0
-80 434 442 449 455 0
395 -62 63 64 67 384 385 411 0
-78 -68 -69 71 74 440 0
-563 -313 -561 0
18 16 159 165 180 -331 0
-59 11 14 15 -16 17 -56 165 0
-71 -5 -7 72 73 341 429 432 452 0
73 426 434 442 450 453 454 455 459 461 468 0
56 51 57 59 -313 346 352 357 363 0
-46 8 25 -26 28 0
72 74 427 433 448 456 457 461 469 0
-342 -6 -7 -8 -81 86 474 480 0
-33 38 265 266 -324 0
36 32 33 38 251 252 285 -324 0
63 -62 64 67 68 69 389 411 0
-286 15 16 20 -285 0
-29 -12 -19 25 208 218 236 243 525 0
-51 56 337 338 341 342 343 344 0
-387 24 26 27 -28 29 244 -381 0
65 62 66 67 402 423 424 0
-38 36 -142 -150 288 289 0
-321 150 0
-63 87 88 382 390 398 402 421 422 481 0
55 8 51 54 345 371 379 0
16 15 17 -25 -28 -45 0
-106 105 570 586 596 597 598 599 0
564 -105 106 572 579 585 594 600 0
-25 -6 -7 -27 -35 -38 0
28 8 26 -45 -377 0
31 32 33 39 40 281 282 285 0
-313 -13 -15 31 -35 36 38 81 272 0
-28 -1 -8 25 -82 -89 237 240 244 0
-23 -5 -6 -14 -17 -24 -25 480 0
-34 270 271 273 286 287 0
-131 85 86 -146 480 496 0
-357 51 52 58 -319 372 375 0
-18 16 162 170 180 195 198 199 0
-66 388 389 393 400 411 416 417 0
102 -6 -7 101 103 104 107 603 604 0
-17 -7 -8 -36 -38 -150 196 197 0
67 62 66 384 398 402 413 423 424 0
61 62 66 -331 398 413 0
-197 46 -187 0
-69 11 16 17 -68 165 180 0
11 14 -15 16 17 18 24 -25 26 27 28 345 0
-186 -15 16 17 188 -328 0
56 55 59 60 341 342 375 0
-440 72 -78 426 435 436 0
-266 62 64 68 -251 411 0
-16 15 -74 -77 -83 -84 161 181 192 0
-15 11 167 173 187 188 -328 0
15 16 17 -78 -79 0
-34 270 273 -328 -331 0
8 -328 -331 0
-17 161 176 182 195 196 197 0
-240 25 26 27 -331 0
-234 7 -35 -233 277 0
480 -83 -481 0
79 71 72 80 450 451 452 0
-30 3 -8 15 16 17 -18 -22 -28 84 132 138 162 0
-141 4 115 123 129 0
-7 138 -331 -481 -488 -498 0
-237 21 25 -28 220 226 236 238 239 0
-72 -1 -7 45 46 74 161 435 0
-186 -192 -331 0
83 -3 -5 -7 85 87 0
58 53 54 57 -328 336 0
-53 339 353 355 356 357 358 359 0
-51 56 57 59 342 344 345 353 360 0
14 11 15 16 -18 19 20 191 215 260 0
-68 -28 -30 387 395 398 0
-38 -18 -19 -45 282 285 288 289 0
-17 -36 -37 -46 187 0
-15 11 17 167 174 188 -328 0
-25 231 232 233 234 235 0
-26 -7 -8 -36 231 237 -328 0
-408 -54 55 56 -420 0
-51 55 56 336 337 338 375 0
-473 -5 -8 -51 52 56 57 -339 -488 496 0
495 1 4 -6 -141 481 -488 498 0
18 15 16 20 196 0
-395 -12 -13 -18 0
26 29 30 232 233 240 242 244 0
562 -83 88 -103 104 108 109 110 488 0
447 -28 -30 -78 432 440 0
562 101 104 105 -106 561 -565 0
565 -106 573 580 586 591 0
596 -106 561 562 570 586 591 597 598 0
599 -106 562 573 585 596 597 598 0
598 -106 573 580 586 591 0
371 -66 -67 71 73 74 75 78 0
462 71 73 74 75 77 0
79 73 74 -246 -254 0
246 33 34 276 277 278 281 282 285 0
203 -24 26 211 218 225 230 243 0
208 26 -29 216 221 225 243 0
225 21 23 26 27 215 0
235 21 22 24 26 27 29 0
215 21 26 27 29 30 218 0
208 26 30 216 218 232 233 240 0
204 26 30 206 215 216 218 232 243 0
204 26 29 214 217 218 233 240 242 244 0
344 -51 337 338 342 343 347 349 0
344 -51 336 338 340 341 342 343 0
336 53 54 55 57 58 0
347 54 58 59 60 345 354 371 0
348 53 54 57 58 59 60 0
365 56 57 58 59 339 345 0
341 56 58 59 60 345 346 353 0
370 53 54 -60 340 352 375 0
349 54 56 59 60 336 341 357 0
342 55 59 60 341 345 346 353 0
109 -104 105 106 108 110 -471 0
252 37 39 40 255 270 271 276 0
249 32 33 37 39 40 270 271 0
220 -23 27 29 30 219 0
400 61 64 68 69 70 399 0
422 61 65 66 68 69 398 0
79 71 74 76 78 80 457 0
260 36 39 40 247 259 270 285 0
384 -61 67 381 382 383 387 0
396 -61 67 382 387 397 405 406 411 0
279 -4 5 -39 253 268 288 0
-152 45 -146 0
356 -53 354 355 357 0
455 71 -80 442 449 0
223 -29 201 229 232 238 243 0
475 102 103 104 105 106 -473 480 495 0
198 -11 159 160 164 195 196 0
-599 46 331 0
350 56 57 59 60 339 353 0
231 21 22 24 27 29 30 0
370 -60 344 352 353 377 379 0
370 -60 344 345 365 377 379 0
370 -60 342 352 359 365 374 0
123 7 129 135 -439 0
-592 488 490 -579 -586 -591 0
566 102 103 104 105 106 0
604 101 105 106 107 109 0
561 103 104 105 106 107 0
603 102 103 104 105 106 0
109 101 103 104 105 106 0
589 101 103 105 106 110 575 0
583 101 104 105 106 574 581 582 0
605 101 102 104 105 106 0
602 104 105 106 570 575 582 588 601 0
583 105 106 561 578 589 600 602 603 604 0
588 105 106 561 562 570 587 601 605 0
603 102 103 104 105 107 0
596 102 103 104 105 603 0
580 101 102 104 105 107 0
571 101 103 105 107 108 605 0
372 59 60 336 338 346 354 371 375 0
-152 45 46 0
-196 45 46 0
485 7 84 85 129 135 0
594 102 104 106 110 561 562 600 0
601 101 102 103 106 108 110 0
212 29 30 -147 -150 204 227 231 233 0
215 21 29 30 218 231 232 236 0
267 39 40 252 260 276 277 281 0
124 1 3 4 122 0
33 31 32 36 38 -57 -59 0
-81 34 37 38 -46 -62 -63 -82 0
258 -22 26 27 28 -32 38 -82 277 471 480 0
254 32 34 36 38 -40 277 0
-138 -39 -143 -150 253 255 270 283 288 0
222 -17 -18 -28 -52 -57 207 228 0
385 -61 65 68 386 0
194 11 -15 -16 19 84 85 173 192 0
162 -11 -16 17 -21 -25 26 28 206 -343 0
235 -16 -20 -30 -56 -58 242 0
-273 -24 25 -282 -331 0
7 -23 -25 26 28 147 -175 -193 221 0
-74 42 43 -84 -88 285 436 443 450 461 0
70 61 62 69 400 405 420 0
14 11 12 15 18 -331 0
-16 11 15 166 175 193 194 195 0
13 11 16 17 -34 -40 -43 -324 0
-59 -38 -40 51 -313 346 373 376 0
35 37 38 40 253 261 268 0
8 62 63 65 68 331 406 422 0
15 11 -22 -23 166 173 191 192 195 255 0
-52 59 341 347 348 350 352 0
-59 -45 52 343 358 376 546 0
-52 341 345 346 348 350 351 352 0
60 52 55 59 341 353 372 375 0
-18 170 177 183 188 192 195 0
-60 -45 352 359 365 371 379 591 0
37 35 38 250 261 262 -313 0
-37 35 39 251 262 281 285 -313 0
-4 -5 -7 -23 -24 83 -84 87 0
-121 -24 25 27 28 -43 0
-51 -7 -8 -61 -67 340 347 354 360 0
-73 71 76 77 444 447 0
-38 32 37 252 267 270 -328 0
-189 -5 8 31 36 37 38 255 273 0
-377 -7 23 25 26 -28 201 228 0
-104 106 563 585 589 590 600 0
7 -12 -15 -83 -87 0
-28 -12 -18 90 220 228 233 240 480 481 493 0
-33 38 264 -267 282 285 0
-84 4 -5 -64 -66 -68 -82 85 86 88 282 0
-34 -5 -6 -8 -105 -109 272 0
-479 38 39 -40 270 281 -471 -480 0
-12 -2 -5 -6 17 170 0
-18 -1 -8 165 183 188 192 195 471 0
-46 25 28 -36 -37 0
-328 -15 46 -143 331 0
-37 34 251 259 266 0
-68 -18 -20 387 390 408 0
-66 -62 -64 -84 85 135 -141 481 0
-68 -18 -20 387 395 398 0
-207 -6 -7 -8 -81 86 474 480 0
39 31 32 33 35 40 267 281 0
-62 67 386 388 390 391 393 395 397 399 0
59 60 337 339 340 345 346 353 375 0
-72 73 -319 426 438 439 440 0
-35 249 257 270 278 -313 0
52 59 337 338 344 353 359 365 0
-331 34 35 36 246 -313 0
-54 51 -319 360 361 375 0
16 1 -7 -8 15 -34 -38 161 162 0
342 -46 -319 341 345 347 354 360 375 0
-62 -11 -17 -82 -88 390 391 396 397 0
38 7 -11 -16 34 37 255 0
40 31 32 33 -38 39 281 -461 0
51 -18 -20 52 56 57 -313 353 0
-104 563 571 578 585 589 602 604 0
37 34 38 246 -313 -328 0
-62 -72 -77 191 381 390 395 405 406 411 0
14 11 12 15 17 192 0
-279 46 -277 0
-58 -72 -78 -82 -84 342 357 0
-66 7 -54 -56 -60 63 69 340 0
18 11 16 167 173 -331 0
-58 -26 -28 -53 84 85 88 233 0
-27 28 206 214 227 241 242 0
-271 -34 35 36 281 282 -324 0
-31 5 -8 -11 -18 35 38 0
-18 11 165 183 192 195 -324 0
-604 46 -597 0
-45 -6 -7 34 -35 -471 -480 0
-52 -313 336 346 347 371 372 375 0
-38 34 37 252 261 262 267 282 0
16 17 163 164 165 167 174 183 192 195 0
66 61 65 -319 -331 390 420 0
-8 -4 -5 -6 37 -141 246 247 255 0
54 53 55 336 374 377 378 0
34 35 39 246 247 255 282 284 289 0
36 37 38 39 -54 -60 586 0
-331 51 52 53 55 -375 0
54 336 337 345 373 374 376 377 378 379 0
-68 63 387 395 405 406 420 0
21 22 -25 26 28 46 225 0
26 25 -33 -38 201 228 -331 488 0
-25 7 -8 -34 201 221 231 233 -324 0
110 101 105 109 570 571 578 0
18 -6 -7 16 147 -241 0
-16 15 20 -38 -39 -56 -58 191 0
342 -58 59 60 350 357 0
22 21 25 28 218 -331 0
-374 -6 25 26 -56 -58 240 242 0
-58 55 342 349 357 363 372 0
28 5 8 238 239 241 242 0
-51 -6 -7 -11 -17 55 342 0
-38 -6 -7 -9 -28 -29 289 0
-336 51 55 90 -331 338 353 372 499 0
-18 15 -78 -79 192 195 0
-64 -65 -68 -84 86 88 282 480 0
-344 -31 -66 249 281 282 285 393 400 406 0
11 7 13 -15 16 18 19 20 481 0
72 73 74 77 -319 432 447 456 0
-56 -319 -328 340 345 0
342 52 56 59 60 -337 350 360 -375 0
-74 -23 -25 73 78 -141 146 450 0
-324 7 -25 232 0
-26 21 22 -25 28 238 239 480 0
-233 -232 -328 0
-17 -7 -15 -25 -28 -328 0
-34 -5 -7 -24 -25 273 -328 0
-52 56 -331 347 350 0
-105 110 564 572 579 585 596 603 0
109 102 105 110 562 563 578 0
-74 -62 -66 83 -313 428 450 452 0
-227 -4 -240 331 0
-104 105 561 578 586 588 589 602 0
-31 35 250 252 286 287 0
73 7 -34 -35 72 78 135 428 0
-61 381 382 383 384 385 420 0
78 426 427 428 435 436 443 456 457 461 0
-55 -60 -105 -107 331 591 0
-78 426 427 428 435 436 443 468 469 0
16 7 18 -45 -108 -110 -480 0
-16 7 -56 -59 -108 -110 0
80 79 426 427 428 435 436 443 0
-220 4 14 15 -16 18 114 -141 196 197 0
-24 -6 -8 -34 271 -324 -593 0
600 -7 46 -104 105 106 563 571 578 0
24 14 -15 17 18 21 26 27 28 201 -328 345 0
-25 -5 -7 28 -34 38 -104 -108 201 -328 0
-18 7 -107 -109 192 195 198 199 0
-68 36 37 -38 -69 278 0
65 61 67 68 390 391 398 0
-8 143 147 0
-30 -28 -78 426 427 428 435 436 443 0
63 -55 -56 67 68 321 381 383 391 0
6 8 46 0
-37 45 -104 -107 -110 277 285 286 287 0
413 61 66 -68 -331 390 391 398 0
-101 105 -106 109 561 562 563 0
-66 61 -82 -83 -84 -102 -106 0
-78 -58 -59 426 427 428 435 436 443 468 0
-72 -58 -78 -82 -83 -84 342 0
75 78 426 427 428 435 436 443 461 0
108 106 109 -473 -481 561 562 570 578 602 0
-87 4 -5 -82 -83 -84 -106 -107 0
-59 -58 -78 426 427 428 435 436 443 0
-64 4 -5 61 65 -82 -83 -84 391 398 420 0
-71 72 76 78 427 428 457 0
-62 61 67 390 391 -411 414 415 0
65 66 67 381 382 383 390 391 398 420 0
76 73 74 78 426 457 0
67 65 68 381 382 383 390 391 398 0
-488 -472 -480 0
-86 -82 -83 -106 110 -472 586 598 0
5 -6 51 55 150 151 350 353 0
-32 -35 -40 51 -52 53 59 174 0
54 52 -328 337 339 354 375 0
16 15 18 196 197 0
-433 -11 16 -21 187 204 236 -342 0
26 23 25 28 217 227 241 0
-28 25 207 215 218 237 241 244 0
-19 7 15 193 198 -480 0
11 15 -45 165 166 173 191 192 195 331 0
23 24 25 28 29 201 226 242 0
64 62 -313 382 384 386 387 0
-71 426 427 428 432 433 460 461 0
27 23 26 28 30 208 216 0
-72 -51 -54 -55 -81 -82 435 440 461 0
30 27 28 29 231 0
-129 72 73 75 -141 432 0
-225 -24 25 227 231 233 0
-78 -73 432 435 453 468 469 0
-23 25 29 220 221 244 0
-18 -8 11 15 16 -35 -37 170 173 0
-38 34 36 40 251 260 267 288 0
-2 10 125 -171 0
259 38 39 40 251 -255 276 0
-52 55 -331 348 350 0
8 38 -39 46 149 152 0
-81 -5 -7 -8 85 87 -207 488 0
342 54 -58 -336 357 0
-319 471 472 480 0
-31 34 38 246 247 276 -331 0
-328 11 14 15 -16 165 0
276 34 38 246 -313 -331 0
33 34 38 246 276 -331 0
-33 -34 -141 -147 268 269 272 0
66 62 63 -331 387 405 0
-54 55 338 353 364 365 371 372 375 0
25 21 24 26 27 216 217 0
-104 103 106 571 585 588 601 602 0
-487 -82 494 500 0
14 11 15 16 17 -324 -350 0
-32 14 15 17 -18 -38 -82 -328 481 0
167 13 -15 17 18 -166 -328 0
17 11 14 16 177 -324 0
-237 25 26 -28 236 238 239 0
-341 25 26 29 30 218 -336 0
-18 16 162 195 -324 -488 -495 0
18 -7 8 16 25 26 28 -146 0
-25 5 -7 8 21 46 215 218 234 235 0
-19 -7 8 -18 21 22 25 26 -27 -28 218 0
-60 52 58 344 353 374 377 0
-52 51 59 345 350 352 360 371 0
71 73 74 437 438 440 0
23 -4 -7 -26 27 201 237 -328 0
51 -53 56 59 60 375 -495 0
-53 59 337 355 359 375 -495 0
-68 -26 -28 -30 62 387 491 0
-252 25 26 27 218 -246 0
-25 7 -8 28 29 30 -34 -201 204 -324 0
55 51 56 60 373 375 376 378 0
38 -27 -29 35 -46 286 287 -328 0
-331 7 62 63 -67 340 384 387 398 0
58 56 57 60 -331 343 345 346 353 0
601 -107 110 -480 -488 592 596 600 0
108 101 103 106 107 110 571 0
-144 -141 331 0
-12 7 16 167 170 -480 0
-24 225 227 228 -328 0
-28 26 -33 -38 201 228 233 240 488 0
-58 25 -28 -57 -59 237 0
-434 -11 15 -16 -21 25 26 27 161 162 0
62 25 26 27 -331 382 383 387 398 411 424 0
-71 426 429 430 431 432 0
-64 62 383 398 409 410 0
-18 -54 -55 82 162 188 192 195 0
-342 51 -58 336 337 338 0
-72 74 426 435 439 440 456 0
-27 29 -83 -88 206 214 227 242 447 0
27 29 30 84 170 207 218 231 0
-150 35 39 40 -146 0
73 72 74 75 430 432 0
-34 35 39 40 271 272 0
215 21 -28 29 30 221 225 236 237 0
-240 15 16 20 -243 0
267 31 35 -38 40 260 274 281 0
-396 -22 25 27 28 472 473 488 0
-324 26 27 28 0
59 51 55 60 371 372 375 0
34 33 38 39 246 277 284 0
180 -15 16 18 159 -173 186 187 0
51 52 54 56 59 377 379 0
-376 -7 8 15 16 18 0
211 21 23 25 26 241 242 0
105 106 570 571 575 578 582 587 588 601 602 0
389 63 -70 -381 410 0
35 34 37 38 39 254 262 0
-61 68 381 382 383 384 386 0
62 61 64 68 399 400 0
-15 11 167 174 188 -324 0
-73 427 435 448 449 450 451 452 0
-31 33 35 36 -38 248 251 260 0
34 32 33 35 36 285 0
-18 16 162 177 183 191 196 197 -324 0
-284 -6 8 25 26 27 -28 -36 -38 0
-36 8 15 17 -18 35 45 -46 331 0
-58 51 52 353 378 379 0
-71 6 341 426 427 428 432 457 0
-221 87 -232 480 495 0
-81 4 -8 132 -387 -480 0
-15 162 167 174 180 186 187 0
-472 -28 -30 62 411 421 422 -488 0
-68 -28 -30 62 387 398 0
-35 -5 -9 26 27 30 -38 238 241 0
-29 -6 -7 -9 -38 234 241 289 0
-63 -61 -62 -319 0
-390 -319 -381 0
18 12 13 16 182 -324 0
8 -6 -25 28 -324 0
-33 -34 271 277 278 285 -313 0
24 21 27 28 215 216 217 219 0
-59 336 338 346 354 373 376 378 0
-15 11 16 165 180 187 189 190 0
-15 11 -22 -25 174 180 187 345 0
32 33 36 -38 40 253 270 271 285 0
-37 247 259 272 277 282 286 287 0
32 34 37 247 278 -328 0
-34 -5 -6 -8 -24 -25 272 0
32 31 34 38 277 -328 0
-379 -13 -18 31 -32 34 35 188 192 195 255 281 526 0
-267 -63 -285 382 390 398 411 0
67 4 -5 61 62 65 68 -82 -84 0
-85 57 58 -82 -84 340 346 355 360 0
393 -62 -331 386 392 395 0
480 -23 -25 -26 -82 85 0
-232 -25 27 240 -331 0
-22 28 212 214 -328 0
480 7 -82 122 135 495 498 0
-3 -6 -46 62 63 -64 250 0
-54 -64 -66 276 360 362 363 0
-221 15 18 161 -218 -328 0
-26 8 -46 205 213 237 238 239 480 0
-165 -22 -28 177 -480 0
-78 -64 -68 -72 -73 0
-353 -32 -38 -84 -170 0
-490 -15 180 188 -324 -488 0
-59 11 15 18 -57 168 173 0
-142 143 -146 0
-15 11 167 180 187 188 -328 0
17 11 15 177 183 -328 0
-15 1 3 -5 11 174 186 187 188 -328 0
-255 35 36 37 -38 -260 -313 0
-331 35 36 38 0
-108 -5 -7 46 582 588 593 600 603 0
19 3 6 11 13 15 -17 18 20 114 0
-37 -7 -35 147 0
-51 -55 -62 -65 -72 -82 -261 435 480 488 0
-5 -7 122 135 -481 -498 0
-67 -37 -40 381 401 405 406 420 0
-26 -63 -66 236 237 -328 355 0
-411 63 64 -65 385 393 420 0
32 31 33 38 276 -331 0
375 51 52 55 56 -313 371 372 0
-56 8 51 52 353 374 0
-62 67 381 390 391 392 393 0
-38 -82 -84 177 252 273 285 -313 0
-17 11 13 16 -22 -27 187 195 435 0
34 32 33 35 36 40 253 0
-30 -7 15 16 -17 -28 -37 -38 0
372 54 55 59 60 341 345 0
-52 -331 347 348 350 0
58 52 55 57 59 344 353 0
62 64 69 70 385 398 399 404 415 420 0
-243 28 -29 234 237 240 0
-84 90 473 488 499 0
-30 28 231 235 239 242 0
-25 -35 146 278 -324 0
-28 21 25 26 -218 228 240 0
-78 -40 73 280 284 287 432 436 469 0
-4 -5 -8 -34 -141 -331 0
14 -11 13 15 17 18 156 195 196 197 0
22 21 27 28 -29 218 331 0
-472 -84 -471 0
-56 15 17 18 51 52 353 374 0
14 18 161 162 163 164 165 186 187 196 197 0
16 14 18 162 163 164 165 187 0
-11 15 -16 162 163 164 191 0
-78 -28 -30 72 73 432 0
-141 34 37 -38 -42 -146 0
-31 5 -21 -36 207 -324 0
-4 -6 -7 -24 25 228 0
-18 15 -82 -83 -84 162 183 215 260 0
31 34 35 37 40 255 283 0
85 1 2 -5 -7 87 137 480 0
26 29 30 232 233 235 240 242 0
183 13 15 16 -18 -166 196 197 0
18 11 17 174 180 187 -328 0
-72 436 437 438 439 440 0
-73 -2 -7 45 46 206 437 443 445 446 0
22 21 23 25 26 -331 0
-58 342 350 357 360 372 375 0
-168 1 4 -141 -165 0
-78 -66 -68 -72 -82 84 85 87 195 0
-78 31 37 -38 -72 84 270 271 0
-187 -15 17 18 -331 0
33 34 36 -38 246 277 281 282 285 -324 0
226 21 25 28 -218 -331 0
22 21 24 25 28 -331 0
228 21 26 27 -28 215 -324 0
-52 -64 -65 -82 -84 -331 348 350 0
-1 -8 -18 -20 -82 84 162 493 0
-18 162 165 166 173 188 192 -331 0
-105 106 561 579 585 594 595 600 0
-382 72 -319 -399 432 447 461 0
-58 -33 -38 54 -82 -83 342 0
-60 336 340 348 353 354 360 372 377 379 0
-59 25 27 28 58 336 354 360 376 0
-38 34 83 177 252 282 285 -324 0
-38 34 177 222 252 279 280 282 285 0
-64 -23 -26 -31 -36 62 265 -319 0
-165 2 4 -84 85 -141 -169 0
283 34 -39 -82 -84 177 247 279 286 0
54 58 59 336 337 345 365 374 377 0
14 11 13 17 18 -324 0
-68 -6 -8 -319 395 402 476 0
11 14 17 165 192 -324 0
-18 11 17 -82 -83 173 192 215 -324 0
58 56 -331 339 345 346 353 0
-57 -331 336 337 345 362 0
-51 42 43 45 46 336 337 340 342 0
-85 -55 -82 -319 -336 -480 0
51 53 54 57 348 350 0
-52 51 -313 -331 346 348 350 0
-360 -1 72 73 -74 77 83 432 0
-73 72 -313 432 444 445 446 0
-52 -313 -331 336 346 348 350 0
-227 45 46 73 74 -75 426 0
-396 -22 25 27 215 471 488 0
-313 -33 281 282 285 -324 0
-86 -82 490 496 0
68 -62 63 67 87 88 -331 381 391 488 0
-62 -1 -6 160 394 395 396 397 411 0
-62 -1 -6 160 390 391 396 397 0
23 21 26 27 -28 228 -324 0
-68 -33 -36 220 -319 387 395 423 424 0
-51 54 -331 336 337 340 342 0
-76 -319 430 438 445 0
-411 61 62 63 67 88 480 497 0
-63 -31 -36 62 66 130 391 399 401 403 404 0
168 15 18 160 -166 -331 0
23 21 22 25 26 -331 0
-444 -24 25 26 27 -43 0
55 -319 -331 337 338 348 350 360 372 0
-336 -62 63 68 -319 -331 -339 0
63 7 62 -319 -331 340 382 384 0
13 12 15 -18 158 192 -331 0
-55 -51 52 56 -313 -331 360 368 0
52 51 -331 353 358 359 360 372 0
62 -5 -6 -313 -331 340 387 405 406 0
-62 -22 -26 168 -331 381 390 391 393 395 0
66 61 63 68 -319 -331 0
-67 61 -331 390 407 0
-313 34 35 246 276 282 -331 0
-228 1 3 -8 16 -18 177 188 -331 0
-61 7 -319 -331 340 381 382 387 0
-56 -26 -30 -313 338 340 348 353 0
12 11 14 15 16 -331 0
-67 62 63 -331 383 0
-255 31 -38 -260 266 268 269 278 282 0
-66 4 -5 -6 62 -63 -313 340 0
-62 -1 -6 160 -331 390 391 393 395 0
61 62 66 -313 -331 398 405 0
-52 -1 -5 -45 159 345 348 349 350 0
-27 232 236 240 -331 0
350 51 -313 -331 337 348 360 372 0
-51 338 339 342 343 344 345 371 0
55 51 -331 348 350 353 372 0
65 -62 63 66 68 -331 395 407 0
61 66 68 -319 -331 390 400 0
-58 -33 -38 51 84 -319 0
337 55 58 -319 -331 336 345 0
-216 61 63 64 81 84 0
-489 56 57 58 -319 -480 0
63 62 68 -319 -331 411 0
-15 -6 -8 -16 -35 39 40 0
-83 3 4 -7 86 -146 488 489 0
-341 33 35 38 -328 -336 0
55 59 341 342 346 355 359 374 375 0
23 21 24 25 27 29 239 0
-190 8 26 27 28 -328 0
487 -51 -55 -75 84 450 486 0
-216 -72 81 -82 426 435 480 0
414 63 70 381 405 406 409 420 421 423 0
594 102 107 108 110 578 580 586 0
-435 -72 -77 -497 0
522 -7 -9 73 74 -313 426 434 435 441 442 0
471 -313 -319 0
31 34 37 38 -313 -328 0
284 31 32 37 38 265 283 -313 0
254 36 38 39 262 277 -313 0
350 51 54 55 -313 -328 0
349 51 54 58 -313 -328 0
346 51 55 57 58 -313 0
349 51 54 55 58 -313 0
-65 51 -55 -64 -82 -84 -313 0
363 51 55 56 -313 349 -375 0
360 -55 -62 -65 -81 -82 -313 0
386 62 66 68 -313 405 0
405 45 46 61 62 66 -313 0
407 61 62 68 -313 398 406 0
421 61 62 82 -87 282 -313 411 422 0
-64 -62 -73 -82 -313 0
413 61 63 -313 381 383 -386 392 395 406 0
180 11 -15 17 18 -56 -59 165 0
217 21 25 -26 29 214 218 237 -331 0
213 25 28 205 226 -331 0
45 15 16 -27 -28 46 -331 0
402 -63 -331 382 398 399 400 0
-342 -63 66 -331 -337 392 398 0
348 -52 -331 347 350 0
363 53 -54 56 -331 346 360 0
260 -13 17 -32 -35 -82 -84 -328 0
358 8 58 -59 -328 343 346 0
363 -51 52 -54 -328 341 360 0
257 33 34 37 246 249 -328 0
21 25 26 -27 -32 -34 -37 -38 0
-214 -34 36 -38 -206 -227 267 278 0
289 -38 -54 -58 -84 -88 282 288 496 0
183 11 15 -18 -36 -38 45 165 331 0
373 -37 -38 -40 -59 343 345 364 0
246 33 37 -38 39 40 270 271 276 0
146 -11 -21 -25 -324 0
-10 -56 -60 0
-80 73 74 75 78 434 464 0
56 51 55 -313 346 375 0
-38 -68 -69 278 282 285 0
73 -319 426 429 430 432 440 456 457 461 0
52 53 54 55 58 -59 0
-71 72 74 80 432 433 456 457 461 0
-84 1 3 -8 11 15 16 17 -18 -82 195 260 0
-192 15 16 -18 191 -328 0
-257 -35 258 262 277 278 279 0
-36 38 250 258 265 277 -328 0
-447 -73 74 432 435 448 469 0
488 2 4 -72 -78 -84 85 -141 195 0
-87 2 4 -6 7 -12 -15 0
-7 -6 -15 18 150 0
18 11 15 175 181 -331 0
-52 -62 -66 186 -331 347 350 0
440 -72 77 437 438 0
-4 -5 -7 -12 -14 -16 82 -83 0
79 71 73 75 80 451 452 0
78 -2 -7 45 46 72 -73 206 444 0
481 -73 -78 87 240 489 490 0
-27 206 215 220 227 232 241 242 0
-28 -13 -18 21 24 27 -82 170 0
-15 -45 161 174 182 186 188 0
-51 336 337 338 339 340 341 0
604 101 102 106 107 109 578 0
101 106 108 109 110 570 592 0
-28 21 25 222 228 238 240 244 0
-62 381 390 393 394 397 405 423 0
-93 -83 -89 243 517 525 533 537 539 551 0
-98 92 94 537 548 552 555 0
28 23 25 209 230 234 236 238 241 0
-12 16 169 170 189 190 0
-40 -23 -30 31 38 262 276 -331 578 0
-23 219 220 223 240 242 244 0
146 -6 84 -87 129 135 0
-27 206 214 227 240 241 242 0
-27 206 214 221 240 241 242 0
-27 22 23 206 240 241 242 0
-342 62 -68 73 -78 398 453 468 0
-72 -1 -7 45 46 73 161 436 0
-31 35 38 250 253 254 0
61 -46 62 66 398 420 547 592 0
-70 51 -57 -67 345 346 353 0
277 31 36 39 40 -72 -78 84 0
-57 53 54 341 376 377 0
-83 3 4 -7 -146 488 489 490 0
-24 6 -14 -15 225 228 -328 0
-105 106 564 579 585 593 595 601 602 0
-461 73 -319 426 427 429 430 438 440 0
72 -61 -67 73 76 146 -319 458 0
-472 -473 -480 0
71 3 4 -5 -6 72 -82 -83 130 -319 447 0
-56 -10 59 348 -472 -488 0
-37 8 -46 285 286 287 0
422 64 68 69 384 386 389 390 415 424 0
-62 387 390 393 394 396 397 405 420 0
57 52 54 56 -58 59 344 354 0
-58 52 342 353 378 379 0
-239 7 15 17 18 -244 0
-238 -6 15 -16 18 191 -243 0
-57 -73 -76 232 341 346 376 377 0
-62 65 67 393 395 0
84 87 485 489 490 0
-170 1 3 -8 -166 0
-181 5 83 -166 495 496 0
6 83 85 122 135 484 0
-57 341 345 360 371 375 376 377 0
7 143 331 0
-26 -27 -28 331 0
496 4 -6 -446 480 495 498 0
-73 71 435 443 448 449 0
-82 -1 -8 -28 -29 90 471 480 0
-62 63 386 391 395 396 397 411 0
578 105 106 107 109 561 597 599 604 0
62 63 70 383 389 403 411 421 423 0
-107 3 4 5 -6 -10 -82 83 -84 85 -106 -580 0
-35 -6 -7 8 -28 -29 -45 0
-108 103 104 106 561 600 603 604 0
102 103 104 106 108 110 601 0
-106 -5 -8 105 573 580 586 0
-18 20 188 192 195 198 0
580 105 -106 109 110 -562 571 0
102 105 106 108 109 110 563 0
-38 34 35 252 260 281 -313 0
-73 -319 427 435 445 447 456 457 0
72 73 -319 427 430 432 436 457 0
-472 62 68 411 421 422 -488 0
-67 -7 8 62 382 383 398 422 0
-35 -6 -7 8 -84 -86 363 0
-38 -81 -84 132 260 267 273 0
-105 572 579 585 591 592 593 0
106 101 105 107 108 -146 0
8 52 -57 -328 353 377 430 0
6 -51 -57 430 0
-494 37 -38 254 278 282 288 -480 0
-25 22 23 204 234 235 237 240 0
7 15 16 18 147 0
142 -5 -150 331 0
-37 -8 15 -17 -18 -46 286 287 0
72 -53 -55 -61 -63 -319 428 432 447 461 0
457 -319 426 427 432 435 440 447 456 461 0
71 73 -319 440 456 457 461 0
456 73 -319 426 427 432 440 457 461 0
-18 162 170 177 188 192 -331 0
-339 72 -319 -337 432 447 461 0
339 -55 -319 -337 347 0
55 51 57 -313 346 372 375 0
-57 -331 341 349 356 0
54 -1 -5 -45 51 53 -313 336 0
-62 3 -5 -313 381 391 394 395 396 397 0
338 -51 56 -313 -331 336 342 0
63 51 -55 -61 62 66 -82 -83 -84 -331 387 398 0
33 32 34 35 36 249 -331 0
32 31 34 35 38 -331 0
-54 57 -319 338 360 372 0
11 1 3 -8 13 15 -18 192 196 197 0
-26 -12 -16 25 205 218 237 -331 390 0
52 56 -319 -331 337 338 342 345 353 357 0
12 11 13 15 18 -331 0
62 61 67 -319 398 400 402 0
-397 -22 25 27 28 471 488 0
-52 -55 -56 -62 68 186 -331 390 395 407 0
-51 53 56 -331 336 338 342 0
-64 62 -63 383 399 406 409 410 420 0
-432 72 73 -319 458 462 465 0
61 63 64 -319 -331 390 392 395 0
-63 82 87 88 -313 381 382 395 401 481 0
-489 -55 -319 -331 338 340 342 -480 0
-25 -7 -8 -35 -38 -324 0
-62 87 88 -319 -331 381 390 395 405 488 0
65 -5 -6 64 68 -331 340 -381 382 383 387 407 0
-313 -33 -141 -147 -331 0
-72 -82 -88 195 -319 426 438 439 444 0
22 23 24 25 26 -331 0
-73 51 -55 72 -82 -83 360 432 443 445 446 0
-402 -24 -25 -28 -83 87 88 488 0
52 53 54 58 -331 340 0
105 -6 -8 -13 -16 561 578 581 583 596 597 598 599 601 604 0
64 61 62 68 -331 399 0
-65 -53 -55 -83 -84 384 396 397 0
-61 -3 -6 7 250 340 381 387 399 421 422 0
62 61 -319 -331 399 402 0
-61 -3 -6 7 250 -331 340 381 384 387 0
-353 -51 55 -331 372 -471 0
52 42 43 53 -319 -331 340 342 0
21 22 24 26 27 -324 0
-73 -62 -66 -82 -83 -319 432 435 444 446 0
52 51 58 -331 353 366 0
-342 1 4 -8 -81 -83 -84 0
52 51 57 -319 338 353 355 357 0
53 51 54 56 -331 347 0
-51 -331 337 338 340 342 347 0
-65 -55 -63 -75 -82 -83 -84 -319 345 360 398 0
-420 -68 -331 387 395 398 0
75 -5 7 72 74 78 135 432 433 434 461 0
-73 7 78 135 432 433 434 435 443 444 0
57 54 58 340 351 352 354 0
7 -61 -331 340 384 387 394 398 0
-73 75 87 240 427 435 443 461 481 489 490 0
-54 -319 336 353 360 362 372 0
-57 53 -331 336 362 0
-37 -8 -14 15 16 -18 20 25 -26 28 30 -34 -36 241 242 0
105 561 578 581 583 587 589 596 597 598 599 601 604 0
-360 -55 -319 338 346 353 0
51 54 56 58 -331 356 358 359 0
-69 15 16 17 62 384 403 406 421 0
-68 25 26 27 63 64 381 424 0
-343 -11 15 -16 -21 25 26 27 162 191 0
-388 -11 15 -16 -21 25 26 27 162 191 0
-64 -319 383 390 393 400 405 420 0
-389 -11 15 -16 -21 25 26 27 162 191 0
61 63 66 -319 -331 390 395 400 0
23 22 24 25 27 237 0
53 52 59 60 360 362 364 365 372 0
-53 51 -313 345 353 0
-489 -55 369 370 -480 -488 0
-61 7 63 64 -331 340 384 387 0
-106 561 564 573 578 596 597 598 599 0
-495 11 -18 188 192 -331 -488 0
55 51 -313 -331 346 372 0
-72 426 436 438 439 441 444 449 469 0
-51 -313 -331 340 342 347 360 0
-45 -43 51 -55 60 225 346 546 0
-63 386 390 400 402 403 404 405 0
-73 -1 -6 -82 -83 84 -319 432 435 444 489 0
73 72 76 -319 432 457 0
79 73 74 76 80 432 457 0
-62 -12 -16 213 381 391 396 397 0
-436 -72 74 432 450 451 452 0
51 35 37 38 52 57 58 353 374 0
55 -313 -331 340 342 346 372 0
-45 -2 -5 -8 -11 15 16 -18 -43 195 0
-132 26 27 -28 -81 -83 120 228 -324 0
-360 54 -55 -319 338 346 0
63 61 64 -319 -331 395 411 0
-52 -331 336 345 346 348 350 0
-63 -5 62 68 -313 382 401 0
-54 56 -319 338 347 350 353 0
-56 15 17 18 51 348 353 374 0
56 53 54 55 58 349 0
-67 35 36 38 62 382 383 398 422 0
-472 52 55 371 372 375 -488 0
51 52 59 353 359 360 374 376 377 0
14 15 17 19 162 164 165 195 199 0
12 11 15 17 18 173 0
-6 147 -328 0
-15 6 8 -25 26 28 186 188 0
-411 2 3 -5 -62 67 68 0
-422 8 -22 26 28 -142 -394 0
-191 15 16 -17 192 -328 0
488 -12 -18 215 -480 0
-38 -58 -59 278 282 285 0
-288 -38 39 279 283 286 0
493 4 5 81 -82 -83 85 86 90 471 0
427 -71 72 74 77 78 456 0
225 21 23 -25 27 215 237 331 0
-495 -55 59 -313 337 345 370 0
-13 7 18 174 175 -480 0
16 12 15 163 164 173 195 0
-495 4 -6 -136 -481 -488 0
-162 -51 -195 -328 336 337 360 372 0
84 11 13 -15 -16 17 18 189 194 0
-34 -14 16 18 -24 25 27 182 225 236 237 240 270 273 281 282 285 0
-62 -38 -68 252 270 271 272 -480 481 0
-4 46 136 138 0
488 3 4 85 -141 -480 485 0
-37 15 16 -18 -38 45 46 0
-67 -331 386 390 407 0
-72 426 438 439 440 442 444 454 0
226 22 23 25 27 201 207 0
-137 1 4 -7 121 128 0
61 8 62 68 331 398 411 422 0
67 62 68 69 398 404 410 411 0
-103 106 561 581 582 583 584 585 0
-4 -14 16 18 137 -480 0
-37 -38 -40 -146 151 0
-420 -67 387 397 402 408 421 0
70 61 68 69 390 405 406 420 0
481 51 52 54 -63 67 68 353 381 383 411 472 0
404 -63 385 390 398 399 402 403 0
-448 51 52 54 353 472 481 0
-73 435 443 444 447 448 449 461 0
-78 74 432 440 447 0
61 62 69 70 405 406 408 0
-62 67 381 390 395 405 406 411 0
-68 62 -78 -80 -319 387 408 0
-73 75 -319 427 435 446 447 0
-505 -85 -89 0
-414 -85 -89 0
-369 -482 -486 0
-414 -482 -486 0
-459 -489 -493 0
-459 -495 -499 0
-369 -495 -499 0
-414 -495 -499 0
-499 482 -486 -495 0
-4 -6 -46 64 -65 295 390 0
-32 34 36 37 246 255 273 279 280 0
-64 -319 383 391 399 406 420 0
62 63 64 65 66 387 0
33 34 35 36 246 251 259 0
-73 76 84 -88 240 -319 427 444 0
72 -6 -7 73 76 -319 386 458 0
38 34 37 246 255 264 -328 0
-261 -62 63 84 386 395 405 406 411 472 0
-337 -51 52 56 356 357 358 359 360 0
71 72 75 -83 -88 240 -319 461 0
-444 -51 52 54 -55 56 -331 -447 0
17 16 18 167 174 180 -328 0
71 51 -55 72 84 -88 240 -319 461 0
71 -33 72 74 247 263 267 471 -480 488 0
71 72 -319 447 448 449 450 451 0
-18 15 -37 -38 45 46 192 0
62 -5 61 65 67 84 129 135 -319 0
-74 -5 -6 -23 -25 72 73 -319 450 451 0
-389 -55 84 347 354 360 -381 -482 0
71 51 -58 73 84 -319 439 451 456 0
-37 34 246 247 255 285 286 287 0
66 63 65 68 -331 405 407 0
-397 51 -52 54 81 84 336 0
447 -73 -432 444 445 448 449 0
-51 6 -328 336 339 342 430 0
-18 -32 -38 -82 -83 183 188 192 195 481 0
105 106 107 563 570 590 603 604 0
63 61 65 -319 393 394 0
31 34 36 37 255 261 262 268 269 276 0
-277 34 37 246 247 255 282 285 0
38 34 45 246 251 255 259 264 -328 0
-73 3 4 -5 51 59 60 -82 -83 88 427 447 -480 481 0
-397 -22 26 27 28 84 472 0
-35 31 34 37 -38 255 257 268 269 -331 0
-5 -31 -35 -51 -53 -55 114 338 0
15 16 20 163 178 184 191 192 195 0
39 34 35 36 40 246 247 255 277 0
67 -38 -40 -61 62 63 405 406 411 0
-15 159 174 180 186 189 190 195 -331 0
31 34 35 38 255 270 286 287 0
-5 -21 -25 114 129 135 337 0
-73 72 76 -319 427 446 458 0
-16 5 -6 -35 -38 -56 -59 0
-73 3 4 -5 84 -319 432 444 446 0
-72 -319 426 435 438 439 440 0
-16 160 168 173 187 192 -328 0
225 26 28 29 201 -218 231 242 0
-40 38 280 282 284 287 0
53 -27 -30 51 54 56 350 0
-4 -7 -25 -27 -34 38 0
384 -61 63 64 67 68 -411 0
-64 65 68 406 407 0
-73 -53 -57 74 75 232 446 447 0
62 3 4 -5 61 84 -319 -357 -375 0
-449 51 52 54 84 472 0
-135 -34 38 -142 -328 0
-24 4 7 -25 72 73 -319 432 450 0
-387 73 75 -319 -381 435 461 0
71 3 -5 -6 -73 78 84 -319 461 0
63 61 68 -319 -381 384 385 0
35 31 38 259 266 -328 0
3 4 5 72 -73 75 84 85 87 -319 432 481 0
-490 -52 -55 61 84 -319 390 420 0
77 73 76 -319 426 458 0
-383 73 -74 -319 -381 0
-261 63 67 68 84 405 406 411 472 0
-73 72 74 77 444 447 448 449 0
277 33 34 38 246 -328 0
73 -319 430 431 432 437 438 440 0
-449 31 -33 36 38 84 270 281 285 471 0
-73 72 -319 427 445 446 458 0
-105 550 561 579 587 591 593 594 0
-387 73 -319 -381 444 456 457 461 0
-106 -25 -30 359 565 573 587 588 591 605 0
63 61 67 -319 396 397 405 406 0
18 15 16 161 169 176 0
7 -61 67 331 -342 384 0
-65 -46 63 64 68 411 412 547 592 0
-19 -15 -24 -25 -34 227 228 231 281 282 285 0
-387 -38 268 269 278 282 285 -381 0
35 33 36 37 252 261 262 0
-253 -21 72 73 74 205 207 232 -319 0
-350 51 -52 54 58 345 354 372 375 0
-388 -11 15 16 -21 26 195 207 232 0
-397 31 33 34 36 37 84 472 0
396 61 63 68 -319 397 405 407 0
62 51 -55 61 67 -319 402 -480 481 0
-394 23 -27 28 227 -381 0
-399 11 15 16 18 -405 0
12 11 15 16 17 -32 -34 301 0
-106 -12 -14 -63 -66 84 104 109 0
-388 -21 52 53 54 205 207 232 0
17 11 12 15 173 -328 0
76 73 75 77 -319 426 429 0
11 15 18 165 166 173 187 -328 0
-63 -35 36 37 -264 267 382 390 398 471 -480 488 0
-358 -33 35 36 -37 38 472 481 0
-32 35 36 38 261 262 0
387 7 -62 63 -319 340 -381 384 386 0
15 14 16 -36 -38 45 161 165 331 0
62 6 -51 -57 63 -319 387 0
384 -61 66 68 69 70 382 -405 0
-322 -324 0
411 61 62 -63 68 -319 -331 0
382 62 68 -319 -331 411 0
237 -21 -26 -63 -83 -87 -319 -331 390 411 0
-219 4 -5 14 16 18 -331 336 0
362 51 53 -57 -331 0
53 51 54 56 58 -331 0
350 51 -52 53 54 56 -331 0
384 -62 63 64 66 -331 395 0
400 61 62 68 -331 405 0
405 61 62 66 68 -331 0
403 62 64 -331 382 387 404 411 0
53 52 54 -57 -331 0
53 52 54 56 58 -331 0
53 52 54 55 56 -331 0
43 42 52 53 56 58 -331 362 364 0
406 61 63 68 -331 405 411 0
401 -63 -313 387 390 398 400 0
430 72 74 -313 429 432 0
453 71 72 -313 443 452 456 0
439 71 74 -313 435 440 456 0
9 -5 -7 28 -30 150 0
-393 4 -5 -7 85 -86 0
431 -5 -7 -71 78 341 428 429 0
141 -5 -7 -51 52 54 58 -61 -66 337 0
87 -5 -7 14 -15 18 84 85 135 -328 0
-39 -6 -7 8 -35 0
-422 -6 -7 8 -27 28 0
17 -6 -7 8 16 -35 0
-283 -6 -7 8 18 -182 -271 0
-103 -6 -7 -83 -84 0
-108 -7 -106 -110 0
60 -7 51 52 55 353 0
5 8 51 55 58 60 0
142 -7 8 45 0
-422 8 15 16 18 0
349 8 -57 341 353 377 0
-422 -7 8 -27 -45 240 0
362 8 -57 60 336 337 345 0
377 8 54 -57 336 337 345 0
364 8 -59 343 345 378 0
58 8 55 -59 0
358 -7 -59 150 339 346 378 0
40 -7 31 32 33 36 39 0
37 38 -324 -328 0
247 32 34 38 281 -324 0
214 -8 25 26 -56 -57 206 207 215 218 -324 0
213 21 28 206 214 218 236 -324 0
-242 8 16 18 -324 0
421 -13 -14 -23 -25 62 63 68 387 407 422 0
-31 -13 -15 -33 -35 -54 -319 0
183 15 17 -56 -59 162 165 0
185 15 17 18 164 165 193 -324 0
181 5 17 18 82 85 -324 490 0
195 11 14 16 165 -324 0
596 -23 -25 -84 -88 -106 570 591 598 599 0
-30 8 -25 -27 0
-42 23 -25 26 -45 -201 240 0
189 11 -15 -17 18 20 84 87 174 0
526 7 -13 16 17 18 -32 -36 -39 147 0
182 11 15 -17 -488 -498 0
398 -18 -20 61 62 -68 0
-20 -18 61 62 64 -68 0
-16 11 165 181 186 -328 0
-217 61 63 64 471 488 0
51 8 54 58 60 345 360 0
-16 11 12 15 17 -18 86 88 -328 -350 488 0
-72 -53 -58 73 75 76 84 439 0
-57 52 -53 -61 70 376 377 381 -386 388 0
-57 8 52 53 341 377 0
-36 -34 -46 63 -65 316 381 0
-62 -7 8 68 381 390 391 411 422 0
-350 4 7 -14 -17 -18 84 129 135 0
-4 -6 -7 -8 -15 -18 -34 0
-68 -14 -15 -18 -62 84 88 192 0
-4 -6 -7 -8 -15 -17 -34 0
-397 21 25 26 28 218 471 488 0
-195 25 28 -177 -183 201 238 239 0
64 61 -62 63 68 411 421 422 0
-39 -5 8 -18 -35 -38 192 195 0
-57 8 51 349 356 377 0
-57 8 336 337 345 362 377 0
-135 32 36 -38 252 -273 -313 -328 0
-62 64 381 390 395 411 421 422 0
72 61 62 -68 73 398 428 456 457 461 468 0
-56 2 -5 -35 -36 -52 -54 135 0
56 8 -54 58 -85 336 337 339 347 354 376 377 0
-73 3 4 -5 84 427 446 447 450 0
-63 64 382 399 400 402 421 422 0
57 51 52 58 -313 -328 0
-361 51 -54 -328 348 355 0
-188 11 15 17 174 180 -328 0
-387 -5 -7 -8 -81 84 85 87 0
360 5 -8 52 -313 -328 337 341 342 0
-188 11 15 16 17 167 180 0
51 54 -82 -86 188 -313 -328 349 0
-1 -6 -46 -62 381 390 405 406 420 0
68 -62 63 381 393 394 405 0
68 -62 87 88 381 391 394 403 404 488 0
-342 -6 -7 -8 -81 481 489 490 0
-53 11 15 16 19 20 -54 -55 0
63 61 62 405 408 411 420 421 422 0
52 8 51 -68 -70 -328 353 377 0
61 -46 62 63 -136 398 406 420 0
13 11 -15 16 17 18 87 88 481 0
-63 -43 -46 62 226 382 406 420 0
-361 51 -54 -328 348 353 0
339 -51 -146 336 337 345 -360 372 375 0
-64 -62 -81 -82 103 -104 105 109 597 602 0
-490 105 -106 108 109 -472 -480 -586 602 0
-591 103 105 -106 109 564 572 597 602 0
405 62 382 385 386 387 390 400 403 404 406 420 0
-30 -12 -20 24 25 26 28 209 570 0
54 -146 336 337 339 345 347 354 372 375 0
37 7 -8 -34 38 40 -105 106 108 -471 0
110 104 107 108 109 561 562 570 0
-206 3 4 -8 -81 84 -195 0
-12 7 -15 -17 84 85 0
-599 34 -35 36 141 -142 150 246 247 255 287 0
-109 -7 -8 34 -35 -106 246 247 255 0
51 52 58 -328 348 353 367 371 0
107 104 106 108 110 561 562 570 0
51 -313 -328 349 350 360 375 0
-142 34 38 246 247 255 -328 0
108 105 106 110 561 562 570 601 0
102 -46 62 63 103 105 -106 109 110 406 420 547 592 0
129 1 7 -15 -17 -81 84 85 135 0
-12 4 -7 -13 84 -104 -105 -106 142 0
110 104 105 106 109 570 600 0
-238 -7 8 -27 28 -45 236 331 0
-471 -7 -45 46 104 105 106 -480 599 600 0
-490 104 105 -106 109 110 -480 0
-106 104 105 570 596 597 598 599 0
110 104 105 106 109 570 575 581 0
-602 11 13 15 -16 35 37 38 166 195 279 281 331 0
-109 104 105 106 570 601 603 0
102 104 105 109 110 581 582 0
-110 -7 8 -23 -27 28 -45 -104 0
-64 84 -102 -104 383 405 406 420 0
-52 21 24 26 28 232 336 345 346 471 488 0
110 104 106 107 108 109 570 0
101 3 5 84 104 -105 -106 109 110 137 0
-107 -5 -6 -45 106 108 109 574 581 587 0
108 104 105 107 109 110 570 0
-471 104 106 107 108 110 -480 0
101 104 106 109 110 570 600 0
-101 59 60 -104 -105 345 371 372 375 0
-39 -14 15 16 -24 25 26 -37 -38 -285 0
15 4 -5 -7 11 -16 17 18 -22 -24 84 -104 -105 0
-10 -7 -22 -32 35 -45 215 246 252 267 273 0
104 -5 -6 -16 -17 -45 105 570 596 598 599 601 603 604 0
107 6 46 105 106 -471 -480 562 599 0
62 -7 -8 -11 -18 63 -313 405 406 411 0
107 6 -45 46 105 -471 -480 562 599 0
104 107 109 110 -471 -480 562 597 598 603 0
-489 -105 107 108 109 110 -472 -480 0
-4 -5 -7 -8 -16 -18 -34 0
110 105 106 -471 -480 562 600 601 603 0
104 7 46 105 331 -471 -480 562 0
-146 105 106 110 -147 -471 -480 562 0
-32 14 15 16 17 -18 -38 -82 -83 481 0
-136 104 -105 109 110 -146 561 562 570 0
110 -104 105 106 109 -471 562 570 600 0
-13 -6 -7 -16 -104 105 109 110 561 562 0
106 84 88 -105 108 109 110 -471 -472 483 488 492 593 0
593 -5 -6 -45 104 -105 106 561 562 570 594 601 0
-62 381 390 394 395 405 406 411 0
-492 3 4 -7 -480 0
-3 -6 -7 -104 105 109 110 561 562 0
-87 -81 -82 -83 105 -107 110 589 0
-35 34 246 247 255 278 -324 0
-87 -81 -82 -83 106 108 109 110 -471 0
-108 25 26 28 -104 -105 201 0
106 104 -105 561 562 570 594 600 602 604 0
24 25 26 28 201 221 237 0
102 104 -105 109 110 564 582 596 0
-593 -8 26 28 201 240 -324 -585 0
-14 15 -16 17 184 185 192 0
488 -18 -102 -109 188 192 195 199 471 0
-87 83 -107 -109 424 476 486 0
102 104 105 106 107 -170 -198 0
102 104 105 106 108 110 583 0
-575 3 4 -7 -570 0
-103 4 -5 -7 82 85 87 -102 0
102 104 105 107 108 110 583 597 0
101 104 105 107 108 110 583 0
563 -104 105 106 108 110 571 583 0
-165 -104 105 106 -107 108 110 -170 574 0
387 8 62 65 -68 331 391 398 400 406 422 0
-110 103 105 106 571 602 604 0
64 -7 8 61 65 68 400 422 0
-588 4 -7 124 -571 0
107 104 105 106 108 110 562 0
102 5 -46 104 105 106 603 0
-488 -6 -103 -481 0
108 102 104 105 106 601 602 0
588 103 -104 105 106 571 585 589 602 0
102 103 105 106 108 109 578 602 0
-103 4 -5 -6 -102 -108 -488 495 0
-138 -34 -142 -143 -328 0
-109 3 4 -8 -102 -103 0
107 103 104 105 106 110 603 0
102 104 105 106 582 583 602 603 0
4 2 -5 -7 -82 83 -84 85 -106 -107 0
107 103 104 105 106 603 604 0
55 57 58 59 60 346 355 0
-108 105 106 575 582 588 603 0
-106 -5 -45 105 571 580 591 596 597 598 599 0
-72 -22 -27 169 426 436 441 442 0
103 105 106 107 575 588 589 590 603 0
-103 4 -5 -7 82 88 -106 -107 489 0
-54 55 -104 -106 280 338 346 353 375 0
-5 -6 26 -27 -35 -45 0
-29 -18 -22 -23 -27 -82 83 162 166 176 188 192 471 576 0
108 105 106 109 110 574 578 0
-196 -7 8 26 -27 28 -142 0
-60 370 374 377 379 0
275 -8 -17 -18 -34 38 274 0
-67 25 -27 61 62 236 240 398 422 0
101 3 7 104 108 109 110 581 0
110 101 107 108 109 571 580 0
-572 -45 51 -55 343 353 373 376 378 573 0
110 -5 101 107 108 109 122 135 570 578 0
102 104 105 107 580 597 603 604 0
106 101 104 105 107 583 604 0
-104 103 105 563 571 589 597 602 0
-108 25 -27 28 -46 -103 -110 449 0
-12 -14 -34 -43 -46 -142 -150 0
-63 62 -313 384 400 405 420 -471 0
386 62 68 83 -102 -106 -313 385 405 0
-227 32 -34 38 -206 -313 -328 0
102 101 104 105 106 602 0
-86 -58 59 -82 -84 188 278 342 359 0
-2 -6 -8 -11 15 16 17 -18 -43 -46 0
-2 -7 -8 -103 104 105 106 110 561 0
-495 -55 -313 -471 -473 0
101 5 102 103 -104 105 -146 601 602 603 0
106 -6 -7 -46 104 105 570 603 0
-101 -51 52 54 59 -103 -106 145 0
-60 -45 344 346 359 374 377 591 0
-62 87 88 -313 381 391 394 395 488 0
110 101 102 103 105 106 603 0
110 101 -104 105 106 600 601 603 0
-103 4 -5 -7 82 -84 85 -102 -107 0
1 4 -5 -7 82 85 -106 -107 0
-102 4 5 -7 -84 85 -104 490 0
102 103 104 105 109 602 0
-110 6 -7 8 26 -27 28 -101 -106 0
-52 -15 -18 51 -313 -328 346 349 483 0
-4 6 -10 -34 39 271 -273 283 284 0
-104 105 563 571 578 589 597 602 0
-255 35 37 -38 -260 265 -313 0
-85 51 -55 -82 -84 -313 0
104 103 105 106 574 575 603 0
-62 -7 8 381 391 392 395 400 422 0
-60 -45 344 346 359 377 379 591 0
-85 -55 -82 -84 -101 -102 -313 0
24 21 25 26 28 216 224 0
-62 -1 -6 -46 63 381 391 0
-54 -31 -35 129 -313 -328 346 360 375 0
78 72 73 76 427 428 457 0
338 52 55 353 358 359 371 372 375 0
110 103 105 106 571 589 600 601 603 0
-102 -43 -52 81 -82 83 -101 -103 346 0
22 24 25 26 28 202 0
-2 -6 -7 102 -103 104 105 109 599 0
-150 51 55 59 60 -146 0
-578 8 -51 52 58 60 -562 0
-2 -6 -7 102 -103 104 105 598 599 0
-20 8 -11 -15 -21 -27 205 207 232 0
102 -6 -7 -37 -38 -101 103 104 105 0
561 -45 103 104 105 598 599 600 0
61 8 62 -313 398 408 411 422 0
108 103 104 105 107 598 599 0
102 103 104 105 598 599 600 0
-58 -34 -36 -38 -54 83 -84 278 498 0
-85 -34 -38 51 52 -84 -313 371 0
-1 -5 -7 -102 103 104 105 107 -561 0
-270 31 32 -34 35 -38 264 281 -324 0
-591 105 -106 110 561 578 592 593 598 0
51 -6 8 -45 54 58 354 359 371 591 0
106 101 102 105 109 600 602 604 0
107 -5 -7 -8 -45 46 101 102 105 -142 599 0
-31 5 -8 -11 -18 38 249 0
563 103 -104 105 571 597 598 602 603 0
106 -7 46 101 103 104 105 -324 0
-103 101 106 108 109 570 578 602 0
55 -7 8 51 -313 -328 346 350 353 377 0
-53 55 57 59 350 353 355 359 0
106 2 -7 103 -105 107 109 110 -221 571 0
-54 57 -328 346 360 363 0
107 101 103 109 110 571 597 0
62 8 -18 -20 61 331 398 411 422 0
-108 1 3 -7 -103 -105 -142 0
-106 1 3 -5 -103 -105 0
51 53 60 346 351 353 358 364 0
-110 -6 8 -34 35 -36 37 38 -105 0
-51 -6 -7 -21 -27 339 342 0
110 103 106 107 108 109 563 0
-103 3 -5 107 108 109 110 562 578 0
102 103 106 107 108 109 563 0
110 103 -105 107 108 561 563 571 598 603 0
-495 103 -105 106 108 -481 601 602 0
51 55 -313 -328 346 375 0
101 103 106 107 108 109 571 0
-101 -81 88 -105 -107 480 -591 0
106 105 561 578 582 583 588 589 602 603 604 0
270 31 32 -34 -38 272 -313 -328 0
570 -103 104 105 106 107 -561 0
-73 -21 -27 72 124 -313 445 446 450 0
37 -23 -30 32 38 39 254 276 578 0
-73 -27 -29 72 -103 -108 242 427 443 537 0
-32 -8 -34 150 259 262 274 0
-30 -21 -23 32 37 38 -40 276 578 0
39 -23 -30 37 38 254 262 276 578 0
-67 25 -27 62 236 240 386 398 422 0
-75 -12 -14 -83 -84 429 437 0
106 7 -103 105 108 331 -471 563 0
108 7 103 105 331 571 0
72 427 428 433 434 442 443 448 449 451 452 454 469 0
-32 37 38 -42 331 0
104 7 103 105 331 561 573 0
-72 -18 -19 -42 80 426 438 439 0
-1 7 105 108 331 -471 578 0
-43 -24 25 26 28 -489 0
110 103 104 108 109 561 596 0
-149 -141 331 0
110 101 102 104 108 109 596 0
-32 33 -34 37 38 -260 278 282 0
176 11 16 -17 -165 182 0
-1 7 101 -102 105 108 109 578 0
23 21 25 26 28 211 0
105 -1 7 103 331 563 588 603 604 0
-582 -103 107 108 109 593 597 604 0
106 103 104 105 108 109 571 602 604 0
-583 3 4 -8 -570 0
-52 336 347 349 350 351 352 0
104 -1 -5 -7 -8 103 105 -143 602 603 0
-581 11 14 -16 17 -578 0
107 -5 -7 46 103 104 105 598 599 0
102 103 104 105 107 597 0
-110 -5 8 -34 -35 36 38 -105 272 0
-59 -16 -18 -20 55 376 0
52 -7 51 55 58 353 374 0
-10 2 5 -82 83 -84 -105 -106 -107 0
-52 -102 -106 190 336 345 346 351 0
102 101 103 104 109 597 598 602 0
102 101 104 109 110 581 597 0
-103 4 -5 -7 82 87 -102 -105 0
-13 -6 -7 -16 102 103 -104 106 109 110 0
102 104 105 107 110 597 598 603 0
-1 8 -101 -102 164 -577 0
-562 -101 103 104 105 107 580 582 0
101 103 104 105 110 597 601 0
109 102 103 105 107 110 571 597 0
102 103 104 106 108 109 602 0
-471 103 107 108 109 -481 599 0
102 101 104 106 108 109 602 0
102 -5 7 -8 103 104 105 0
-586 1 -5 7 14 16 18 136 -331 0
-27 -12 -17 23 24 28 206 435 0
101 104 105 107 110 570 598 0
-62 -1 -6 -46 64 160 390 0
-55 -82 -83 -102 -105 -319 339 0
-109 1 3 -8 -103 -105 0
106 104 105 107 109 570 604 0
-108 -16 -17 -34 35 38 -105 0
-108 -26 -27 -34 35 38 -105 0
107 103 105 106 108 109 561 0
-398 61 62 -319 405 406 420 0
51 55 -319 345 348 355 375 0
107 104 105 106 570 603 604 0
107 -5 -7 -8 46 104 105 570 0
107 -15 -17 46 101 104 105 570 0
-62 381 390 396 397 405 406 407 409 410 0
-72 -319 426 435 438 439 458 0
-75 -12 -13 -63 -65 73 439 456 458 459 460 0
-72 -319 429 432 435 438 439 458 0
73 -7 -8 72 426 427 431 450 451 454 455 456 477 0
440 -72 73 426 439 450 451 456 0
-51 52 58 337 340 360 376 377 0
-106 561 562 570 586 591 598 599 600 0
58 8 -319 -331 336 337 345 348 360 374 0
-489 -24 25 28 -43 45 46 0
-73 -24 -27 311 -319 427 435 445 446 0
23 24 25 28 45 201 240 -331 0
109 104 105 561 562 570 596 604 0
24 23 25 -26 28 45 201 241 0
55 52 -331 337 338 353 374 0
110 106 107 109 -471 567 575 582 0
63 -11 16 52 53 54 62 64 162 187 0
-167 -5 -8 105 -106 135 -174 0
-328 25 28 -331 0
-110 -6 8 -24 -26 27 -105 152 225 237 0
-599 -5 8 16 18 187 196 197 0
-103 62 -101 -105 -106 -319 420 0
-13 16 17 18 178 179 0
-322 46 0
384 62 63 -319 386 387 0
-341 62 68 -319 -337 411 0
385 62 63 -319 386 387 0
-53 -51 -62 -63 -319 0
-54 -62 -63 -82 -319 0
66 61 63 67 68 -319 0
396 -54 -62 70 -82 -319 381 391 0
-54 52 -72 -73 -319 0
392 61 63 66 68 -319 0
-65 -72 -73 -75 -319 0
457 71 72 76 78 -319 0
458 72 74 -319 427 431 432 445 446 456 0
457 71 72 -319 447 450 456 461 0
441 71 73 -319 438 442 450 452 0
457 -71 73 -319 426 432 456 461 0
81 83 -319 0
408 -64 -319 381 398 405 406 0
363 -54 -319 336 337 360 371 0
189 -5 -8 -15 -34 -38 159 174 187 190 0
2 1 -5 -45 51 52 53 -55 0
-39 8 -35 -37 0
273 -4 -5 -34 -76 -77 0
409 -5 61 62 -63 67 68 -398 404 0
421 3 -5 61 -62 -63 135 392 395 422 0
137 129 -142 -439 -480 488 489 0
-66 -5 -13 -14 -63 -64 -82 0
2 -5 61 63 64 67 129 395 0
453 4 -5 -64 -66 -74 82 428 452 0
571 -2 -5 -64 -66 -104 585 587 588 0
9 -5 -141 147 149 0
-28 -6 -27 -36 -328 0
191 -6 8 -16 18 -238 0
12 11 13 14 -15 -16 0
355 8 51 -56 60 348 0
201 -6 23 24 -26 -56 -59 0
79 -6 71 72 -73 -74 76 78 80 0
378 8 55 -59 0
-57 -6 8 -56 0
378 8 -59 336 338 346 354 0
-30 -6 -10 -56 -58 0
3 4 -6 -73 -82 -83 427 443 444 445 0
369 -6 -59 147 378 0
496 71 72 73 -74 75 76 285 480 495 0
-473 -472 -481 0
136 -6 -87 -439 0
251 34 35 38 255 -328 0
246 34 38 247 255 277 -328 0
-4 -8 -16 -18 -34 0
262 31 33 -35 38 39 270 0
262 -35 37 38 249 261 270 276 0
-135 -34 -67 -69 -141 0
286 35 36 38 40 0
248 32 33 35 38 281 0
-81 34 35 36 38 -72 -73 -82 0
284 35 38 39 251 259 262 266 0
84 -4 7 -8 72 73 74 -81 0
-170 4 -8 101 105 106 107 108 -109 0
431 -18 -20 72 73 74 429 450 0
460 -18 -20 72 74 427 429 448 450 461 0
390 -18 -20 61 64 67 411 0
598 -35 -36 -46 101 102 105 -106 0
343 -55 60 -74 -75 -82 -84 354 0
284 21 -22 25 -26 35 -36 37 39 236 250 398 0
400 -23 -26 -46 61 62 399 420 0
-46 15 -17 -26 -27 0
456 -22 -26 -32 -33 71 72 74 447 0
269 -23 -26 -33 82 222 266 268 0
282 62 63 65 66 67 -84 -87 0
-365 -61 -62 67 68 -84 -338 382 411 488 0
-602 -6 8 25 28 152 236 241 242 0
-62 381 390 392 396 406 420 422 424 0
-595 -24 27 -34 -142 -150 225 237 271 0
101 104 106 107 108 109 570 0
101 104 106 108 109 110 570 0
-85 84 104 106 107 108 0
-167 3 6 101 105 107 108 109 138 -143 -150 -586 0
-471 6 -45 46 104 105 -480 0
23 24 25 27 28 201 234 235 0
-393 3 -5 104 -105 -106 107 109 110 567 0
-226 25 27 28 229 230 231 235 0
-22 -12 -20 27 28 216 231 570 0
-331 11 13 15 18 166 186 0
-331 22 23 24 25 28 0
-471 104 105 109 110 -480 0
-110 -14 15 -16 17 -34 -107 -142 -150 183 0
107 -5 -7 46 105 -471 -480 598 599 603 0
-107 12 15 -16 17 18 -104 -105 0
-101 7 -8 -51 -105 -106 341 0
-602 -6 15 -16 17 18 143 146 152 197 0
106 104 105 570 574 575 581 582 600 0
-40 -6 8 -14 15 -16 17 18 -34 -38 0
-39 -6 8 -14 15 -16 17 -34 152 192 0
-110 -6 8 -14 15 -16 17 -105 152 192 0
110 -104 105 107 561 562 588 598 0
-14 -5 -7 -8 -15 -34 271 0
27 -12 -20 24 25 28 29 209 570 0
-14 -5 -7 -8 -15 -34 -328 0
107 103 104 106 110 561 570 603 0
-68 37 -38 -61 -62 84 270 271 0
105 -5 6 -8 103 104 561 570 596 0
11 13 14 15 18 -331 0
8 6 25 -26 28 0
103 -5 6 46 105 107 331 561 0
-80 -101 -108 152 442 449 455 0
109 103 105 106 107 561 604 0
103 -26 -27 -46 105 106 107 109 561 600 0
-85 -55 84 -101 -103 360 0
-599 -5 8 -35 37 38 -331 0
103 105 107 108 110 561 598 0
-35 11 13 15 -16 -17 18 -45 166 276 278 0
-2 -8 23 24 27 -28 84 472 0
-106 14 -15 18 -103 -104 161 186 0
107 103 104 105 106 575 0
-55 8 -328 336 354 360 368 376 377 0
102 103 104 105 597 601 602 0
103 104 105 106 561 597 601 602 0
13 14 16 17 18 -21 -22 111 0
-109 8 25 29 30 -46 -104 -105 141 201 241 0
-29 -28 81 84 -103 -109 0
74 73 78 -101 -108 152 433 456 457 461 0
-432 23 25 27 -28 84 -156 201 226 0
-491 4 129 -141 -480 0
-9 2 4 -577 -590 0
54 8 55 336 337 345 372 377 0
-238 -6 8 37 38 279 -331 0
-491 -5 -8 104 105 -107 -480 603 0
-59 8 -38 278 282 285 339 347 354 0
-59 8 -38 278 282 285 339 345 364 0
-102 84 87 -105 -108 490 0
-280 7 16 18 143 187 196 197 0
-331 15 16 18 0
46 -5 6 -7 104 105 107 570 0
-61 -63 84 -101 104 105 106 108 0
-4 -5 -7 -8 -26 -28 -34 0
-491 104 105 -107 -480 601 602 0
73 -319 430 431 432 435 437 440 461 0
-342 27 29 30 84 -156 218 231 0
-29 7 -28 -38 -136 -237 -273 278 0
-491 104 105 106 108 -480 0
23 22 24 25 27 29 209 0
36 38 40 251 261 268 270 277 0
-2 8 -101 -103 209 -584 0
-24 -26 -30 -34 -107 -110 -142 -150 0
38 8 37 -46 -104 -106 -110 -142 0
271 31 -34 37 38 40 81 84 90 0
-22 -26 -28 -52 -331 347 0
-561 -62 -319 390 393 420 -564 0
-73 -12 -13 76 -104 -105 443 446 447 0
-440 25 -28 218 240 -328 -426 0
-1 -8 -28 -29 84 90 162 0
-55 8 -38 -40 60 339 345 360 0
-595 -4 6 -34 271 -273 283 284 0
-110 -7 8 -14 15 16 -17 18 -105 149 0
-109 -26 -28 -34 35 -105 -331 0
-471 104 105 109 -480 596 604 0
-226 -34 -237 270 -331 0
-359 -33 265 277 278 285 472 481 0
-71 -7 -8 73 429 430 431 477 0
-12 4 -5 -7 -13 -16 84 85 0
104 105 106 108 110 570 601 0
-13 -6 8 -16 -104 -110 152 186 191 192 0
30 -6 8 21 22 -24 25 27 37 38 218 236 -270 -331 0
101 105 107 108 109 110 570 0
101 104 105 -106 107 108 109 570 0
-270 -34 276 277 278 279 280 0
-61 -63 84 104 105 109 110 0
-56 8 51 84 -102 -104 374 0
-56 8 54 84 -101 -102 336 374 0
-56 -319 -328 336 337 345 0
-68 -58 -61 -62 84 -319 0
-24 -5 -7 -8 -25 -34 -328 0
73 72 -319 428 433 434 0
-109 -5 -7 -8 -34 36 -105 0
-51 55 336 337 338 342 377 0
-51 -8 55 336 337 338 340 375 0
-73 74 76 78 88 427 -480 481 490 0
-55 51 84 -102 -105 360 0
-219 1 -5 11 -15 17 18 186 -328 0
-55 59 339 345 360 370 0
-342 -38 267 270 285 -328 -336 0
-51 -2 -5 204 336 338 339 374 376 377 0
-51 -328 336 337 338 339 376 377 0
-61 68 384 385 386 0
-107 11 15 18 -104 -105 -331 0
-33 35 36 37 268 269 0
-261 21 24 27 28 215 219 471 488 0
-14 15 17 183 184 185 0
-489 104 106 107 108 -480 0
84 -5 18 -26 -34 0
-388 -31 72 73 250 251 278 450 451 452 0
450 72 73 426 428 431 432 438 444 451 452 456 0
-71 -61 -67 72 73 75 76 146 428 0
-73 72 -313 432 443 445 457 0
-434 -35 37 -66 -249 250 278 393 400 406 0
-74 429 432 436 443 451 452 458 0
38 36 249 261 262 277 -313 -331 0
-55 54 -319 -331 348 350 -382 -399 0
61 62 63 68 -331 406 0
-63 -24 -26 68 310 400 401 0
-444 -24 25 27 28 -43 0
-65 -55 -61 -64 -82 -84 -313 0
471 -22 25 27 28 61 63 64 215 488 0
-348 25 28 35 37 38 226 -313 -331 0
73 72 -84 -220 285 -313 433 434 450 471 495 0
73 426 433 434 436 441 442 450 452 453 0
58 25 27 28 51 -313 -331 346 354 374 0
-262 51 -52 54 345 471 488 0
-365 61 -62 -84 -360 390 -392 473 488 0
72 -61 -67 74 76 146 -313 429 0
360 -12 -15 51 -55 212 -313 351 352 0
35 -34 38 248 258 272 -313 0
-38 35 252 261 262 282 285 -313 0
75 72 76 77 -313 432 0
445 72 -313 430 432 436 450 451 452 457 0
-71 74 76 77 429 432 0
76 -72 74 -313 429 432 439 458 0
35 38 250 258 -313 -331 0
54 52 55 58 -313 -331 336 0
-74 -62 -65 72 -82 -84 -313 428 451 452 0
52 55 -313 -331 346 372 -383 0
-30 -26 52 -56 57 58 338 354 360 0
68 62 63 -331 383 411 0
444 72 -81 -88 150 -319 426 428 445 446 -450 451 452 461 0
74 75 76 77 -81 -88 150 440 0
-432 36 -38 83 -157 267 272 278 0
-384 -55 -313 360 -381 0
-65 -55 59 -62 -70 -81 -82 360 0
-37 23 24 25 -28 -38 45 46 201 0
52 51 56 58 -331 353 0
-360 83 -84 -339 -370 486 0
-51 -3 -5 249 -313 336 340 341 342 0
450 -313 426 432 436 440 445 446 451 452 456 457 461 0
-261 -62 81 381 390 391 480 488 0
-382 -61 63 64 -313 387 401 411 0
-339 51 -55 -313 336 338 0
-72 -313 429 432 436 438 439 458 0
-339 51 -55 57 338 340 342 354 0
53 51 52 63 -64 65 66 67 83 381 471 0
-58 -37 -38 -54 -84 87 278 480 495 0
53 -6 8 51 54 58 336 374 377 0
-73 -319 432 435 444 445 446 0
-72 -313 429 432 436 438 439 440 0
64 62 63 68 -331 384 0
-85 -55 -81 -84 354 -471 0
-237 25 28 207 215 228 -331 0
-33 35 36 266 268 269 0
-383 72 73 -74 76 77 -313 -384 0
-375 -58 -331 342 346 356 0
58 55 -313 -331 340 346 0
51 55 58 -313 -331 346 0
56 51 55 -58 -313 -331 346 0
52 51 -53 55 56 -319 -331 0
2 1 4 -6 -26 -27 -81 83 -84 85 86 0
-54 -34 -38 -58 -84 87 88 278 480 0
-62 63 389 391 394 395 396 411 0
374 51 53 59 346 -372 377 0
-62 51 -58 83 -313 381 391 394 411 0
61 62 -319 -331 400 402 405 0
-226 24 25 -26 28 45 203 211 241 0
-11 16 18 161 163 164 0
-51 52 58 -331 337 338 340 0
-62 -331 381 390 391 392 393 0
-73 76 -319 427 437 440 443 445 446 458 0
64 61 63 66 -331 413 0
-74 -383 -387 436 443 456 457 461 0
-339 51 -55 -331 336 340 342 353 0
62 61 63 -331 398 405 -411 0
392 61 -62 63 64 67 -411 0
384 62 63 64 67 -411 0
21 23 24 25 -26 28 45 241 0
-395 35 36 -38 -313 -331 -381 0
-65 -55 -62 -64 -81 82 0
58 8 51 -331 345 346 353 374 0
-187 14 16 18 169 176 -331 0
52 51 55 56 -331 353 0
63 62 64 66 -331 387 0
63 7 62 64 -331 340 387 0
-54 -51 -58 62 63 -331 391 411 0
-72 426 435 438 439 440 450 452 0
63 64 66 -331 381 384 392 0
-62 -331 381 392 393 395 0
63 62 64 66 -331 413 0
63 7 62 64 -331 340 413 0
-72 -1 -5 -63 -66 -319 426 437 438 439 0
52 56 57 58 59 60 353 0
-257 -35 259 261 262 276 278 0
-68 51 52 56 57 -58 -63 -83 -84 0
-74 75 -319 436 443 451 452 0
104 -5 6 -7 -8 46 105 -480 -491 603 0
106 -5 -7 -8 46 105 561 562 578 581 587 603 604 0
342 -51 55 -331 340 353 0
587 103 106 561 588 591 593 594 595 600 605 0
-106 105 561 580 586 596 597 605 0
-105 103 106 564 571 592 593 594 0
-22 -26 -28 51 55 -331 353 0
107 105 106 562 563 603 604 605 0
107 105 106 570 571 578 603 604 0
-215 51 -237 -313 -331 337 360 0
-563 -488 493 494 -561 0
-561 -104 106 107 108 109 -488 493 494 0
-561 -104 105 106 -488 493 494 601 604 0
-490 14 16 18 -331 -488 0
-110 7 16 18 46 -102 -106 143 -331 0
108 -104 105 107 109 110 -488 493 494 0
73 72 80 433 452 453 456 0
-63 62 -331 398 399 400 402 0
103 7 104 105 106 561 601 0
-105 -34 38 -106 -107 -331 0
-578 -103 104 106 107 108 109 -471 0
108 101 103 105 106 109 602 0
108 101 105 106 109 570 602 0
103 101 102 -104 105 106 601 602 0
108 101 105 106 110 570 601 0
-236 25 -26 27 206 214 226 237 0
-55 -43 -45 51 225 336 346 546 591 0
-82 -84 -85 -101 -102 -313 336 353 371 372 375 0
108 7 46 101 105 106 331 570 0
108 7 101 -104 105 106 331 602 0
21 23 24 25 27 216 226 239 0
-271 21 23 25 -26 28 -272 0
-73 4 7 72 75 -313 427 0
52 -313 338 339 353 360 371 372 375 0
51 60 345 346 351 353 358 364 0
28 23 24 25 27 29 209 236 0
-402 62 -68 382 398 403 404 0
-57 -17 -19 -42 341 353 376 377 0
29 23 24 25 28 30 206 0
-12 15 16 18 -22 -30 171 570 0
-46 89 90 104 105 106 108 109 0
-604 15 16 18 35 36 38 0
23 -11 -13 24 25 27 28 -82 -84 0
-46 15 18 35 -36 38 0
-27 25 28 206 221 227 241 242 0
-56 51 -63 -66 231 -328 361 0
-421 15 16 18 35 36 38 0
-422 15 16 18 35 36 38 0
-53 -26 -29 -43 -45 51 225 -313 375 0
-59 15 16 18 -45 373 378 546 0
561 -5 -7 -8 103 104 105 106 0
-60 344 352 359 360 374 375 0
-51 -31 -35 53 129 336 343 344 0
61 2 -5 -82 -84 135 -313 393 398 420 -481 -495 0
392 -313 382 386 387 391 393 400 405 406 411 420 0
-498 4 -7 16 18 -84 182 -324 0
62 -84 -85 -101 -104 -313 385 391 405 406 420 0
51 83 -84 -85 -313 371 372 375 0
-62 -43 -102 -103 390 391 392 393 396 420 0
420 62 -313 383 384 385 405 406 0
-62 63 -84 -85 -102 -104 381 391 393 420 0
102 -7 101 104 105 -106 108 331 601 0
103 -26 -28 -46 101 104 105 108 571 604 0
64 62 -313 384 385 420 0
-62 51 -58 63 83 -313 381 391 411 421 422 0
-53 -26 -29 -43 -45 225 -313 337 375 0
-496 1 -7 -8 138 -142 -150 -488 0
-432 29 30 218 231 232 236 -426 0
-101 -105 -107 -471 480 488 496 498 0
57 51 55 -313 346 353 372 0
-442 35 37 -38 258 -260 471 488 0
375 51 55 -313 346 371 372 0
-375 32 -38 -273 278 282 -313 -341 0
-55 51 59 -82 -84 -102 -105 359 0
58 54 55 -313 341 348 349 0
103 104 106 108 109 561 602 0
-85 -82 -84 104 -105 106 108 109 -473 602 0
31 32 33 35 36 277 286 287 0
-59 25 27 28 343 351 353 376 378 0
-73 -2 -7 206 443 445 446 447 448 449 0
-561 89 90 -103 104 105 106 602 0
-62 381 390 391 393 394 397 423 0
-51 -5 -8 55 -313 336 338 371 377 475 0
61 -23 -26 -46 62 -313 0
-51 -82 -84 -101 -102 -313 -328 336 341 342 0
363 51 -54 56 59 345 365 -375 379 0
-422 8 31 32 33 35 36 277 0
-51 55 -328 336 337 338 376 377 0
72 73 -104 -108 287 428 433 434 449 454 0
51 -38 -40 53 -313 346 373 374 376 377 0
-23 -26 -28 -104 105 106 108 110 0
-39 -38 83 -84 -104 -109 471 544 0
26 24 25 28 216 217 221 0
-31 34 35 246 247 250 285 0
371 59 60 336 337 345 360 372 375 0
68 67 384 385 386 390 391 398 411 0
-253 -31 38 39 251 283 0
-29 -6 -9 -36 -38 234 241 0
-54 338 360 362 363 364 365 0
72 -319 429 432 435 445 446 458 461 0
-27 201 221 227 232 236 241 242 0
38 32 37 247 270 -328 0
-67 -319 386 394 401 0
-51 -8 -45 -135 336 337 338 340 375 0
83 -42 -52 56 57 357 0
-35 36 -276 278 331 0
-52 55 -328 336 346 350 354 356 375 0
-319 72 73 426 432 456 457 461 0
-36 143 276 282 -328 0
345 56 59 60 341 342 346 353 0
-24 -14 -17 25 227 -324 -328 0
-72 -14 -17 304 -319 426 435 440 461 0
-71 -5 -7 -11 -17 -81 88 116 341 427 428 432 475 480 0
23 24 25 26 27 -28 34 36 37 -38 278 0
-73 72 76 -313 432 444 446 0
360 52 -313 -328 341 342 346 375 0
-61 384 386 387 393 400 406 0
183 11 15 17 -173 -328 0
214 21 24 25 28 -328 0
-21 -7 -8 -23 -27 -81 -82 138 -177 427 0
-37 33 35 251 259 285 -328 0
-73 -12 -16 -18 -84 -87 427 440 444 446 448 449 0
33 34 38 246 277 -328 0
-54 -319 338 360 371 372 375 0
-219 -23 25 28 231 234 235 0
-106 -7 -8 -35 -37 561 562 591 596 599 0
480 -83 -319 472 0
-550 -55 81 83 -85 354 0
26 -201 206 215 218 240 -324 0
38 251 259 -313 -324 -328 0
25 26 208 209 216 217 218 240 0
-15 186 187 188 -324 0
-5 -8 -25 -150 231 234 235 331 0
-14 -7 -8 -34 -35 -38 0
17 11 16 177 183 -324 0
34 33 35 246 277 285 -328 0
-24 25 26 -27 -34 -324 -328 0
74 -18 -20 72 73 76 457 0
83 -201 -324 -328 0
-11 -8 15 -21 -26 -27 0
-313 -33 277 278 285 -328 0
31 32 34 38 -324 -328 0
-3 -7 -8 -23 26 -324 0
-278 35 37 -38 276 279 280 0
206 23 26 28 -201 215 221 240 -324 0
-57 25 26 28 341 349 353 377 0
206 24 25 -27 28 -201 -328 0
-143 105 -106 -150 561 578 596 599 0
-16 -324 -328 0
-201 -324 -328 0
-62 -55 -81 -82 -319 354 381 390 393 420 0
-62 -319 381 390 393 394 395 0
61 62 66 -319 394 401 413 0
52 51 -319 -328 356 357 0
-62 -51 54 -55 56 57 58 61 -81 -82 336 391 393 420 0
63 61 67 -319 392 394 395 0
-81 -8 -11 -18 138 471 0
-54 51 56 58 362 364 365 0
-62 65 393 394 395 0
-268 52 56 57 58 342 360 472 481 0
377 -51 52 55 -328 -472 -488 0
375 52 -328 -472 -488 -495 0
372 -56 -84 -85 -328 340 371 0
33 32 34 35 37 -328 0
182 11 15 -17 18 165 -328 0
337 52 57 58 -328 360 0
53 52 54 57 58 -328 0
375 52 53 54 55 -328 0
376 52 53 54 58 -328 377 0
246 34 247 255 277 278 285 -328 0
166 11 13 15 17 -328 0
346 55 57 58 -328 0
266 34 -37 38 -57 -59 246 0
269 34 38 39 251 255 262 276 0
-81 34 36 37 38 -52 -53 -82 0
162 -11 16 17 -31 38 281 -388 0
286 31 38 255 270 271 273 276 287 0
385 -61 384 386 387 0
194 -16 18 -35 -36 -106 -110 0
232 -16 -20 -27 -43 -53 -56 -57 0
-40 -38 52 53 54 -58 0
267 34 -38 252 260 0
267 32 34 -38 252 0
-402 32 34 -38 -382 0
273 -23 -28 -38 252 260 488 0
24 21 22 25 26 45 46 0
228 21 23 25 29 30 -215 237 0
56 52 57 58 -83 -84 -101 -103 0
573 -64 -66 -83 -84 -106 591 598 0
-39 -36 61 62 63 -104 -107 0
410 -27 -29 -43 62 -67 386 0
403 -61 62 67 68 70 385 405 0
410 62 -70 381 389 390 391 404 0
193 8 18 -45 164 165 166 173 196 0
377 8 53 54 55 56 58 0
196 16 -17 -22 -28 -62 63 -67 187 381 391 0
24 21 22 23 26 0
77 72 75 76 78 0
72 74 76 -313 432 457 0
22 21 24 25 27 232 240 -328 0
-51 -1 -5 57 159 -328 339 342 0
34 31 33 35 38 -328 0
23 24 25 27 201 240 -328 0
-106 105 -471 596 597 598 599 0
-324 -11 -18 -328 0
-67 -7 8 62 382 390 407 422 0
-52 59 336 345 346 347 374 375 0
8 61 63 68 331 391 411 422 0
-278 35 37 -38 282 -324 0
-73 430 435 443 444 446 447 0
-240 25 -28 206 214 218 235 236 239 241 242 0
30 -6 -7 -12 -18 21 25 29 147 218 480 0
-106 480 481 -496 561 591 599 600 601 603 0
-23 -28 -83 89 267 471 487 0
186 6 -7 -16 18 -26 -46 0
-38 -16 -26 28 -35 -46 0
-73 74 432 435 445 448 449 457 0
345 51 54 58 -319 -328 376 377 0
-78 71 72 80 451 452 458 468 0
-75 -12 -13 -85 429 437 450 0
-37 34 251 255 285 -331 0
-77 -5 -6 -34 38 -75 -331 0
-35 31 38 257 264 276 -331 0
-62 -1 -6 -46 160 390 391 0
105 5 -7 -46 103 570 571 573 586 0
-105 -6 -7 -46 103 572 585 591 0
-195 45 -188 331 0
25 21 24 26 28 221 0
-25 21 24 26 28 219 232 0
64 -62 63 68 386 388 397 411 421 422 0
27 25 26 -35 -38 -45 0
-25 -6 -7 -35 -278 -324 0
16 11 166 174 177 187 188 195 196 197 0
-28 25 29 30 -46 215 222 228 0
-29 -7 8 15 16 -18 -27 -28 0
-23 26 27 29 219 224 0
-18 15 -82 -87 195 198 199 395 0
-75 -51 -55 72 73 -74 83 354 -471 0
-31 5 -8 35 -51 -56 0
-336 -51 52 53 -313 351 352 0
71 73 74 76 441 460 469 0
27 21 25 26 223 228 240 244 -328 0
396 -62 381 390 392 397 406 420 0
-135 -34 -141 -142 -143 0
-51 52 55 -313 338 341 342 0
-267 35 37 -38 265 -313 0
105 5 -8 45 103 331 561 563 571 603 0
340 -51 55 342 -371 0
-53 -313 337 345 353 0
-17 11 15 20 176 182 195 196 0
-18 -27 -28 -37 -39 188 192 199 0
62 -28 -30 61 63 70 411 421 422 0
-16 160 165 181 186 -328 0
25 26 28 241 242 -328 0
-35 -23 -25 31 257 270 276 353 0
-450 15 18 160 -331 -443 0
-77 -6 -12 -13 -73 -82 -83 136 0
-198 7 -34 143 -183 -192 271 272 0
-30 -28 -68 -78 390 408 440 447 0
-68 387 395 408 423 424 0
257 31 -35 38 -255 276 -331 0
-37 6 -276 -331 0
488 5 -83 85 130 136 483 0
480 1 4 -5 -7 -65 -66 -83 497 0
-3 -7 45 46 71 72 73 -74 0
-23 28 219 220 -331 0
26 27 28 209 216 217 218 223 229 0
34 -7 8 31 36 39 40 255 0
51 52 -313 -328 360 363 0
53 52 56 58 59 60 360 0
-13 17 175 177 -324 0
-21 25 206 208 209 237 0
211 21 23 25 27 237 0
26 25 28 216 217 221 227 0
104 102 103 106 107 564 603 0
-26 -7 8 15 16 17 22 23 27 -28 29 228 0
90 56 57 58 -59 81 83 354 0
23 21 24 26 28 -331 0
-38 -8 40 150 285 288 0
26 25 27 207 216 217 218 -331 0
33 31 36 37 40 261 270 0
63 7 -54 -56 62 -331 340 387 405 0
54 8 52 336 337 345 368 374 377 0
-61 63 68 381 386 388 389 405 0
-22 25 26 214 215 0
110 101 104 105 106 108 570 0
-52 -31 -33 59 -81 336 346 347 374 375 0
52 57 59 -331 337 338 353 370 374 0
-52 -313 -331 336 346 347 348 349 0
-55 52 59 -82 -84 -102 -105 337 370 0
15 11 12 18 175 -331 0
-25 -33 -35 201 225 231 233 -331 353 0
-72 -53 -58 -82 -83 -319 426 437 438 0
393 -58 63 84 -319 -381 384 386 420 0
-11 -5 -6 -31 38 159 161 162 -331 0
-80 73 -319 434 460 461 469 0
-13 -82 -84 174 175 260 -331 0
16 13 15 161 162 183 -331 0
-69 3 4 -8 -68 -82 -83 -89 0
25 -7 -16 -19 -56 -58 239 244 -331 0
-72 -43 -102 -103 426 435 436 441 0
34 246 276 278 282 -313 -331 0
-11 -6 -8 -51 -56 159 161 0
-102 101 572 573 574 575 576 0
-102 101 106 570 571 572 574 0
252 -38 260 267 270 271 -331 0
-225 -24 25 236 237 240 -324 0
-102 -105 108 110 562 563 573 574 578 594 0
-38 34 35 -255 260 281 288 289 0
-58 -12 -14 -83 -84 342 350 374 375 0
34 -6 -7 8 32 33 39 40 0
-348 25 -26 218 236 237 -336 0
-152 53 54 58 -60 -146 336 0
-61 381 386 387 388 389 399 406 411 0
-11 160 162 163 187 190 194 197 0
-11 6 16 -21 -25 162 0
79 72 74 80 427 0
-80 -58 -78 342 350 353 0
-270 -34 35 278 -324 0
-411 61 63 64 87 88 420 488 0
-74 78 -319 428 450 451 0
-39 246 268 274 279 286 288 0
-201 -51 53 59 60 -215 360 371 0
67 61 63 65 68 -319 400 0
15 -7 16 -67 -69 198 199 0
106 103 105 -115 -146 563 589 590 0
40 35 37 39 282 0
243 27 -28 30 201 219 220 225 237 0
-72 -18 -20 71 74 426 435 438 457 0
-29 24 27 208 223 238 243 0
-492 11 15 -17 18 19 158 194 -488 0
-58 -18 -20 54 57 342 350 0
-78 -18 -20 72 74 432 0
66 -18 -20 63 65 67 387 0
-28 26 207 215 222 233 240 -328 0
-379 -30 235 242 -372 0
-168 5 -6 83 -84 -87 -166 0
-26 5 -12 -14 -23 85 481 490 0
-61 5 381 383 387 399 400 411 431 0
8 -67 -69 331 0
11 166 175 176 177 191 192 195 -324 0
12 13 14 16 18 195 -324 0
-63 -53 -56 231 399 401 402 0
-57 -37 -40 341 349 356 0
17 18 160 162 165 181 -324 0
-56 -34 -36 -54 61 62 63 67 276 -313 0
-282 35 36 252 258 265 278 283 284 -285 0
-398 61 63 -64 -313 391 0
-18 15 162 165 183 192 195 0
-422 8 11 15 16 -17 165 183 189 190 0
8 -6 -7 -25 -26 0
-398 61 63 -64 -313 0
-67 383 394 401 421 422 0
62 64 -331 387 401 403 404 411 0
-51 -313 -331 336 338 340 342 0
233 21 -25 212 221 234 235 480 0
167 11 -15 16 18 -165 -331 0
-331 35 38 -328 0
25 8 22 -26 -46 207 228 0
-72 426 435 440 441 442 456 457 461 0
-36 34 -35 38 255 258 265 -328 0
-28 -8 -26 -35 -36 0
62 67 -313 385 387 405 406 420 0
61 62 65 -313 406 420 0
-26 5 21 22 25 237 240 480 496 0
-331 62 64 -313 387 411 0
62 67 -313 383 384 387 405 406 0
-106 105 563 567 570 588 596 598 599 0
-427 72 74 -313 426 428 429 445 446 0
101 104 105 106 109 570 0
-386 -61 64 394 401 421 422 0
65 62 64 67 68 -313 386 0
-54 57 338 346 353 360 363 0
408 -5 61 62 67 -313 383 387 411 0
-88 7 46 -81 -84 105 331 570 0
-488 16 18 159 161 180 187 -498 0
-26 7 86 213 226 -328 480 495 0
64 62 -71 -77 146 -313 383 384 387 0
75 -1 7 71 73 78 0
61 62 -313 391 400 405 407 408 420 0
-18 162 177 183 188 195 -328 0
-51 -5 -8 -46 339 341 475 0
-8 -5 -81 88 150 342 387 480 495 0
-18 162 170 177 182 188 192 -328 0
-61 62 65 -313 383 386 387 0
67 -37 -38 62 63 -64 65 282 383 -406 480 495 0
-151 8 -238 0
-26 8 -25 46 0
363 -54 55 57 -372 0
106 101 109 110 570 587 588 600 0
21 22 24 26 221 -324 0
14 11 13 16 18 -324 0
65 62 64 66 67 69 -313 0
-104 105 109 563 586 587 604 0
-105 101 563 572 578 592 593 594 595 0
-102 4 -5 -7 -84 85 87 -104 0
-54 360 361 362 363 0
37 32 34 35 -313 -328 0
408 -64 65 66 -420 0
-328 35 36 -38 281 -282 0
73 71 75 77 78 428 441 442 0
-11 -6 -7 -31 -36 162 -324 0
-15 -7 8 11 46 147 166 177 0
-341 -51 338 349 356 376 377 0
-375 32 33 -35 38 -45 -342 0
-336 -51 52 338 345 351 352 0
-15 6 11 85 87 167 180 480 0
-21 27 204 207 -328 0
8 -35 38 46 331 0
-443 72 73 -74 -313 428 0
-276 -35 36 -150 331 0
-106 -6 -7 -8 101 103 573 586 602 0
-473 81 83 -84 478 479 0
73 -68 -69 71 75 77 436 456 0
-338 51 52 -54 56 341 342 354 0
-62 381 390 396 397 405 406 420 0
-27 28 206 214 218 241 242 0
-11 161 162 164 186 189 193 0
-37 -22 -23 -27 36 -38 39 40 252 270 443 0
-374 15 18 31 35 -36 161 176 182 191 255 271 285 0
174 11 16 17 159 -165 180 -188 0
-374 7 31 35 -36 143 255 271 285 0
-240 23 24 26 27 -28 201 -331 0
24 21 25 28 210 -331 0
360 8 51 -55 58 60 345 0
84 3 -5 6 -12 -14 491 0
-68 62 387 398 423 424 0
-377 -10 143 0
-239 -10 0
-58 15 16 -18 195 342 346 357 379 0
-24 -5 7 -34 -36 -273 -282 0
-440 -14 -15 -18 -82 84 87 88 0
-452 -87 -443 0
350 -52 55 -331 -372 0
-59 -28 -30 343 345 360 373 376 0
267 34 -38 -45 251 260 282 0
33 32 34 35 36 251 0
-28 21 23 29 215 228 240 0
59 54 60 336 337 348 350 356 0
-143 31 32 33 37 -141 0
-73 4 7 84 130 -319 432 444 -480 0
-226 15 17 18 160 -218 0
-24 26 228 229 232 235 242 0
-578 104 105 109 110 -471 598 601 0
-4 -7 -8 -24 26 -324 0
28 26 232 241 242 -324 0
-585 11 15 16 195 -579 0
11 12 15 16 17 179 184 195 0
-24 6 -8 -35 -36 229 230 233 0
108 102 105 106 578 581 587 0
-43 6 -8 -24 -35 -36 233 -489 0
-142 -35 -45 -324 -471 0
63 61 62 405 406 407 0
-72 426 435 436 438 441 457 469 0
15 12 16 162 176 184 185 195 0
-18 11 14 15 -35 -38 -45 165 191 0
54 -6 -7 -11 -17 59 60 342 345 0
270 -34 252 260 267 271 -331 0
-54 -3 -5 -45 55 249 362 372 375 0
-57 -17 -20 51 52 54 0
-40 -38 71 72 73 -78 0
-382 -33 37 38 72 -73 82 276 0
-57 -6 -17 -18 -56 0
13 11 14 16 18 -36 -37 -46 191 0
-106 7 108 109 331 573 580 586 0
-595 105 106 107 108 109 -577 579 585 0
-106 7 103 108 109 331 573 586 0
-357 -24 -26 -28 -83 84 86 88 0
-233 25 -28 231 232 234 235 0
-58 11 12 14 16 17 -18 -59 0
-18 -37 -38 45 46 188 192 0
-18 -84 162 183 188 192 260 -331 0
13 1 3 -6 15 18 160 -331 0
-34 38 -56 -58 -65 -68 270 -331 0
76 71 72 75 77 444 447 0
-269 51 52 54 82 353 472 0
-63 -83 -87 237 382 390 398 401 411 0
-70 -1 -6 -46 389 398 411 422 424 0
-40 -5 8 -21 25 -31 -35 38 -46 237 240 0
11 12 13 17 183 -328 0
34 -22 -23 31 35 36 37 -83 0
374 -6 -7 8 55 336 342 350 353 377 0
-34 35 271 273 286 287 0
-6 2 4 115 130 0
-58 60 342 350 353 378 0
-37 38 277 281 286 287 0
-68 -5 -7 -8 -61 -81 84 85 147 0
-249 -35 37 250 252 253 254 0
-16 -4 -6 -7 -8 -34 -35 160 165 181 0
-175 -3 -186 0
-72 -55 84 -313 -319 440 461 -471 0
-38 35 252 260 282 285 -313 0
79 72 73 427 428 434 449 455 0
270 -34 38 -276 -331 0
-23 -26 -27 86 -227 480 0
-31 7 -11 -16 250 252 -331 0
7 -5 147 148 149 0
68 61 -62 65 -313 -331 391 0
7 -51 -56 385 0
-34 33 248 256 273 274 275 276 0
-56 8 51 348 353 374 0
-278 -35 38 -42 252 273 282 285 0
25 24 28 201 220 240 -331 0
12 11 15 16 173 196 199 0
-239 5 8 -13 18 -146 -220 0
-23 -3 -7 -8 -16 -18 -324 0
-12 4 7 -13 -17 85 -480 488 0
-436 -72 73 74 428 454 455 0
-130 7 -13 18 -480 0
8 -35 38 -324 0
-18 11 15 16 -32 -38 195 481 488 0
-13 5 -7 8 -17 18 -23 25 26 -28 -45 0
5 -142 -324 0
-492 -7 15 16 18 161 -480 0
-46 15 17 25 -26 27 0
46 16 -17 45 -142 0
-331 -7 16 -17 187 0
-191 16 -17 18 -328 0
-371 -56 341 348 361 376 377 0
-420 -68 -331 386 390 407 0
173 11 17 -82 -83 167 187 188 215 -328 0
142 4 -7 45 -82 85 132 481 490 0
-104 563 585 586 587 588 589 0
-34 -4 -5 -7 -8 271 0
-105 -6 -7 -46 572 579 585 591 0
-238 -6 8 37 38 -213 -257 -331 0
-4 5 -8 -15 -16 -34 0
-313 -300 0
283 32 36 -38 250 265 -282 0
546 -45 51 52 54 -55 591 0
377 8 -46 51 54 -55 58 336 354 0
-20 -18 51 52 54 -58 0
-20 -18 51 54 -58 345 0
411 51 -58 60 61 62 -63 67 82 0
374 -12 -14 51 52 -83 -84 375 0
374 51 52 53 55 375 0
376 51 52 54 -57 377 0
357 51 52 56 57 353 360 0
355 51 52 54 356 357 0
356 51 52 54 56 357 0
356 -27 -30 51 52 -57 0
-217 51 -52 54 471 -480 488 0
374 51 -56 57 58 59 347 354 0
377 51 55 56 58 59 0
357 51 54 55 56 57 0
374 51 53 54 55 58 0
377 -27 -29 -43 51 -57 346 0
367 51 -54 56 58 59 365 0
368 51 54 56 57 354 357 0
357 51 57 59 60 345 346 354 0
180 11 -15 16 17 -18 -52 -58 -59 0
19 8 13 -15 17 20 46 167 180 0
408 -12 -15 -64 67 -83 -84 405 0
147 -15 16 18 -45 0
189 12 -15 18 159 180 190 0
571 7 -13 -15 103 -104 585 588 0
204 7 -25 -34 -36 215 219 241 242 0
204 -25 28 29 30 -201 218 0
204 23 24 -25 27 -201 0
212 -25 204 219 225 232 0
-472 -55 -62 -64 -85 -480 0
473 -54 -55 -59 61 63 -65 83 0
421 -52 -53 -55 61 64 68 422 0
-81 -55 -63 -64 -65 0
400 -63 67 68 -103 -105 0
324 -55 -60 102 103 -106 565 586 0
571 -12 -13 -53 -55 -104 586 587 588 0
415 62 388 400 409 410 421 422 423 424 -473 -488 0
56 52 57 58 -472 -488 0
70 61 69 -480 -488 0
-473 -480 -488 0
239 -26 213 219 225 236 237 238 0
398 -18 -20 61 62 67 411 0
196 12 13 14 15 16 197 0
170 11 15 16 -18 -165 195 0
429 -18 -20 72 73 74 461 0
269 31 32 34 35 37 268 0
251 32 34 -37 -247 0
260 34 35 39 40 252 281 0
269 32 34 35 39 252 255 281 0
266 31 35 -37 45 46 259 281 0
269 35 37 39 254 262 282 0
269 31 32 35 36 37 268 0
289 31 33 36 39 251 259 270 0
-374 32 33 34 35 -36 -146 0
40 34 35 37 39 -51 -52 -81 -83 0
258 35 37 39 40 250 271 0
421 -62 381 391 395 399 400 411 422 0
253 -17 -19 -39 -52 -57 268 288 0
341 52 54 56 72 -73 82 -337 342 0
371 52 59 60 353 354 360 372 375 0
339 52 53 59 60 342 371 0
572 15 16 18 19 -42 161 165 0
167 11 13 17 18 166 180 0
280 31 34 36 255 277 279 286 287 0
260 33 34 246 252 276 277 281 0
232 21 24 26 28 -72 81 -82 426 435 480 0
427 -28 -30 72 74 75 432 461 0
231 -28 -68 -69 207 215 218 240 0
141 -51 -56 -61 382 384 386 387 0
57 -46 55 58 0
406 -64 67 68 405 0
446 -73 427 438 443 444 447 456 0
-79 11 13 14 15 16 -78 0
-43 -11 -19 -52 59 -102 -103 -110 0
24 22 23 26 27 -45 0
114 7 -65 -66 -83 88 480 0
84 -12 -18 215 0
129 -3 86 480 495 0
-65 64 384 399 414 415 0
84 -5 -26 -34 -142 -143 162 173 192 215 0
21 22 24 26 28 30 222 241 0
22 8 23 24 -25 26 28 241 0
105 104 106 561 581 583 589 602 603 604 0
38 34 36 37 246 -313 0
34 31 33 36 37 39 262 0
355 -56 -319 340 -345 0
17 11 14 16 -22 -23 255 -324 0
-60 344 352 354 359 360 374 379 0
249 32 37 38 -247 -328 0
-495 8 11 15 -26 -28 -46 -488 0
-59 31 32 33 35 -36 37 -56 0
-107 105 570 587 596 600 601 602 0
16 -7 -8 15 -34 -38 163 164 165 0
-26 21 30 213 218 237 238 0
-74 -62 -64 432 450 451 452 0
-78 31 34 35 -38 -79 255 281 0
-72 -1 -7 45 46 161 435 436 0
25 21 26 -82 -83 170 206 218 -331 0
-181 -34 -192 270 -331 0
-72 -1 6 45 46 -64 -66 161 435 0
-72 -1 -7 45 46 161 437 438 439 0
-5 2 -62 67 68 129 390 -411 0
-55 -12 -14 59 -83 -84 344 347 0
30 26 207 215 218 225 231 232 234 241 0
-55 -51 -53 -75 83 -319 0
61 -53 -56 62 231 -319 399 420 0
-15 16 159 165 180 187 189 190 0
432 -71 73 76 79 80 450 452 457 0
16 17 19 20 187 188 0
-481 51 59 60 -480 0
21 22 24 26 29 30 232 0
185 11 12 15 17 19 175 0
-25 -45 51 52 53 201 225 0
278 37 -38 39 40 -54 -58 83 85 498 0
-28 26 -82 -83 170 207 222 233 240 0
-43 -24 25 236 237 240 534 579 0
-78 432 440 447 453 0
-78 72 432 447 453 0
451 71 72 -74 75 77 80 427 468 0
78 72 77 80 427 448 454 456 0
16 11 15 165 183 -331 0
16 11 15 -68 -69 165 182 -331 0
-21 -5 -7 -9 25 30 -31 -35 237 0
-73 7 72 135 427 444 447 0
-67 62 -331 381 382 383 398 0
-449 51 52 59 -443 0
-64 -54 -56 62 63 67 276 383 408 0
-14 20 180 181 182 184 0
17 14 15 19 20 168 175 0
-38 -31 -33 62 64 411 421 422 0
19 11 -15 16 20 165 166 173 187 0
-21 -5 -7 -31 -35 205 207 0
66 62 67 68 382 383 398 0
-3 -5 -6 -31 38 286 287 -473 0
-75 72 434 444 450 459 0
-68 -58 -59 62 382 383 398 0
-19 -5 -7 -9 -28 30 -46 0
-344 51 52 59 337 338 353 0
-428 -426 -472 0
-161 15 16 -17 19 162 164 0
60 -6 8 51 -52 58 345 360 375 0
181 11 15 18 -173 -331 0
-396 61 64 69 -313 0
216 21 25 30 207 218 220 226 240 241 0
-216 -32 38 251 259 266 276 471 488 0
-62 381 391 396 397 399 400 420 0
-186 15 -16 18 -324 0
77 73 75 78 441 442 451 0
71 73 78 -319 441 442 450 451 0
-64 -319 386 387 391 398 406 420 0
-51 7 -331 336 337 342 360 385 0
27 25 26 201 222 228 -328 0
68 3 -5 61 -63 67 -319 -480 0
-61 67 383 384 385 388 389 402 0
-142 5 114 124 129 135 0
450 71 72 -74 76 77 432 447 0
-142 8 23 -25 28 201 225 0
-267 -46 -53 55 -285 0
-193 7 35 38 147 281 -331 0
-22 -12 -16 25 215 -331 390 0
481 -7 -12 -15 -16 85 0
-218 71 72 73 -74 76 285 480 496 0
-14 -4 -15 -16 0
37 31 33 36 39 40 257 276 0
-328 15 -16 -141 -331 0
-137 45 46 71 72 73 -75 0
-53 -52 -63 -66 231 -331 354 357 0
-85 489 495 0
-281 -7 31 34 -38 46 255 285 0
88 4 -5 -64 -66 -68 -84 85 282 0
-3 -7 45 46 72 73 -74 251 0
489 4 -7 -12 -16 86 129 -480 488 0
-227 45 46 71 72 73 -75 0
29 21 23 25 27 30 215 225 0
83 -1 -5 -7 495 497 0
-35 21 -25 26 27 28 31 -34 38 272 276 353 0
488 -22 -72 81 214 215 231 426 435 436 480 0
228 21 22 25 -28 -218 240 0
-74 -72 85 440 450 451 490 492 0
-480 4 -7 -84 -492 0
-28 -22 -23 -83 -255 0
6 143 -331 0
-328 143 -331 0
-5 114 122 129 135 0
-79 11 14 16 17 -18 -78 165 0
-86 483 490 0
-86 -15 -18 350 490 0
71 25 26 27 -72 74 81 84 -215 435 471 488 0
-73 -5 -6 -12 -15 435 444 447 0
-86 490 496 0
84 3 4 -7 -146 482 483 0
-349 -52 -331 341 345 346 0
-36 -23 -26 31 38 258 276 -331 398 0
480 -5 -7 -23 -25 85 497 0
-38 246 247 255 273 278 282 285 0
-16 167 174 180 191 192 193 194 195 0
-60 58 370 374 377 0
16 11 20 169 173 187 188 189 198 0
-12 -16 -17 84 86 -181 0
-75 73 74 -319 437 -450 0
-240 25 26 -28 206 215 221 227 0
28 25 26 206 216 217 218 0
220 21 24 25 -26 215 -331 0
165 8 18 46 159 160 180 181 -331 0
-73 -24 -27 72 311 432 443 445 446 0
-78 72 73 -84 -88 285 432 0
-23 -3 -5 -27 28 -331 0
29 27 28 30 201 219 225 0
-56 27 28 -59 201 219 225 0
-58 -68 -70 336 357 363 0
433 72 73 75 76 453 455 469 0
-18 -84 162 183 188 195 198 199 260 0
-18 8 17 46 162 177 180 183 198 199 0
-106 105 565 570 571 578 596 597 605 0
55 52 54 57 58 59 336 359 0
-461 38 -331 -456 -471 -480 0
-34 38 -56 -59 270 272 0
-74 72 73 450 451 453 454 455 0
-73 3 4 -5 -82 -83 88 427 443 447 -480 481 0
-23 26 30 221 222 234 -331 0
-30 27 209 217 225 239 244 0
-5 3 -7 84 85 87 135 0
-31 5 39 -51 -56 250 254 278 0
-273 -34 38 278 282 -331 0
-106 105 563 567 573 580 588 596 605 0
-17 11 18 169 176 -331 0
-51 336 337 338 339 342 377 0
-207 2 4 -8 -81 83 0
28 25 205 220 226 -331 0
51 -313 -328 346 347 360 375 0
73 71 78 -319 451 456 457 461 0
-28 30 207 222 225 237 240 243 0
60 55 59 336 353 371 372 375 0
-342 7 62 -313 -331 372 405 406 0
-78 7 -14 -18 -72 84 129 135 195 0
72 73 -319 432 456 457 461 0
88 -83 87 -319 384 386 387 -411 420 -480 488 491 0
84 -12 15 -22 -26 215 -331 0
-17 15 191 195 -331 0
60 54 55 59 345 371 372 375 0
39 36 38 248 262 269 276 277 281 0
68 61 63 67 409 410 411 0
-25 7 -28 -30 144 0
-28 -8 -56 -57 -68 -69 233 237 243 0
446 71 72 -319 444 -461 0
34 -6 -7 -45 281 282 285 -471 -480 0
36 -23 -25 32 38 249 -331 353 0
-36 34 39 246 265 282 284 0
-183 31 35 -38 83 173 282 286 287 0
11 12 13 -18 -218 -228 0
13 8 12 14 16 17 -45 0
-40 31 36 262 269 270 273 0
-24 -103 -105 225 226 227 229 313 0
-18 8 -19 25 30 -46 -195 0
-74 428 436 443 450 451 454 469 0
24 21 26 28 201 219 221 232 237 0
-28 -7 -10 25 26 -57 -58 243 0
85 -7 11 15 16 18 -84 86 87 488 0
-31 -7 -9 38 250 254 0
30 26 28 29 232 0
52 53 58 59 60 360 361 0
-233 -240 -328 0
21 24 25 26 27 -32 -33 165 220 0
-2 3 122 124 0
-68 -58 61 336 357 363 395 398 423 0
-52 57 -59 336 345 346 347 0
-453 71 72 73 468 469 0
84 -33 -38 -62 -68 0
-25 -26 -35 -38 46 0
-23 25 -33 -36 82 267 -331 398 0
-192 11 13 14 15 16 -18 193 194 0
-26 5 21 25 28 213 480 496 0
-62 -32 -33 -81 -83 390 391 396 397 0
-69 63 67 388 391 405 411 423 0
-67 -7 8 386 391 401 422 0
-71 -5 -7 341 426 427 428 429 431 0
-25 201 220 225 232 233 234 235 0
-109 -8 -106 -107 0
25 28 205 211 220 -331 0
-72 77 428 435 440 441 442 456 0
-16 -7 11 13 15 20 181 193 0
-106 4 -5 -7 82 85 -102 -107 0
-104 105 107 586 588 589 590 0
-90 -18 -20 -313 576 0
-472 -51 -52 55 57 59 60 372 375 0
-64 -34 -36 -54 -56 67 276 408 0
387 -1 7 62 63 83 -331 340 405 0
51 -313 -331 346 347 360 372 0
74 -43 429 432 436 437 438 439 461 0
-74 -1 2 7 83 -313 432 450 0
76 72 74 77 -313 432 461 0
-70 389 391 404 411 422 424 0
18 15 191 193 194 -331 0
15 162 165 183 191 193 194 -331 0
429 -75 80 -433 436 444 0
-74 73 75 76 285 428 436 480 495 496 0
-52 60 336 345 348 360 373 375 376 378 0
-17 15 -25 -26 -331 0
-68 15 16 17 383 389 395 402 410 0
58 52 54 56 -331 354 0
55 56 58 -331 375 379 0
-40 31 32 35 275 284 287 0
-1 -8 -18 -20 89 162 488 0
18 16 159 166 174 -331 0
400 62 64 389 399 414 420 421 423 0
-35 -25 -26 38 39 280 0
52 54 56 -331 344 354 375 378 0
-62 63 65 -319 -331 381 395 0
-85 -65 -82 -83 -319 -471 0
-28 23 24 26 207 215 0
26 22 24 25 46 207 -331 0
24 22 25 46 207 215 220 -331 0
-205 1 2 -6 -61 -64 -65 0
26 28 201 219 225 240 -331 0
-38 -72 -78 84 252 270 282 285 0
26 201 207 215 219 225 240 243 244 -331 0
-26 -56 -59 -150 201 219 225 236 237 0
-386 -61 62 63 -331 407 0
-251 -31 37 38 277 -331 0
-7 -81 -88 -331 432 0
-550 64 -65 -75 -319 384 399 428 437 444 0
103 101 107 108 550 571 598 0
-313 71 72 -319 0
26 1 -8 25 125 207 215 240 -331 0
-218 -5 26 27 28 114 122 201 0
-58 -55 -319 342 350 354 0
66 62 64 67 -319 382 413 0
-34 7 40 -75 -77 272 288 0
-57 52 -331 481 -488 494 499 0
-605 -63 72 73 74 382 390 398 -402 -432 0
-32 35 38 259 261 262 0
-345 52 -53 337 351 352 353 0
-5 3 -11 -15 -51 -53 -55 336 0
-17 -7 11 15 18 -84 -331 -498 0
-141 -4 38 246 272 -313 -331 0
-38 252 260 270 282 285 -313 0
18 13 16 167 180 -331 0
34 31 33 38 246 261 262 -313 0
-73 -313 429 435 443 445 447 0
-40 31 -56 -59 262 269 278 287 0
-163 52 53 54 72 73 74 -319 0
-31 -7 -8 38 -51 -56 253 254 0
-147 -6 8 152 153 -424 0
-67 64 -331 381 401 0
-135 -34 -141 252 260 -313 -331 0
7 -8 34 246 -313 -331 0
-366 -55 355 373 374 -471 -481 0
34 246 252 260 276 -313 -331 0
-167 1 3 4 -186 0
-159 -31 -186 252 -331 0
38 31 32 276 -313 -331 0
-12 18 167 168 169 0
-19 163 178 184 189 191 192 195 0
8 -16 18 46 191 -284 0
-101 103 105 561 563 565 603 0
-472 62 66 68 -331 -488 0
-74 71 72 75 76 285 443 480 495 496 0
-72 429 435 436 438 440 441 442 0
-105 -5 -7 46 103 572 585 592 597 598 603 0
-76 -5 -7 73 341 438 451 0
-55 337 338 347 353 369 370 0
-147 -6 8 152 153 -379 0
19 11 15 16 -18 20 165 169 176 181 0
-160 -11 16 18 191 193 194 0
26 25 201 222 228 -331 0
15 16 162 165 183 -331 0
-406 4 -5 16 17 18 180 336 0
-8 36 39 40 147 0
-66 -15 -64 -83 -84 159 180 187 0
101 -6 -7 -45 103 105 106 571 578 0
-38 177 222 252 273 282 285 -324 0
-54 -63 -64 84 -319 338 0
207 23 25 27 -28 -201 226 0
337 8 58 -319 -328 336 345 360 377 0
-53 -26 -28 -55 -58 -83 84 88 233 0
-375 52 -58 342 353 376 377 0
480 -23 -28 31 34 -38 -481 0
-57 8 341 345 346 353 377 0
-486 34 36 -39 253 -480 0
488 86 87 88 482 0
-186 -15 16 18 187 -328 0
-402 -63 68 413 417 420 0
-32 8 -15 -19 -22 -29 -46 -241 260 0
68 63 64 65 66 381 0
-73 -31 -33 -81 -82 -319 427 444 447 461 0
-30 -68 -69 231 235 239 242 0
28 21 25 216 218 221 227 239 241 0
2 4 -5 -6 -82 85 -107 -108 480 0
107 101 103 104 106 110 576 0
-353 11 15 16 18 -354 0
-415 -70 384 392 399 410 0
-480 34 38 277 -328 -471 0
-75 -82 -84 -102 -105 429 444 0
-3 -5 -7 -15 -16 -81 83 -84 85 0
108 103 104 105 106 110 561 0
86 11 -13 15 18 52 -55 83 87 193 194 339 360 480 498 0
398 69 381 382 383 390 391 411 422 424 0
-29 24 25 208 216 237 241 0
103 101 102 -104 105 108 110 601 602 0
-103 104 105 106 562 570 602 0
-67 64 381 401 421 422 0
337 -51 52 54 57 -354 374 0
-20 18 194 197 -324 0
14 12 13 15 16 163 197 0
34 8 -10 38 -39 -354 -471 0
-102 -11 -18 -82 89 -109 199 480 0
-59 8 -18 -20 55 0
-17 11 12 15 16 176 184 197 0
-26 8 15 17 -46 231 0
3 4 -5 -7 84 85 -106 -107 0
110 104 105 106 107 561 603 0
108 104 105 106 107 110 561 0
-481 103 106 108 109 -471 602 0
-28 -13 -18 26 27 -82 170 207 222 225 0
19 4 -5 14 -15 16 17 20 336 -580 0
110 104 105 106 109 561 600 0
-3 -6 -7 -23 24 25 28 201 219 0
22 5 -10 21 24 25 29 0
-488 -82 -471 0
23 21 22 24 25 236 0
109 -46 104 105 106 108 561 0
-103 3 4 -5 -10 84 -106 123 0
106 -6 107 108 109 331 -471 595 0
-480 -103 104 105 106 -471 602 0
-26 8 15 17 -46 -103 -106 -110 0
-103 4 -5 -10 -104 -106 0
-490 -106 107 -472 -480 585 597 605 0
108 103 104 105 107 110 561 0
-195 104 105 -108 110 -170 561 0
488 2 4 -5 -84 85 -106 -108 -141 0
11 13 15 18 166 -331 0
-105 -26 -28 -34 -106 -109 -331 0
-485 106 107 109 110 -471 582 0
22 21 23 25 27 229 236 244 0
241 8 25 28 -46 242 0
357 -46 52 54 55 57 0
220 21 24 25 27 28 0
209 23 25 27 28 29 217 0
228 21 25 26 28 215 -240 0
220 25 28 -57 -59 201 226 0
217 21 25 27 28 216 218 0
-396 -22 25 27 28 81 -82 480 0
24 21 22 25 27 -56 -59 0
227 25 26 29 30 206 215 0
228 21 22 23 25 27 0
24 21 22 23 25 0
222 25 29 30 201 226 227 236 0
275 33 35 39 252 262 273 281 287 289 0
402 -62 63 67 -390 400 0
396 -43 -62 -102 -103 381 391 0
396 59 60 -62 -81 -82 391 397 0
342 -58 -62 -63 -68 0
421 61 -62 68 392 393 398 422 0
404 61 -62 69 391 395 401 411 422 0
385 -61 384 386 387 0
-209 -61 -62 67 68 -71 382 391 411 427 428 0
393 -62 67 68 392 0
-214 -62 65 66 -240 0
424 -62 66 69 381 392 398 420 422 0
393 -62 -381 384 386 387 0
402 61 62 67 -84 -87 282 398 411 0
424 62 63 69 383 411 422 0
421 62 63 64 384 387 422 0
-241 45 46 0
-242 45 46 0
413 62 63 64 66 67 0
403 63 -64 382 -398 404 0
423 62 63 383 411 421 422 424 0
547 -46 63 64 66 381 420 592 0
65 -58 -59 62 63 64 67 0
406 -58 -59 62 63 65 67 -68 0
-344 62 63 64 -65 84 -336 -482 0
415 62 63 64 387 388 422 0
88 -61 62 63 67 68 -81 87 480 0
88 62 63 67 -81 84 87 387 405 406 0
-269 62 -63 81 82 386 400 402 0
410 61 62 69 399 400 420 0
400 61 62 68 398 405 -411 0
422 61 62 69 399 400 405 408 0
409 61 62 398 403 404 410 0
413 61 62 67 400 405 406 408 0
383 62 -68 -78 -80 382 398 0
384 62 64 -65 399 0
-411 -61 62 64 382 384 420 0
399 62 66 67 68 405 0
70 62 66 68 69 398 399 405 0
70 62 64 65 68 69 400 0
412 62 66 68 382 383 398 0
403 62 64 70 386 387 411 0
70 62 64 69 382 0
402 62 64 65 66 67 0
424 62 64 69 382 411 422 0
400 62 67 387 398 399 405 406 411 0
70 62 66 69 382 405 420 0
413 62 69 385 386 388 400 404 405 408 409 410 422 424 0
598 -35 -36 -46 -106 561 562 570 591 0
580 -35 -36 -46 -106 331 561 591 598 0
249 32 33 -35 270 0
385 -66 -74 -76 -83 -84 393 0
88 -12 -13 -73 -77 -84 495 496 0
88 -12 -13 72 -73 -84 427 447 456 495 496 0
337 59 60 -82 -84 -101 -102 345 353 0
493 -84 88 494 495 496 497 0
-187 16 17 18 46 0
190 16 18 19 187 197 0
173 11 12 16 17 18 0
-279 7 16 17 18 143 0
189 14 16 18 161 164 165 196 197 0
163 -11 13 14 16 18 20 167 0
-239 7 15 17 18 147 0
-283 7 15 17 18 147 0
-374 7 15 17 18 147 0
442 11 14 15 18 19 -102 -108 165 0
194 11 13 18 19 166 187 0
-20 -17 52 53 56 -57 58 360 0
169 11 -17 176 182 0
169 -17 161 176 182 187 0
-481 -471 -480 0
474 -472 476 -480 490 492 0
603 101 104 107 110 -480 -489 0
249 32 33 34 37 250 0
337 52 54 55 56 58 0
375 52 53 54 55 56 0
358 52 54 55 57 336 359 372 0
70 63 64 69 386 387 391 411 0
430 -71 -72 73 429 432 439 0
430 -73 429 435 443 446 447 456 0
369 53 -59 343 351 378 0
469 71 72 74 444 461 468 0
463 72 74 427 428 434 445 447 456 457 468 0
564 -43 -82 -90 -102 106 574 575 605 0
430 -71 73 75 426 432 452 461 0
356 -53 -63 -66 231 354 357 0
348 -52 336 345 346 347 350 0
565 104 105 -106 570 598 599 0
254 -13 -20 36 39 -103 -104 277 278 285 0
575 7 -102 -104 105 106 331 561 0
589 101 102 105 106 -109 605 0
571 101 103 105 106 107 0
563 105 106 107 108 109 562 0
582 101 102 104 105 107 0
596 104 105 108 561 562 570 605 0
604 101 104 106 570 592 603 605 0
228 29 30 207 219 231 232 236 237 240 0
-9 8 38 -39 0
110 103 104 106 107 109 561 0
-481 103 106 108 109 110 -471 0
-481 103 106 107 108 109 -471 0
30 21 25 26 27 223 229 240 241 0
-108 -7 38 -39 -110 0
-107 -34 38 -105 -108 0
108 103 104 106 110 561 601 0
-109 -28 -104 -105 201 233 237 240 0
-493 34 38 246 276 287 -472 -480 0
-107 7 38 -39 -110 0
104 103 -105 106 110 561 600 601 603 0
-147 103 104 -105 106 110 -150 561 0
190 11 16 17 165 166 173 189 0
8 -7 38 -39 -354 -471 0
-353 11 15 16 17 -354 0
26 24 25 201 221 222 240 0
-27 -7 -8 -26 104 105 106 110 561 0
104 -5 -7 -8 105 106 561 562 570 0
-101 -33 34 36 38 -81 -82 -103 277 0
110 104 105 106 561 600 601 603 0
-26 -24 -34 38 -107 -108 -324 0
-107 4 7 -82 85 -103 -108 480 0
-449 51 52 54 353 472 481 0
-107 4 7 -8 84 -104 -108 482 0
-107 -4 7 -8 38 -108 -471 -480 0
-19 11 15 16 17 171 184 0
-73 -18 -20 427 435 443 444 461 0
353 51 52 55 372 376 377 0
-51 55 -328 336 337 338 375 0
-589 34 35 36 37 -38 -81 -84 0
52 8 58 60 83 90 337 338 353 0
-29 201 223 228 234 241 -328 0
13 12 14 16 17 19 164 0
-20 -17 -18 55 -60 374 0
-109 11 15 16 17 -103 -105 0
54 8 52 55 336 337 345 374 377 0
345 8 51 54 55 336 337 374 377 0
353 8 51 52 55 374 375 0
-498 103 104 -108 110 -473 -481 594 0
-30 24 201 224 239 242 244 0
-107 4 -6 -13 -18 -103 -109 -117 0
-51 55 59 336 338 342 344 371 0
55 8 53 341 342 346 374 375 0
-51 53 55 336 338 374 376 377 0
56 53 55 336 338 346 375 0
-107 7 -103 -105 114 129 0
-101 53 -55 -81 -82 -84 -105 0
58 8 51 55 60 -331 0
20 11 15 16 19 166 176 0
354 8 -55 60 378 -471 -481 0
-495 -55 354 -471 -473 0
-594 -38 252 255 278 285 -592 0
58 7 8 51 354 360 370 374 0
-51 7 -331 336 338 342 354 385 0
58 7 8 336 338 354 360 370 374 0
-51 8 -55 58 -331 336 338 354 374 0
58 7 8 -55 336 338 346 354 374 0
11 4 14 16 18 114 -141 -331 0
-61 -6 -10 381 382 383 388 566 0
-35 7 16 17 18 -38 -39 0
-102 51 53 -55 -82 -84 -105 0
-25 7 -34 38 -53 -58 201 219 -331 490 0
-496 -5 14 16 18 -84 135 -331 0
-55 8 354 370 378 -471 -481 0
-32 -33 -81 -82 -103 104 106 107 108 109 0
-10 -7 8 16 18 19 0
-55 -81 -82 -84 -101 -105 354 0
25 29 30 201 220 226 237 240 0
-6 -11 -16 123 130 136 381 0
-46 -7 8 15 -16 18 0
-51 55 336 337 338 374 376 377 0
-102 51 -55 59 60 -82 -84 -105 0
-192 15 -16 18 194 195 198 0
-71 426 428 429 432 434 448 461 0
73 72 74 -319 429 461 468 469 0
58 55 59 60 371 -471 0
20 -6 12 14 15 -16 17 19 123 136 381 0
-19 -15 -18 37 -39 331 0
-23 -28 31 35 36 -38 -82 272 480 488 0
-14 16 17 20 180 184 0
-570 87 88 -481 -579 -580 0
25 21 22 24 26 241 242 0
-34 -7 8 -24 -27 28 -39 -45 0
-215 -14 -17 -18 -82 86 87 480 0
-130 -23 28 -141 -331 0
-36 -6 8 -18 -20 -38 -39 0
62 -5 -6 -319 -331 340 383 384 391 399 402 0
-14 -13 87 -105 -106 -108 480 0
-25 201 219 225 231 233 235 241 0
103 -7 104 105 106 561 603 0
-60 336 338 346 354 374 377 379 0
-28 201 222 228 233 237 241 242 0
-11 3 4 -10 -20 -101 -103 561 0
-313 -35 38 249 257 271 277 278 0
13 -4 -5 11 16 17 -103 -106 0
11 -4 -5 16 17 -103 -104 -106 0
20 11 12 15 16 19 87 480 496 0
28 -7 -10 25 -45 201 223 229 236 0
-60 -45 -102 -103 -106 342 374 377 591 0
-30 25 201 224 230 236 244 0
-496 -106 -473 -481 580 591 0
60 59 -81 -84 -85 357 371 -471 -481 0
23 24 25 26 29 201 236 244 0
-55 -4 -5 52 294 -319 354 0
-60 344 352 357 365 374 377 0
-14 -7 8 16 -17 18 -34 -39 0
-14 -5 -15 16 17 -34 -38 -39 0
-59 8 -28 -30 55 0
-37 -7 8 25 26 -38 -39 0
24 23 25 26 29 201 236 242 0
-59 8 336 338 346 358 378 0
60 -31 -33 51 59 -81 353 -471 -481 0
-59 8 -28 -30 336 338 346 354 0
331 8 -39 -82 -471 480 0
-106 104 105 108 109 561 596 599 0
-23 -3 -5 27 -106 -110 219 220 224 0
13 12 14 16 18 20 196 0
14 -6 15 -16 18 123 136 168 -331 381 0
-26 7 -101 -106 -110 236 237 239 0
-43 46 62 64 66 -331 413 0
-62 -52 -56 186 -331 381 390 391 392 0
-55 -84 -85 -103 -104 339 347 0
-60 -45 342 352 359 374 377 591 0
-61 59 60 -81 82 388 389 0
-381 61 -62 382 383 388 389 0
-69 386 387 396 403 409 411 0
101 103 104 105 110 -115 -146 0
-71 -4 5 -7 -21 -27 124 430 432 0
23 24 25 29 30 201 236 0
-136 103 104 -105 109 110 -146 561 0
109 103 104 105 106 110 600 0
-88 4 7 -84 -102 -106 -108 481 0
-194 -40 -191 280 289 0
-74 1 4 -5 82 -88 285 450 452 0
-344 -11 15 -16 -21 25 26 161 162 206 0
101 102 104 105 598 599 602 0
102 7 101 104 105 -324 331 0
-52 -43 51 53 55 -102 -103 375 0
-106 -5 -6 -16 -17 103 104 105 -108 598 599 0
88 -6 7 82 85 -102 -103 135 491 495 0
-4 -8 21 23 26 -28 -34 -324 0
-74 -2 -5 82 -319 428 450 452 0
110 101 103 104 108 109 596 0
101 7 104 105 108 110 331 0
-14 -16 -17 -34 38 278 279 280 0
-53 -43 -45 225 337 357 371 0
-52 -16 -17 -22 -27 336 349 350 351 352 0
-52 -16 -17 -22 -27 55 58 349 0
-3 -8 35 37 -38 82 261 262 282 473 0
-492 14 15 18 19 20 -488 0
-136 -105 108 110 -141 -147 562 563 578 0
-21 -7 -8 -28 -51 52 53 54 56 0
-55 51 -81 82 -101 -105 347 0
107 -5 -7 -45 46 101 102 104 597 598 599 603 0
-51 -1 -5 82 -101 -103 -105 159 340 375 0
107 -5 -7 -45 46 102 104 562 597 598 599 603 0
102 -7 101 104 105 331 598 603 0
-30 -22 -23 37 38 39 254 276 578 0
236 21 24 25 28 29 217 231 232 0
107 -5 -7 46 101 103 104 -105 597 598 599 603 0
106 103 105 107 108 -146 561 0
-60 -45 -104 -106 336 357 374 377 591 0
-136 -34 35 -146 -147 0
-51 -1 -5 59 159 338 340 341 342 359 0
51 -8 -27 -28 55 -313 346 372 0
-73 72 77 433 434 443 445 447 0
-86 -5 82 -102 -104 -495 0
336 -45 54 -146 -225 337 345 372 375 0
-228 -34 -240 270 271 0
-109 -5 -6 -8 -27 -28 -34 -105 0
68 62 64 67 388 389 399 0
-24 -7 -8 -27 -34 35 271 0
-228 25 -28 226 229 230 240 0
107 -5 -7 46 102 103 105 597 598 599 603 0
561 7 -45 103 -104 105 331 588 0
102 101 103 107 108 109 599 0
23 -11 -14 24 25 26 29 -102 -105 242 0
8 -5 15 -16 18 331 0
102 46 101 103 107 108 331 598 0
101 102 103 105 597 598 602 603 0
495 -5 -6 82 88 -102 -104 135 480 0
-586 4 122 -141 -571 0
-313 -6 -37 -38 51 55 346 372 0
-24 -5 -6 -8 -25 -27 -34 0
-374 -6 8 15 18 191 -331 0
-357 25 26 27 -28 82 -85 201 0
-108 25 26 -104 -105 201 242 243 244 0
-40 -5 8 -24 -25 -34 227 228 231 238 0
-4 -5 -6 -34 37 39 40 -273 0
102 101 103 105 109 596 604 0
-24 -5 -6 -8 -25 -34 -331 0
72 75 -319 427 428 429 443 461 468 469 0
23 -11 -16 24 25 26 -102 -107 -331 0
102 -7 46 101 103 105 106 603 604 0
-27 26 232 240 -331 0
-56 8 52 340 353 374 0
-52 57 340 350 351 352 354 360 0
405 63 66 386 387 390 393 394 396 397 406 420 0
-52 340 349 350 351 352 354 360 0
-24 7 -25 -28 -34 -331 0
-496 1 4 -5 124 -488 0
396 1 4 -5 -62 63 82 381 397 405 420 0
336 8 55 -102 -103 -331 337 338 353 374 0
55 8 60 -68 -70 336 353 371 372 375 0
-402 25 26 27 -28 82 -85 201 0
-7 -6 82 104 105 106 -331 0
-24 -5 8 -25 -34 -40 228 231 232 238 0
-373 -6 8 15 18 191 -331 0
52 54 55 56 -313 -331 0
40 32 33 37 38 39 250 0
-4 -6 -7 -8 -25 -28 -34 0
-62 63 -331 381 393 395 405 0
-61 -4 -6 295 385 386 387 0
-60 -102 -106 190 344 357 360 374 377 0
573 103 104 105 -106 -561 0
61 -36 -40 62 69 81 82 -269 587 0
107 3 4 6 46 104 105 -106 123 0
-66 1 4 -5 -6 62 63 82 340 0
-381 7 104 105 106 -390 601 602 0
103 104 105 106 600 601 602 603 604 0
562 -103 104 105 106 -561 602 0
106 5 -7 45 102 103 104 601 603 0
-40 -38 51 55 -58 348 353 375 0
102 -7 46 101 104 106 107 603 604 0
-25 21 24 30 232 233 234 480 495 0
-55 -81 82 -101 -105 347 0
55 51 59 -331 350 353 371 374 0
62 65 -331 387 400 406 -473 -488 0
395 3 -5 -62 135 -331 381 392 406 0
-51 -331 339 340 342 353 0
-109 -5 -6 -8 -34 -105 -331 0
104 -6 -16 -17 102 103 105 0
561 -16 -17 -102 103 104 105 -331 598 0
109 101 102 104 105 596 604 0
-51 57 340 342 351 352 -488 -495 0
-106 7 82 85 -102 -105 492 0
40 -7 -8 -16 -17 39 147 0
-324 -331 0
-141 -7 -324 0
148 8 10 -324 0
181 11 17 18 165 -324 0
102 7 101 103 105 -324 0
177 11 17 166 175 192 -324 0
181 18 160 161 165 182 191 -324 0
432 72 74 75 443 445 446 461 0
51 8 52 54 57 353 357 374 0
-104 -5 -6 82 -102 -108 135 480 495 0
73 -28 -30 72 428 432 456 457 461 0
-104 1 4 -5 -10 82 -106 0
-104 -5 46 102 105 563 578 596 598 601 604 0
102 82 106 107 109 494 499 563 604 0
-104 -5 -6 82 -102 -105 106 107 109 110 135 563 0
106 -7 102 104 105 562 603 0
-38 -14 -19 25 26 -28 -34 -40 240 0
-25 26 216 223 225 232 233 235 0
-490 102 105 -106 109 -488 0
-85 -6 -10 82 -105 -107 -572 -574 0
-591 -42 -45 51 -55 60 353 0
23 21 25 26 27 217 229 0
102 104 105 -106 110 562 598 0
-69 -36 -39 63 388 396 542 0
-272 -27 201 221 232 236 242 -274 0
-1 -5 107 108 109 110 562 563 578 599 0
107 -81 88 103 104 -105 108 109 110 476 480 0
-24 26 28 -43 229 232 579 0
102 103 104 107 110 597 598 603 0
-594 22 25 26 27 -28 -585 0
-24 27 -28 229 230 233 237 0
107 -5 -7 -8 46 102 104 105 603 604 0
-234 -39 -233 283 286 0
-59 8 51 345 360 378 0
-109 5 -8 -34 35 -105 0
-4 -5 -6 -11 -16 32 33 -34 37 0
110 105 106 107 108 562 563 0
-605 -39 283 286 -598 0
106 89 90 107 108 109 110 563 578 0
-24 -6 -7 -26 -28 -34 279 280 0
-71 73 76 77 426 428 429 0
-4 -5 -34 -106 -109 -141 -331 0
102 -7 104 105 109 331 562 603 0
-51 -1 -5 159 337 338 339 340 375 0
55 -1 -5 -45 51 56 353 375 0
-51 52 82 -85 -101 -103 340 375 0
103 102 107 110 563 597 598 603 0
102 -7 104 105 110 562 598 603 0
-73 -22 -28 -103 -109 427 443 448 449 0
8 -14 -16 -34 -39 46 149 152 0
-104 105 106 -471 587 589 604 0
-498 -106 -488 561 591 596 -597 598 599 0
24 23 25 26 201 -331 0
-196 38 -39 -191 279 0
7 4 -11 -16 123 130 381 0
82 15 -16 18 -34 0
-345 -52 -313 337 346 354 371 372 375 0
-345 59 60 336 339 340 342 346 347 349 358 372 0
-62 384 390 391 393 395 405 421 422 0
-240 25 26 27 241 242 0
-102 -84 88 -105 -106 -480 -481 493 494 497 0
594 101 102 103 -105 108 110 587 0
-59 8 35 36 37 -45 546 0
-580 3 4 -7 -83 -146 488 -591 0
-59 8 60 336 342 350 358 364 0
342 8 55 -58 345 363 374 377 0
-55 -45 343 347 354 360 591 0
-53 -27 -29 -43 56 354 357 0
-32 21 25 26 -27 -34 35 36 -38 261 262 0
-40 254 262 269 280 284 287 0
279 31 32 33 36 38 40 0
371 51 55 58 -319 345 0
372 55 -146 -319 336 337 345 375 0
394 -22 -28 61 -103 -109 -319 399 400 411 420 0
260 35 36 252 -313 -331 0
22 21 25 -35 -36 218 -331 0
243 -6 -7 -29 -108 -110 0
3 -7 -102 104 -105 106 107 109 110 561 0
457 73 74 426 432 440 456 461 0
274 35 36 38 45 253 261 287 0
78 -4 -5 -6 71 73 74 0
-107 -4 -5 -6 -8 -34 -108 0
46 -5 -35 -108 -110 0
369 8 -38 -40 -59 0
344 -51 -83 -84 -101 -103 336 343 0
-584 14 15 18 -19 191 195 -578 0
354 52 54 56 57 58 0
60 52 53 57 58 59 360 0
355 52 58 59 60 341 360 0
354 52 56 58 59 60 353 360 0
377 52 53 56 58 59 360 0
376 -51 52 56 57 58 -341 360 377 0
363 -51 52 59 60 337 360 371 0
348 -51 52 -336 341 342 353 0
357 52 56 57 59 60 360 0
359 52 57 -60 336 339 365 372 0
357 52 59 60 337 338 360 371 0
-42 31 34 35 37 -46 0
250 32 33 34 35 285 0
371 53 54 55 58 336 0
374 55 56 58 336 337 338 345 346 353 0
-214 -52 55 56 -240 0
346 53 55 56 57 59 60 0
341 55 56 342 345 346 353 375 0
208 26 27 28 30 216 218 0
241 -21 26 27 28 -206 242 0
22 21 24 27 28 331 0
239 27 28 29 201 219 225 235 0
29 21 23 24 28 30 236 0
29 -10 21 -28 30 -45 215 218 0
185 15 16 46 -109 -110 164 165 0
-30 -27 61 63 64 -67 0
311 -24 -27 -73 74 445 446 447 0
242 -27 29 232 236 240 0
196 15 16 17 -195 197 0
19 16 17 20 162 167 174 187 0
199 15 -20 194 197 0
60 54 59 -82 -83 -101 -102 0
382 -63 68 -75 -76 -83 -85 390 398 0
459 -61 -65 -75 -81 -83 450 460 0
141 5 -142 0
223 26 -29 206 216 218 228 234 0
209 24 26 -30 217 232 244 0
222 26 29 30 201 228 232 0
377 -7 51 53 54 56 347 0
266 7 31 34 38 255 259 0
-107 14 15 -16 17 18 -103 -104 0
-62 386 387 390 391 392 393 420 0
63 61 -319 392 393 394 0
-105 -34 39 40 -106 -107 272 0
105 -6 104 106 107 108 331 561 0
561 -6 -7 103 104 107 108 598 599 0
-422 8 34 35 36 247 260 0
65 63 66 -319 381 420 0
-22 -28 34 -38 -82 -83 -156 267 0
59 55 60 340 345 346 347 350 353 375 0
-381 -319 382 384 393 394 395 399 400 420 0
-36 34 35 -38 252 255 281 283 284 0
-62 381 390 392 394 395 406 0
109 -31 -33 -83 84 103 105 107 108 110 0
-63 -27 -28 -33 -38 87 88 382 390 398 402 481 0
-102 -82 87 88 -105 -106 488 0
-51 5 -31 -37 336 337 338 342 0
255 31 34 35 37 39 284 0
-101 31 34 35 37 39 -81 -82 -103 284 0
-23 -28 34 -38 -81 -84 488 0
-85 5 -31 -37 83 -252 -313 372 0
-103 104 105 562 570 580 602 0
-85 -55 -82 -84 -101 -104 -313 0
-87 61 67 -68 -82 -84 192 282 398 402 411 0
24 23 25 26 28 34 -37 46 -313 -324 0
-84 8 51 55 -82 -328 377 -480 0
-342 25 26 -28 -82 -83 -156 218 241 242 0
-342 25 26 27 -82 -83 -156 228 0
58 8 51 55 371 374 377 0
58 8 51 55 56 377 0
-104 -5 -7 -13 -15 105 106 571 578 587 0
-252 -46 -51 55 -285 0
346 -7 51 -52 53 -328 347 377 0
-53 3 4 -5 -11 -15 -51 345 0
-58 25 26 -51 -52 218 241 242 0
-336 -51 52 55 56 351 352 353 375 0
51 8 55 56 345 346 353 377 0
26 21 25 29 30 211 221 0
-348 51 -52 54 -328 345 0
-56 51 -328 347 354 371 372 0
571 101 103 -104 105 106 108 602 0
35 34 37 -38 246 -313 -328 0
-21 -27 -28 -51 56 -313 347 360 0
21 23 24 25 26 30 216 0
110 -5 -7 -27 -28 102 103 105 -106 107 108 0
-25 -12 -15 24 27 204 219 345 0
-57 8 356 377 -471 -481 0
51 -28 -33 -35 56 219 233 237 240 -255 -269 346 364 365 376 0
-36 -7 34 35 -38 250 255 -328 0
51 52 -313 -328 360 375 0
-495 103 -105 106 107 108 -481 0
-102 51 -55 -82 -84 -105 358 359 0
-78 -28 -30 73 428 440 469 0
38 8 -10 39 -46 276 277 0
-110 -5 8 -24 -25 26 28 -105 -142 149 0
-110 -7 8 -24 26 -27 28 -105 -142 149 0
38 8 35 -46 286 287 0
-34 8 -46 270 273 286 287 0
-63 -12 -16 -36 -38 399 400 401 0
35 -11 -13 34 37 -38 112 -313 -328 0
51 -82 -84 -102 -105 -313 -328 346 375 0
-336 -51 340 341 347 350 0
24 -11 -16 23 25 26 28 -82 -87 0
-26 -5 8 28 231 -328 331 0
32 34 37 249 -313 -328 0
-22 26 28 -102 -103 172 216 232 0
-37 -7 34 35 -38 251 255 286 287 0
-103 -5 -7 -12 -15 106 570 578 579 581 0
-59 55 -146 351 358 364 0
-63 -27 -28 -33 -38 382 390 398 402 411 0
353 55 59 60 336 342 350 371 0
561 103 105 106 109 600 602 604 0
-59 8 338 342 345 347 354 364 0
54 59 60 342 345 347 354 371 0
-471 -7 34 35 -38 283 284 286 287 -480 0
-247 52 59 -252 360 371 374 377 0
103 -45 105 -146 561 563 571 588 598 599 602 0
-62 384 385 390 391 394 395 411 0
-71 77 -313 426 428 429 430 0
103 102 105 106 108 109 602 0
31 34 35 37 255 -328 0
55 -46 -252 -285 -313 346 0
106 -46 104 105 108 570 601 0
36 21 24 25 26 28 -32 35 37 -38 81 -82 480 0
27 23 24 25 -28 201 -328 0
110 105 107 108 109 -471 0
-9 3 4 -577 -584 0
-604 -7 8 23 24 25 26 -27 201 0
215 23 24 26 -28 -201 0
-25 -33 -35 204 212 225 231 353 0
-7 8 -16 18 0
-4 -5 -6 -11 -16 32 -34 37 -313 0
60 59 -81 -82 -83 -101 -104 -471 0
-87 4 -6 -84 86 -103 -104 0
32 34 35 -38 46 250 -313 -331 0
32 33 34 35 37 250 0
-56 15 17 18 340 348 353 374 0
-109 25 26 27 -28 81 84 -103 494 0
-56 -6 -16 51 186 191 374 -480 -481 0
-40 -38 51 -58 345 346 353 0
55 8 51 58 -331 374 0
336 -51 53 58 -319 -331 360 373 374 0
103 104 105 109 561 571 602 604 0
570 -103 104 105 109 -561 596 604 0
-282 35 36 -38 283 284 285 0
-13 -16 -26 -27 -82 -84 85 86 480 0
342 -51 -331 340 347 371 375 -488 -495 0
432 -1 7 72 83 -313 429 450 0
-29 8 -14 -16 18 -24 191 0
51 56 -82 -84 -85 -313 375 0
-130 88 -136 -141 480 0
-496 86 -481 490 501 506 507 0
-56 7 -319 348 355 385 0
-85 -55 84 -101 -103 -319 0
-62 -22 -28 -103 -109 -331 381 391 395 411 0
-381 -61 62 382 391 392 393 420 0
-101 -33 34 -35 36 39 40 -81 -82 -103 285 0
-64 62 -82 -84 -101 -102 -313 -331 408 411 0
-63 -28 -29 -43 -313 381 398 401 411 0
-63 66 69 387 390 399 401 404 0
110 103 105 107 108 -471 -481 0
-11 -19 83 90 -102 -110 -471 0
-55 51 54 -58 -62 -331 354 381 393 0
-59 8 25 26 27 337 351 364 0
-54 -32 -35 174 -319 338 353 0
-226 1 -5 -6 -16 122 161 168 186 192 0
-25 7 8 -28 -30 -35 38 277 0
165 8 11 -16 17 18 -24 -30 0
-24 8 -14 -16 17 18 25 -28 240 0
411 63 67 68 383 389 396 409 410 0
166 8 11 -16 17 18 -23 25 27 237 0
175 11 15 -16 18 84 86 -331 492 0
-59 58 343 346 358 369 0
-54 -33 -35 219 337 -353 358 359 0
-88 1 4 -6 82 -107 -108 0
51 -40 52 53 59 284 287 289 586 0
-108 4 -5 -82 -83 -84 -88 -106 0
382 62 -319 -331 383 389 393 395 404 405 406 411 423 0
-480 -6 -84 -103 0
-14 8 -16 17 18 -34 37 38 180 0
14 8 11 -16 17 18 -23 25 26 27 0
-33 -35 -39 51 52 60 219 343 345 346 541 0
-66 61 83 -102 -106 393 400 0
58 7 8 51 336 338 346 354 374 0
-66 2 -5 62 -82 -84 135 -313 385 0
278 31 34 -35 37 -267 276 0
255 31 34 35 37 283 284 0
107 -37 -38 46 104 105 106 561 604 0
53 42 43 52 58 -319 -331 340 0
-62 -331 381 390 391 395 411 0
-54 1 -5 -21 -25 -51 135 353 0
114 4 17 18 -141 159 160 -165 0
-56 7 -16 53 191 340 346 374 0
31 34 36 37 39 255 280 0
561 104 105 106 109 600 602 604 0
-383 103 -104 105 -106 107 -381 597 605 0
168 11 15 -16 17 18 -165 -331 0
-40 -38 72 74 -78 427 0
-457 11 15 18 -331 -450 0
-56 -6 -16 51 54 186 191 345 374 0
102 7 -26 -27 103 104 105 -106 0
-471 103 106 107 109 -481 604 0
432 -1 7 83 -313 429 436 450 458 0
-578 11 15 17 18 -579 0
29 21 25 26 30 221 227 0
31 7 34 38 -313 -331 0
31 7 8 34 38 255 0
-23 -28 -68 -83 -84 -255 387 409 410 0
102 103 107 108 109 110 563 0
68 -2 -6 62 205 -319 -331 411 0
-313 -33 38 276 -331 0
-62 -319 381 390 392 393 394 0
63 62 -319 -331 384 387 0
-56 8 54 337 348 374 0
-63 -22 -24 -25 -32 -33 67 382 390 398 0
17 11 16 20 165 166 173 189 0
-15 16 187 188 189 -197 0
-490 -106 -472 -480 586 592 593 605 0
68 61 63 -331 386 390 392 399 406 0
-27 23 206 227 240 -331 0
106 5 103 104 -331 561 574 0
-52 51 57 345 346 348 350 0
71 72 77 -319 445 447 0
3 2 4 -82 85 114 481 490 0
-57 -12 -15 212 341 346 353 376 377 0
24 21 23 25 -328 -331 0
-17 3 4 -18 -82 84 -331 440 482 0
33 31 32 38 46 281 283 284 0
-7 4 125 -331 -481 -498 0
-13 -5 -15 -180 -187 480 0
-34 38 40 271 272 274 0
8 -16 18 331 0
-37 31 32 35 40 272 281 286 0
63 64 65 66 386 395 420 0
-63 65 66 382 390 398 420 0
-38 37 -260 261 262 278 282 0
-28 -25 -30 36 37 -38 39 0
-352 -32 35 38 259 471 488 0
488 2 4 5 -84 85 483 0
233 21 22 27 -28 220 -225 0
-411 62 -63 68 -319 -331 399 0
276 34 38 -82 -83 -101 -102 -331 0
362 51 52 -57 -331 0
457 -63 -68 -72 -82 -83 -319 426 438 0
90 34 35 36 37 40 84 -328 0
40 -5 -6 38 39 -107 -108 0
251 34 35 36 38 255 0
384 62 64 66 67 -313 0
371 -52 54 55 -313 336 372 375 0
-101 -63 -82 -83 -102 -313 0
413 -63 -313 384 387 390 400 401 0
-377 8 34 35 36 -38 252 255 0
246 33 34 35 39 40 281 0
-409 51 -54 81 -82 -84 353 480 0
186 51 57 58 -62 -63 -66 231 337 360 0
370 8 -55 336 337 345 360 378 0
6 4 -10 83 -84 -103 -107 -108 -481 495 0
81 -43 -62 -82 -102 -103 381 0
223 24 26 28 209 216 217 232 0
-262 71 -72 81 -82 435 480 0
70 -51 -53 64 69 -81 -82 0
364 -54 -82 -102 -104 338 365 0
445 -73 74 77 78 444 0
3 4 -73 -77 84 85 0
446 -73 75 78 443 445 0
469 -73 432 433 434 435 443 446 456 461 468 0
468 -73 427 435 443 446 449 456 0
421 61 63 -67 407 422 0
70 61 63 69 391 0
-271 -46 61 63 -65 391 0
415 61 63 64 69 404 422 424 0
409 61 63 391 396 411 422 424 0
340 7 63 64 65 67 68 0
384 -61 66 386 387 0
393 -61 63 67 384 387 405 406 0
-433 63 64 65 67 68 83 -381 -428 0
389 63 66 67 68 69 405 0
385 63 67 68 393 406 -411 0
-261 -72 73 74 75 78 461 488 0
-262 -72 73 74 75 78 461 488 0
429 -71 73 76 432 -457 0
431 72 73 75 76 78 0
429 72 73 432 450 451 452 461 0
430 -71 72 73 75 -427 432 0
430 72 73 429 432 450 451 452 0
468 72 73 74 427 431 434 456 0
458 72 73 429 432 451 452 461 0
457 72 73 432 450 451 452 456 461 0
453 73 -74 75 76 452 0
441 73 74 76 80 431 432 0
441 73 74 78 80 431 432 456 461 0
441 73 74 432 434 437 440 456 457 461 0
469 73 74 426 432 455 456 457 461 468 0
441 71 73 436 442 452 453 456 0
457 71 73 76 78 450 452 0
441 71 73 75 436 442 451 453 0
433 73 426 427 428 434 441 442 444 450 451 453 0
102 7 101 103 106 108 331 0
593 -105 106 107 109 110 561 578 0
594 -105 107 108 110 562 563 591 0
437 -72 76 77 78 0
441 -72 426 440 442 444 450 461 0
448 71 72 74 80 0
457 71 72 74 445 447 0
447 72 74 75 76 77 0
459 72 74 80 432 444 448 461 0
195 11 12 14 15 16 0
-4 -7 -16 -17 -34 0
-4 -7 -15 -17 -34 0
-19 -7 -9 -37 -38 0
-29 -7 -9 -37 -38 0
-39 -7 -9 -57 -58 0
-101 -7 -8 -39 -108 -110 0
-4 -7 -26 -27 -34 0
-66 4 -5 -62 -64 -83 -84 0
-191 11 12 13 15 -16 17 -331 0
-73 78 443 444 445 446 0
-105 45 46 460 572 579 585 591 601 602 0
-106 573 580 586 591 596 603 0
103 102 104 105 601 603 0
-34 -142 -150 271 274 275 0
-103 106 570 578 579 581 603 604 0
-103 -53 -55 -64 -65 106 570 579 581 582 0
488 -5 -7 -16 -18 -84 85 122 135 395 0
-135 -5 46 136 138 0
-411 -5 -62 129 -331 386 395 -399 0
-370 45 46 103 -105 106 107 109 561 0
27 12 15 16 -24 -34 -142 -150 162 176 195 225 237 271 273 0
-106 -5 -7 -8 46 105 573 586 596 0
-76 11 14 -15 -74 -83 -84 187 0
-362 52 53 -54 341 343 376 377 0
-194 -6 8 -13 -16 -23 -25 152 -175 -219 221 231 233 0
-374 -5 7 11 12 14 15 17 147 173 0
-23 30 219 220 221 243 0
-582 -88 -578 0
106 107 109 -471 562 570 585 604 0
-23 25 220 222 -331 0
-63 -331 382 392 398 400 402 0
-132 -32 -33 -38 -84 0
494 -69 -84 388 396 472 481 0
-26 205 221 226 231 237 238 239 0
-3 8 -18 -20 -23 -28 -223 0
-228 1 2 -8 -218 0
-226 1 2 -6 -218 0
-105 106 572 579 585 592 594 604 0
-235 16 18 31 34 36 187 255 277 -331 0
6 2 83 85 87 135 0
-173 62 63 -64 -180 -331 387 0
-260 31 -32 33 38 270 282 285 0
-373 8 -36 37 38 143 -331 0
-73 -63 -64 -72 0
-30 25 209 217 220 240 242 244 0
-30 -5 -24 -26 -35 37 152 -188 -270 276 0
471 -32 -72 258 259 260 426 435 436 488 0
-40 33 34 254 262 0
382 -35 36 37 62 -63 64 -264 267 471 -480 488 0
486 -12 -18 215 -480 494 0
11 13 14 15 192 -331 0
-486 -69 388 403 -481 0
16 15 17 -58 -59 -331 0
-78 -58 -59 73 432 436 0
-52 56 58 59 345 346 347 377 0
-492 -83 88 480 489 507 510 0
-14 -16 -17 -34 35 38 0
-107 -7 101 -103 105 106 -497 603 0
-18 162 166 175 176 178 188 193 195 196 199 0
-28 25 27 -30 51 52 -58 237 353 0
-107 566 570 575 582 587 592 596 605 0
34 33 246 277 278 285 -328 0
-24 -8 -25 -27 -34 -328 0
37 31 38 257 -313 -328 0
-76 73 430 438 451 0
67 62 68 -313 405 406 411 0
-21 -5 -6 -26 -31 252 286 287 0
-82 8 -39 -81 331 480 0
-64 68 405 406 407 0
-52 -12 -15 -22 25 26 27 212 336 346 471 488 0
-16 8 192 331 0
-87 2 4 -6 -82 -84 86 0
18 -7 8 15 -377 0
-211 -12 -13 -18 -82 228 -273 0
353 8 -45 51 52 56 -270 377 0
-66 -12 -13 -86 -319 385 393 0
18 -7 8 25 26 28 -146 0
23 25 28 201 203 211 236 0
-76 -319 430 435 438 444 446 447 0
37 31 32 36 38 255 263 276 0
216 21 24 25 26 207 217 232 240 0
108 7 103 104 331 561 599 601 0
-104 563 585 586 587 589 604 0
561 7 -8 103 104 105 604 0
18 15 -34 82 -331 0
-74 -23 -25 72 -141 146 432 443 450 457 0
-38 -23 -28 31 45 46 -84 278 282 488 0
-240 23 24 26 27 -28 206 -215 -331 0
-60 -2 -18 -36 -38 -56 -170 188 195 0
-52 -16 -18 -22 -28 -331 347 350 0
-4 -6 -7 -8 -25 -26 -34 0
-184 -2 7 -34 37 -170 -183 0
-446 7 129 135 -435 0
-190 7 -35 37 -188 0
-439 4 -6 130 -435 0
-193 5 8 -17 18 -324 0
-32 38 257 259 -328 0
105 5 -46 570 571 573 578 580 586 603 0
26 11 -14 15 16 -23 -25 28 30 -33 -34 37 38 161 165 195 232 276 -328 533 0
-396 21 25 28 31 -38 218 236 237 240 -255 278 282 285 0
480 -36 -38 408 495 496 498 0
-58 342 350 357 360 372 376 377 0
-51 58 60 336 341 343 355 360 0
82 -33 -38 222 0
105 103 106 561 588 596 600 601 602 605 0
-62 381 394 395 397 403 405 406 411 0
-26 205 213 218 237 238 239 0
-72 -52 -57 187 437 439 440 0
-58 8 342 345 363 368 374 377 0
252 34 35 -38 255 281 283 284 286 287 0
-165 -32 -38 -84 170 0
70 -12 -14 61 63 66 67 69 -84 0
-375 -58 341 346 357 376 377 0
-218 1 2 -6 21 25 27 28 0
-32 25 -26 -36 -38 218 236 -246 0
-26 22 24 27 205 237 331 0
-488 -55 -336 -480 -495 0
-38 252 255 273 278 282 -331 0
-104 101 103 105 571 586 600 601 0
-109 103 106 571 594 601 603 0
-55 -82 -83 -84 -102 -105 339 0
-486 34 -37 38 251 287 -480 0
-351 52 -59 343 345 346 0
-177 1 -8 11 15 16 -18 138 173 195 0
-74 7 -13 -15 443 450 451 453 0
54 53 58 -331 336 354 371 373 374 0
-350 11 15 16 17 -18 -82 -84 -85 0
-215 11 15 16 17 -18 -82 -84 -85 0
-62 68 -331 386 392 393 0
-393 3 -5 -390 -392 0
-65 51 52 -54 -55 57 58 61 -62 83 -84 354 -360 390 473 488 0
-30 -1 -8 15 16 17 -18 -28 162 488 0
7 1 -5 123 130 136 0
-141 2 -7 83 136 488 495 0
-12 3 5 -14 -15 84 0
-58 -62 -68 84 350 363 368 372 375 0
-90 3 4 -8 -78 -80 84 0
104 105 561 562 570 582 596 603 604 605 0
-180 11 15 16 17 165 167 174 0
-142 46 143 0
-74 -5 -6 -13 -15 73 78 450 0
-29 -6 8 11 -12 15 16 -18 -22 -26 -28 166 176 -237 525 0
-6 4 123 -436 -439 0
-354 11 15 16 17 -360 0
-87 3 4 -6 84 -141 0
81 31 32 35 36 37 71 72 74 82 0
-63 -62 69 -81 398 399 400 404 420 0
82 85 87 88 490 0
397 -62 67 68 69 382 383 411 0
-445 3 4 -5 -435 0
-29 -6 8 -24 -26 37 38 -270 -331 0
105 106 570 571 574 578 581 587 596 603 604 0
-237 25 28 205 222 228 -331 0
81 -33 71 72 74 82 265 277 278 285 0
-38 -53 55 83 252 260 273 278 -331 346 0
-60 -6 21 22 24 25 27 -56 -237 0
-497 2 4 -6 -481 0
-192 15 16 17 193 194 0
-57 25 26 28 51 349 353 377 0
-38 -7 -10 35 -57 -58 282 288 0
-260 -32 38 278 285 -328 0
-33 38 -53 -54 219 266 -328 0
-67 381 401 407 421 422 0
73 -319 426 432 440 456 457 461 0
-22 25 213 214 216 217 0
-406 2 4 -5 -391 0
-63 64 382 390 403 404 0
-63 67 387 390 398 399 400 0
-60 -45 56 377 379 591 0
-56 55 -328 340 371 372 0
-26 22 205 218 237 238 239 0
-14 -7 -8 -17 -34 270 -328 0
-56 -328 340 345 346 353 0
-502 -46 61 62 -65 398 0
26 21 25 27 84 170 218 0
-15 11 174 180 187 188 -328 0
-37 31 33 259 270 281 285 0
-240 25 26 -28 206 214 221 227 0
5 15 -17 -67 -69 0
21 -8 23 24 -25 27 28 331 0
5 25 -27 -67 -69 0
63 61 62 65 68 406 0
271 -14 -18 -25 -28 -34 -331 0
2 -5 -7 -13 -14 -82 87 480 0
346 -54 -72 -73 -319 0
39 31 34 38 -82 -83 -90 0
-374 -6 8 -26 -33 -38 -53 -56 236 0
214 -22 25 28 -32 35 36 37 -38 81 -82 480 0
374 8 52 54 57 -73 -75 -78 0
422 8 -53 -54 -67 331 386 391 0
196 11 13 18 166 197 -324 0
255 31 34 -35 -45 0
182 11 12 13 15 16 0
441 71 73 436 442 453 456 457 461 0
226 -43 -46 -63 390 398 400 420 0
413 -63 67 382 390 398 400 0
403 -63 386 398 399 400 402 404 0
403 -63 382 399 401 402 404 0
352 -52 54 59 336 350 355 356 0
352 -52 56 336 346 349 351 357 0
352 -52 336 347 350 351 371 0
355 -52 59 60 336 346 356 357 0
374 -51 54 58 336 337 339 0
337 54 56 57 58 336 345 0
364 56 57 58 336 337 345 353 365 0
-385 -71 72 -81 88 427 432 480 0
454 71 72 427 443 448 449 455 0
79 71 72 76 78 80 457 461 0
445 71 72 427 444 447 450 451 452 0
108 7 102 103 105 331 0
358 -51 336 -337 353 354 356 357 359 0
373 53 54 336 370 374 376 377 378 0
340 54 59 60 341 342 345 0
448 71 74 -435 445 446 447 449 0
589 -104 106 563 585 588 602 0
143 -141 331 0
-189 46 331 0
-238 45 331 0
-284 45 331 0
-271 -46 61 64 -65 390 0
-457 -46 61 64 -65 390 0
563 105 106 -107 561 600 601 602 0
592 106 -107 561 563 600 601 602 0
-237 -9 -29 0
-373 -9 0
175 17 19 20 162 166 174 186 187 0
581 102 104 105 106 108 0
578 105 106 108 110 561 601 0
578 105 106 107 109 110 561 0
109 101 102 103 105 106 0
588 105 106 109 561 562 570 602 604 0
582 104 105 106 107 561 605 0
587 105 106 561 562 570 603 604 605 0
589 105 106 561 562 570 588 602 603 604 0
562 104 105 107 108 561 570 605 0
604 104 105 561 562 570 597 601 602 605 0
361 -54 57 360 363 0
70 67 68 69 381 398 411 0
141 -142 -146 0
372 51 55 -319 -331 345 0
65 61 -62 63 68 -319 -331 0
-255 -31 34 38 276 -331 0
270 31 36 38 -313 -331 0
-77 7 -34 38 -75 -331 0
-352 31 33 36 38 81 259 -331 480 0
-19 8 -16 -24 25 28 -34 38 -331 0
374 -5 51 52 58 143 -331 353 0
338 -51 -331 336 340 342 354 0
-107 -5 -6 -25 -35 -108 -109 -331 0
-11 -16 -18 -51 55 -331 0
181 8 -16 18 160 165 -331 0
175 8 -16 160 168 192 -331 0
342 -51 52 54 56 -313 -331 0
395 63 64 -313 -331 381 387 411 0
363 51 52 53 -331 353 360 0
167 5 12 14 18 -56 -59 174 -331 0
417 61 62 64 65 -331 398 0
66 -18 -20 62 63 64 -331 0
-80 62 63 64 66 -78 -331 0
-80 61 62 63 -78 -331 411 0
-106 563 573 580 591 597 598 602 0
-143 -5 114 122 132 138 0
-105 561 578 591 592 593 594 595 0
72 -38 -40 73 76 427 428 457 0
-72 437 438 439 440 0
371 55 58 59 60 338 345 374 377 0
-76 -62 -66 -82 -83 -319 430 438 0
-353 -54 56 -313 354 356 -480 0
-1 4 7 72 84 -319 429 432 444 0
25 26 207 215 228 -331 0
25 5 -8 23 -34 -38 201 0
-62 381 391 393 396 397 399 420 0
101 105 110 573 578 600 601 602 603 0
-74 -319 428 436 444 445 446 0
72 -319 426 429 432 445 446 458 461 0
444 72 -73 445 446 -458 0
-35 11 14 15 -16 -17 -45 165 195 278 0
-52 57 336 345 346 347 348 0
77 73 74 75 78 430 0
-2 123 125 -331 0
-420 -62 -331 387 391 -395 401 0
-72 -313 426 436 437 438 440 0
21 24 27 28 216 217 231 232 236 0
599 -1 -5 -106 107 108 109 562 563 578 0
236 25 30 201 223 229 237 240 0
236 25 -26 28 201 223 229 239 241 242 0
-106 -5 -7 46 573 580 586 596 603 0
-201 34 38 -204 281 282 285 -313 0
-63 -313 382 390 398 0
40 -17 38 39 -46 -142 276 0
-29 3 -8 -28 -82 -83 -89 135 150 0
-108 105 106 561 562 600 603 604 0
-20 -6 -7 8 -16 27 -37 -38 0
-36 -6 -7 8 34 247 258 283 284 0
36 -6 -7 8 32 34 247 260 286 287 -324 0
-278 -6 -7 8 32 34 247 -324 0
-23 5 11 15 16 18 -24 -25 -82 -146 166 187 480 0
51 8 -55 58 345 346 353 371 374 377 0
-207 -7 12 15 182 -222 -328 0
-1 -6 -7 103 104 105 109 599 0
-70 51 55 56 -57 58 -67 0
-38 31 35 260 273 282 286 287 0
22 21 25 26 27 218 0
67 61 65 66 69 70 0
-191 -169 -176 -182 0
-73 -2 -5 -6 -8 -74 83 -84 85 88 0
26 21 25 28 -62 67 68 218 232 383 390 411 471 488 0
-59 11 12 15 -16 18 -56 173 0
410 -61 381 382 386 387 388 411 0
-59 8 -18 -20 338 347 354 0
51 5 8 -52 58 60 354 360 0
62 63 66 -319 384 420 0
-62 -14 -16 303 381 390 391 393 420 0
-63 -23 -26 265 382 390 403 404 0
-51 336 337 340 341 342 364 365 0
-343 -21 72 73 207 231 232 236 -319 428 0
-344 -21 72 73 74 204 207 236 -319 0
23 21 24 27 204 237 -324 0
432 73 -319 426 427 430 438 440 457 0
-54 -23 -25 -45 264 -471 -481 0
-249 -31 35 281 282 285 -324 0
-28 -8 -18 -25 -45 192 0
-313 -146 -147 -471 -481 -495 0
11 -45 191 192 195 -488 -495 0
-480 34 36 279 280 281 285 -328 -471 0
-564 -472 476 -480 492 -591 0
381 -62 63 68 405 406 411 421 422 0
14 11 12 13 0
-74 426 432 436 443 450 454 455 461 0
-39 34 253 261 268 0
25 28 213 220 226 -331 0
-36 7 -24 -34 -38 0
-108 105 106 567 571 582 600 0
-30 22 209 220 222 230 -331 0
18 15 -102 -107 -110 193 -331 397 0
-103 -7 106 562 570 578 579 603 0
-105 45 46 101 103 106 -370 572 601 0
102 5 101 103 105 107 603 0
103 -7 102 105 106 563 603 604 0
107 -7 46 101 105 106 603 604 0
105 -7 104 106 561 562 570 603 0
-74 -319 428 436 444 447 461 0
-72 -1 7 -65 -66 426 435 436 0
-109 -8 103 105 -106 561 563 571 0
7 1 122 129 135 0
-109 -8 -35 -37 -106 0
-398 61 62 -319 405 406 407 0
-15 6 -10 -46 -102 -106 -110 143 188 -599 0
20 11 16 -18 19 165 180 182 -328 0
-32 -12 -18 -38 -82 177 0
-12 -18 -32 -38 -398 0
-183 -18 19 180 182 185 192 0
-64 61 63 391 410 411 421 423 0
25 21 24 26 214 216 217 227 241 242 0
-58 -33 -38 59 60 -82 342 0
32 -6 -7 8 -9 34 40 247 279 0
-32 35 258 260 286 287 0
11 12 15 -16 19 20 21 25 27 28 191 0
-56 8 340 348 353 374 0
-40 -23 -30 35 -38 254 262 272 -273 274 280 284 578 0
65 -51 -57 63 66 68 398 421 422 0
-38 -7 252 255 273 278 286 287 -328 0
73 -68 -69 72 75 76 428 0
22 21 23 25 28 236 0
51 5 8 55 350 353 374 377 0
-324 45 -201 0
28 21 25 26 221 229 236 242 -328 0
23 21 24 25 26 216 217 0
-58 21 22 24 25 26 -28 -59 0
-53 -54 -81 -82 -83 103 -104 105 597 598 602 603 0
-288 15 16 17 25 26 27 0
-54 -35 -57 -59 -471 -480 0
147 -7 -35 -57 -59 -471 -480 0
11 13 14 -17 19 20 191 331 0
-26 -8 -17 18 19 20 -28 0
-38 -34 35 -54 -58 -84 87 88 282 285 -324 480 0
-86 -12 -13 -51 -53 -55 -81 -82 -319 381 383 420 0
55 5 8 342 345 346 350 353 374 377 0
51 58 -319 345 347 354 371 0
-23 -6 -7 -26 102 103 -104 105 598 599 0
-58 -35 -38 342 350 357 496 0
22 -6 -7 21 25 -26 28 86 480 0
-408 -34 -35 -38 -84 87 488 498 0
-52 55 58 340 349 352 373 0
-453 -34 -38 39 87 88 279 282 285 286 289 480 0
-68 62 -319 387 402 0
175 14 15 -16 17 -18 19 20 -32 -38 -82 -192 0
-35 -6 -7 8 -162 0
-19 -5 -7 -18 25 -35 -38 -46 -195 0
61 68 69 390 391 398 415 422 0
34 32 36 40 247 277 279 283 286 0
-151 -7 144 148 153 0
-18 11 16 177 183 195 198 199 0
-104 106 -471 585 588 589 602 0
32 33 34 35 36 -247 -313 0
-106 103 108 110 561 563 571 596 598 0
267 34 36 -38 246 278 286 287 0
-570 34 35 36 -38 286 287 -561 0
-58 -34 -36 -38 -54 88 278 480 0
-150 34 -142 246 -313 -328 0
-33 39 265 267 269 277 0
236 14 16 17 -18 19 20 25 -28 29 30 -82 207 218 480 0
-105 561 579 587 591 593 594 595 0
-219 1 2 -5 -218 0
-181 11 14 15 -16 18 166 173 -191 0
-22 -12 -16 -17 -82 -83 170 -324 390 435 0
-58 26 -57 -59 237 0
37 34 35 247 261 262 282 0
23 21 22 25 26 -57 -59 0
110 -81 104 106 107 109 -471 -498 581 0
38 8 34 249 250 255 -331 0
-72 51 52 -313 364 365 426 436 441 442 0
65 -62 66 -331 381 391 401 403 404 0
74 25 26 27 73 75 426 434 442 461 0
70 61 63 65 69 393 420 0
-481 51 59 60 -488 0
-15 -5 159 188 189 -324 480 481 495 0
-19 -18 -24 25 26 27 -28 -34 -228 270 281 282 285 0
-34 -8 -24 -26 -27 270 0
14 11 13 18 191 -324 0
-181 -34 37 -192 -324 0
-13 18 175 176 -324 0
-33 -26 -27 -37 -53 55 58 0
18 11 13 17 166 331 0
-4 -6 -8 -34 270 -285 0
-22 -26 -27 -52 55 58 0
-23 -3 -26 -27 0
-34 -24 -26 -27 -45 0
-313 51 -53 55 357 371 0
-252 35 -38 251 253 254 282 0
-186 15 -16 -150 -324 0
-34 -12 -14 -43 -45 271 0
-24 -8 -14 -15 -16 0
-146 51 55 59 -150 345 365 0
-374 -16 25 27 28 160 165 181 186 195 231 235 0
101 102 104 106 110 580 582 583 603 0
-108 -7 561 567 575 582 588 592 597 603 0
33 8 34 35 39 40 246 278 -328 0
-38 32 252 273 278 282 286 287 0
-26 201 220 225 229 234 236 237 239 0
82 7 -12 -15 85 88 0
-63 399 400 401 402 0
-24 26 28 225 229 230 0
480 85 86 88 497 0
-15 -5 -7 11 16 82 87 188 0
-17 7 -8 15 -26 -27 -480 0
-135 -23 -27 31 -34 -141 -143 259 281 285 443 0
-34 -5 -7 -14 -15 -188 -328 0
-60 55 336 359 365 372 377 0
-421 -7 34 -37 251 255 277 281 0
-34 -5 -7 -14 16 17 18 37 -38 186 271 -328 0
-16 8 160 165 181 192 -331 0
-29 -5 8 -28 32 34 -35 36 37 -38 247 0
25 201 207 215 218 220 226 -331 0
23 25 -26 201 207 215 226 -331 0
-60 344 352 353 354 360 377 379 0
-354 -73 -339 -368 435 443 461 0
-54 -331 338 346 356 358 359 361 363 0
-28 -37 -38 45 46 233 237 0
83 -319 471 0
-58 -33 -38 -82 -83 342 364 365 0
218 21 22 27 28 -45 0
-18 162 178 184 188 192 195 199 0
350 51 -52 55 -328 -375 0
-5 143 -324 0
328 -321 331 0
-30 -7 8 -14 -17 18 -24 187 0
-25 24 29 201 219 233 235 0
-358 -33 267 276 277 281 472 481 0
31 32 33 38 -141 -143 277 281 0
-104 -53 -54 -81 -82 -83 106 578 585 589 0
197 15 16 162 177 183 191 196 -324 0
-149 5 8 55 58 336 353 0
109 102 103 105 106 110 600 0
60 58 59 360 371 -471 -480 0
104 -1 -6 -7 103 105 -115 -146 598 599 0
-18 -6 -7 -10 15 16 -38 39 -45 195 198 0
-38 -23 -28 -81 -84 273 488 0
-18 15 84 162 173 191 193 196 199 215 0
105 -7 -45 46 106 -471 -480 587 589 599 600 604 0
-105 106 561 562 570 585 594 595 600 0
-10 -6 -7 -38 -40 51 55 -58 59 60 0
11 12 17 173 174 180 187 -328 0
-15 159 165 166 173 187 188 195 -328 0
105 101 103 106 570 571 601 604 0
-336 -62 63 66 -331 -342 405 0
-62 381 390 393 395 405 421 422 0
243 21 24 25 27 -28 30 -165 236 -480 0
15 11 17 -53 -54 -84 -85 165 173 -328 0
-16 8 -15 -36 -328 331 0
-18 15 170 177 183 195 198 199 0
22 21 23 25 26 240 0
-85 -12 -14 -103 -104 489 0
-24 27 226 228 -324 0
37 34 38 246 265 -324 0
101 -6 102 -105 107 108 109 110 331 578 596 598 600 601 0
-16 15 -34 82 192 0
-40 34 254 262 269 0
-25 7 -8 16 -17 -45 0
-26 231 236 237 238 239 0
-27 26 30 232 240 241 0
-15 11 17 -32 -35 167 180 346 0
-68 -319 387 395 402 0
-262 25 26 27 -215 471 488 0
33 34 35 36 37 246 0
-480 471 488 493 494 0
24 22 23 25 208 236 239 242 0
51 -12 -15 54 59 60 212 0
106 -7 46 101 102 103 104 600 0
-591 11 16 17 19 20 -579 0
-38 -7 252 260 273 278 286 287 -328 0
-362 52 53 60 341 343 376 0
-56 8 -33 -35 219 340 345 348 374 0
-62 381 390 393 394 395 396 397 0
-23 6 -13 -15 219 222 -328 0
-34 36 -38 40 -46 270 274 285 0
-33 35 266 267 -328 0
-324 -15 -142 -328 0
-63 66 399 401 402 0
-106 -63 -66 -82 -83 580 586 591 601 603 0
-46 5 102 103 105 106 601 603 0
-105 6 -7 -8 -45 84 481 490 492 497 564 570 585 0
-199 51 53 57 59 -192 346 0
34 31 38 255 261 262 268 269 0
16 14 15 162 165 169 176 183 0
78 2 3 7 71 -72 73 -75 -319 0
11 17 -82 -83 173 174 180 187 215 -328 0
-58 342 350 353 368 372 375 0
-27 21 28 -67 -69 214 218 0
-105 103 561 585 591 593 594 602 0
53 51 52 -328 360 371 372 375 0
-261 61 -69 -255 -319 0
-360 54 -55 56 57 58 -319 345 0
-271 -8 -34 36 147 283 284 0
-13 -18 25 27 -28 -82 -84 207 226 0
237 21 25 27 -28 211 -220 0
-78 72 -319 432 447 0
-74 -319 429 432 436 443 461 0
19 15 17 20 188 192 195 199 0
-38 39 278 279 282 285 286 289 0
-109 570 589 594 598 601 603 0
-105 562 563 591 592 593 594 595 0
177 -18 -165 183 188 192 195 0
-72 73 429 430 432 436 441 442 0
52 -43 51 56 57 -313 360 0
-26 28 201 220 226 238 239 0
-106 -45 370 480 481 -496 561 599 600 601 603 0
-34 36 38 272 274 275 0
-14 -6 -8 -16 -17 -34 278 -324 0
-52 -1 -5 -45 54 159 345 0
-26 -12 -16 21 23 28 226 390 0
-15 -7 8 -17 0
-22 -18 -19 27 28 -72 -78 217 231 0
84 -1 -8 -12 15 16 -18 -22 25 26 27 -28 -82 132 138 162 195 525 576 0
22 21 25 27 -45 218 237 240 0
84 3 5 -7 -12 -14 86 0
-64 -3 -5 -6 -46 63 68 250 405 0
14 11 15 -16 -35 -45 165 192 195 276 278 0
-1 -5 -45 -52 53 159 349 360 372 0
-52 -1 -45 159 -281 338 345 350 360 0
104 105 106 561 570 582 583 602 603 0
51 8 52 353 357 360 374 377 0
-73 -2 -7 206 435 443 448 449 0
-14 15 16 182 184 185 0
-276 31 34 36 255 277 283 284 286 287 0
12 11 -15 16 173 174 184 185 187 0
-63 -21 -26 123 392 398 400 402 421 422 0
-52 15 -18 -22 -26 -28 -46 58 347 0
-106 573 580 586 591 601 603 0
-20 3 4 -8 -18 36 37 -38 -45 81 84 576 0
-10 -374 0
390 -5 -7 8 -10 -51 52 53 -57 -67 0
36 -6 -7 8 18 38 0
561 -6 -7 -36 -38 103 104 105 0
345 5 -8 51 55 -319 0
-102 51 -54 -82 -83 -104 -319 0
492 72 -73 75 78 85 -319 427 481 0
265 8 -36 252 258 276 -328 0
11 15 17 -83 -84 -85 -328 0
60 8 54 55 56 58 336 0
287 34 35 36 -82 -83 -101 -102 281 286 0
225 21 22 26 27 -28 -68 -69 0
101 -45 102 103 104 -110 0
601 105 106 109 -110 -471 603 -605 0
6 -51 -57 -61 65 68 0
579 -103 106 562 570 578 605 0
566 103 104 105 106 109 110 0
382 64 65 66 381 390 398 420 0
226 21 22 23 27 225 0
340 59 60 341 342 345 346 353 0
370 -60 341 349 353 374 379 0
344 -60 346 347 357 360 374 377 0
374 -60 337 342 346 347 357 360 377 0
229 -29 216 221 234 238 243 0
344 -60 345 365 374 377 379 0
564 102 103 104 106 600 605 0
564 101 102 103 106 585 600 605 0
593 106 107 561 562 570 585 588 605 0
79 71 75 77 80 445 451 0
469 71 -80 442 449 451 457 0
244 -30 205 217 226 235 242 0
280 -40 250 262 269 287 289 0
499 -60 83 -336 359 0
370 -60 336 357 365 374 377 0
483 85 87 88 488 0
506 87 88 -484 488 502 0
585 101 107 108 109 110 570 0
162 12 -18 173 188 192 -331 0
-81 -82 -83 -84 0
167 13 14 16 162 -331 0
168 11 16 167 173 177 183 -331 0
313 61 63 -67 -331 0
43 42 63 68 -331 381 391 411 0
424 -61 381 382 383 386 388 411 0
5 -7 -62 -63 -67 -77 -319 0
-17 -7 -16 -26 -328 0
151 -7 8 18 19 0
377 8 -38 -40 51 52 -328 353 0
377 8 51 52 -328 353 357 360 0
-88 -5 -7 11 17 18 -84 -328 0
228 23 25 -28 201 240 -328 0
379 8 51 52 -328 353 377 378 0
207 -5 -7 -21 25 34 38 255 -328 0
-9 -7 -26 -27 0
-9 -7 -35 -37 0
-30 -7 -10 -57 -58 0
-30 -5 -10 -35 -38 0
-39 -5 -8 -109 -110 0
-73 75 432 435 443 445 446 0
-14 -18 -62 -68 84 86 88 181 0
-264 31 32 35 36 37 279 280 0
18 6 -7 8 -14 16 -17 -24 26 28 181 0
-40 -1 -8 -18 -38 162 188 192 195 488 0
-192 14 15 16 -18 160 175 193 194 0
105 561 562 570 580 586 587 596 597 603 604 605 0
84 -5 18 -26 31 35 36 37 0
37 -22 -23 31 34 38 165 -328 0
-22 -23 31 34 38 165 277 -328 0
-24 6 -8 -14 -15 25 26 0
-56 52 54 340 373 374 0
471 -22 25 26 27 -32 35 37 38 488 0
-60 52 344 356 360 374 379 0
61 -17 -18 -20 62 63 398 411 0
-73 427 435 443 448 449 0
-3 -7 -8 -23 25 26 0
-20 -18 71 72 -78 443 0
-13 11 15 16 165 173 176 0
-105 -12 -14 -63 -66 -83 -87 570 572 585 593 0
-84 2 5 85 136 488 496 0
-36 -7 8 25 27 35 -46 0
-58 59 342 346 354 355 375 379 0
-29 -7 8 16 -17 18 -28 -37 -38 0
-267 -24 -25 -28 84 87 88 0
-62 68 381 392 393 398 421 422 0
259 31 35 38 -255 -328 0
-34 11 -15 16 17 -24 -25 -37 38 165 228 231 238 239 281 282 285 0
-34 -7 8 -24 25 -27 28 38 146 236 271 272 0
-69 388 396 398 399 405 421 423 0
-233 25 26 27 234 235 0
-78 427 432 440 443 449 468 469 0
-62 -17 -18 -22 -28 63 65 393 0
40 -15 16 17 26 27 -28 31 32 34 -35 36 37 -38 247 255 273 0
-374 -16 21 23 24 25 -26 186 191 192 236 0
-19 -16 -24 -26 -34 227 228 231 234 270 281 282 285 0
-238 -16 31 35 -36 186 191 192 255 271 285 0
33 31 34 35 38 258 0
-173 87 -182 480 496 0
277 -8 11 -12 16 17 -18 -22 -24 27 -28 -34 36 38 143 165 -211 212 225 237 0
-105 561 579 585 591 593 594 602 0
-57 8 52 341 353 377 0
-57 8 53 341 346 377 0
-58 -34 -36 -38 52 88 278 342 357 480 0
587 106 561 562 570 593 594 595 603 604 605 0
-29 -28 37 -38 40 -46 278 0
-62 -17 -18 -22 -28 392 393 0
-74 435 450 451 452 453 0
-68 15 16 17 -18 35 -38 162 166 175 195 282 285 387 395 398 0
-67 -7 8 63 68 386 405 406 422 0
-68 -55 -58 -62 84 86 88 192 0
-68 8 -58 -64 -65 342 345 374 377 0
-14 -7 8 15 16 -17 18 -34 36 278 0
-57 8 51 53 54 377 0
-13 -18 -33 -38 -84 260 0
-496 -5 16 17 19 20 -84 135 180 0
-282 31 32 34 35 36 -38 283 284 0
-62 -17 -18 -52 -58 68 392 393 0
-282 -38 250 255 271 276 283 284 285 0
-34 -5 -7 -8 -24 -25 271 0
-360 11 17 -18 21 -24 28 29 -82 -83 192 228 230 -324 0
-13 -18 21 24 27 -28 -82 165 0
-165 1 -8 11 15 16 -18 138 195 0
374 8 -17 -18 -22 -28 51 55 59 353 375 0
-62 -349 -362 381 395 403 404 411 0
390 -1 -6 -46 -62 160 405 406 420 0
-280 11 -15 16 26 27 28 165 180 187 0
-62 -1 -6 -46 160 390 393 405 420 0
-62 -1 -6 -46 160 390 392 393 420 0
424 -5 25 26 27 62 -68 135 382 387 405 420 0
-30 -28 51 52 -58 353 0
-411 -45 51 -55 56 57 58 0
-67 -7 8 62 383 401 422 0
-58 -14 -18 -52 87 88 188 488 0
-36 25 27 28 -34 -38 205 -260 0
-58 25 26 27 51 350 353 379 0
-447 -24 -26 -28 -83 86 88 488 0
-68 -23 -26 -28 -46 387 395 491 0
-63 -83 -87 237 399 400 401 0
-351 -23 25 -28 81 -83 213 214 -215 267 583 0
-58 52 -53 61 62 -68 69 342 353 0
-352 25 26 27 -215 471 488 0
561 104 106 579 581 582 585 594 595 600 605 0
-602 25 27 28 31 35 -36 231 235 255 271 285 0
102 103 105 107 108 109 599 0
-602 -16 21 22 23 25 -26 186 191 192 236 0
-374 25 27 28 31 34 35 37 231 235 250 255 0
-34 -5 -8 -14 16 17 -38 0
-62 67 385 390 391 395 396 397 0
-105 564 575 579 585 591 592 605 0
488 -1 -8 -18 -19 90 162 0
-165 1 -8 21 25 26 27 -28 -83 -170 0
-105 -5 -7 46 572 579 585 592 598 603 0
-62 -22 -26 168 381 391 396 397 0
105 6 -7 46 107 331 561 578 0
34 31 32 35 38 259 283 287 0
-84 -1 -5 -12 -14 -45 51 -55 -83 0
14 11 12 16 189 195 -324 0
17 11 12 15 -16 18 21 25 27 28 0
-86 -35 -36 -54 55 57 -84 278 0
-62 31 34 -38 -82 -83 386 392 393 398 421 422 0
51 57 58 59 60 346 352 355 0
-87 62 -68 -81 -84 147 282 403 404 0
-36 -6 -9 -18 -38 -56 -60 188 192 195 0
84 51 54 81 374 377 379 487 0
166 11 15 17 83 260 -328 0
32 31 34 38 -57 -59 0
487 31 38 40 84 270 281 471 0
453 -2 -5 -64 -66 -74 428 436 450 0
22 7 -15 -17 21 -25 28 480 0
377 8 51 54 56 58 345 360 0
-136 -46 61 64 -65 390 0
455 -80 434 438 439 440 449 0
356 -5 -57 143 -331 339 346 375 0
173 11 12 15 18 -331 0
56 52 -55 58 -313 -331 360 0
362 51 -57 -331 349 0
424 15 16 17 62 63 -331 383 411 0
-195 15 16 17 -331 0
373 15 16 -59 195 -331 -486 488 0
393 61 63 64 68 -331 0
431 -5 -7 -67 -68 72 73 74 75 -319 0
-37 -6 -7 -16 -35 -328 0
40 -7 -26 -27 39 0
46 -5 -7 8 0
-30 8 -24 -27 -34 36 38 0
128 4 -5 -7 87 -137 -480 488 0
575 -5 -7 -24 -25 104 -108 582 603 0
446 -5 -7 72 -73 74 75 341 447 0
102 -5 -7 46 103 104 107 0
102 -5 -7 -8 46 104 105 107 0
-28 -15 -16 -25 0
-109 -6 -25 -26 -106 0
-87 -3 -6 -12 -13 0
-352 21 25 26 -27 28 221 471 488 0
61 -32 35 37 38 -62 64 84 391 471 488 0
-352 21 24 25 26 28 471 488 0
-19 -5 -7 -12 -15 -22 25 26 28 150 525 0
-241 -7 -34 38 -46 150 -227 276 0
-73 -22 -24 -32 -33 432 435 443 445 446 0
-63 -2 -6 -46 205 401 402 411 0
-19 -15 -27 -35 -37 232 236 240 251 255 270 285 0
-19 -14 21 26 -27 -34 -37 -46 219 225 240 -272 277 285 0
-20 -15 26 -27 34 -35 -37 38 232 240 249 255 0
-19 -15 -27 34 -35 -37 38 236 240 251 255 -277 0
80 71 75 76 79 436 446 0
471 -22 25 26 28 61 -62 63 391 488 0
354 51 52 -55 56 350 362 363 0
-214 21 -22 25 27 213 221 227 0
-286 -12 15 16 -22 25 26 -285 570 0
73 -72 74 75 426 461 468 469 0
-73 -27 -28 443 444 445 446 492 0
-105 7 331 572 579 585 593 0
-241 15 16 18 35 36 38 0
-103 7 105 331 570 578 582 0
-105 564 571 579 591 592 593 594 0
103 105 106 570 571 574 587 603 604 0
-24 -14 15 16 -18 25 -27 -34 35 38 -45 0
-381 -22 28 -72 74 214 231 -480 488 0
-491 3 4 -6 -480 0
-62 -1 7 -46 160 390 405 408 0
106 105 107 562 563 570 575 585 589 590 600 0
274 -8 -23 -27 31 32 -34 35 38 40 150 443 0
-37 31 34 38 -255 259 0
-103 105 580 581 582 583 584 0
-103 105 570 580 581 582 589 590 0
104 7 103 105 331 575 0
-229 -14 15 16 -34 35 195 281 282 285 0
-62 -1 -6 -46 160 394 395 411 0
104 5 103 105 331 573 574 575 601 603 0
-103 105 106 570 578 581 582 0
-75 11 -14 15 16 -74 82 195 0
36 -23 26 28 31 38 259 -324 443 0
-20 8 -15 -18 21 22 25 26 -27 218 -240 0
-74 1 4 -5 82 450 452 453 0
-492 1 4 -7 -488 0
-1 -5 -6 -8 -46 -62 82 88 160 282 390 394 0
-14 -5 -8 -15 -17 -24 25 -328 0
-20 4 -5 -18 61 -62 63 65 67 -68 82 0
-72 -1 -5 -6 -8 -73 82 85 88 0
-72 -1 -5 -6 -8 -74 82 85 88 0
1 4 7 82 85 88 135 498 0
604 -1 4 7 -8 104 105 106 -488 492 495 581 603 0
-67 -27 -30 61 62 398 0
136 1 7 -74 75 82 285 495 0
-62 -1 -5 -6 -8 -46 -83 -84 -86 160 0
265 31 34 35 38 259 -324 0
-62 -12 -16 -22 25 26 28 213 381 391 471 488 0
-103 562 570 578 579 580 602 0
-19 -14 23 24 25 -27 28 -34 36 -37 38 201 226 270 -272 0
-374 -16 31 32 34 -36 38 186 191 192 0
-62 -16 -18 392 393 394 484 0
-73 -22 -27 169 427 443 444 445 446 0
51 55 57 59 372 374 375 379 0
107 6 -45 46 104 109 -471 -480 599 0
488 -16 -18 86 88 395 482 0
37 -22 -24 31 34 35 36 -83 -85 0
-20 -18 -28 36 37 -38 -45 207 214 218 233 237 0
-26 -7 8 -27 0
-72 21 26 28 84 218 232 426 436 471 488 0
-196 26 28 31 34 36 232 255 277 -324 0
-68 387 395 402 405 406 420 0
61 31 32 34 35 37 62 64 81 82 0
-298 0
-30 -28 53 -58 338 341 346 347 372 0
-260 75 -255 -319 -337 -339 426 432 461 0
427 75 426 428 435 436 443 461 468 469 0
-64 -35 -36 361 387 391 398 405 421 422 423 424 0
-411 -319 381 382 384 390 393 399 420 0
461 72 432 433 434 443 444 448 449 450 468 469 0
-62 381 390 391 392 396 420 422 424 0
64 62 70 382 384 399 421 423 0
-21 -27 -28 52 53 54 56 -319 0
-62 381 390 391 396 415 422 424 0
-71 -5 -7 73 341 426 429 432 452 0
-68 -18 -20 62 64 387 0
53 52 54 -319 -328 342 376 377 0
-341 -51 336 337 338 376 377 0
-64 383 391 398 409 410 0
-428 72 74 448 449 450 451 453 454 455 0
-341 -51 52 337 338 376 377 0
-421 -7 8 -17 18 0
-341 -51 52 54 56 57 -58 354 376 377 0
64 3 4 -5 62 -82 -83 -313 384 387 421 422 0
-25 26 -28 -33 -35 207 212 228 353 0
-62 -313 381 391 393 396 399 415 420 0
411 -28 -29 -43 62 -313 381 383 398 401 421 422 423 424 0
-78 -28 -30 -72 426 435 436 0
57 -18 -20 52 54 56 354 0
-103 106 561 562 579 581 603 604 605 0
72 -18 -20 71 443 456 457 461 0
-62 -11 -14 -31 -32 63 68 381 391 394 0
-27 21 23 26 30 227 232 241 0
-61 -7 8 381 382 383 384 387 422 0
342 8 -51 52 53 54 56 360 377 0
73 6 -51 -55 -82 313 -319 367 426 432 461 468 469 480 0
-73 3 4 -5 -51 -55 -58 -82 -83 435 443 446 0
319 42 43 0
43 -34 -40 42 585 0
43 -34 -39 42 540 0
43 42 -104 -105 275 0
43 42 -54 -55 -105 -110 0
43 42 -45 -54 -55 270 0
43 -37 -39 42 -54 -57 0
43 -37 -39 42 -64 -67 0
43 -34 -35 42 -45 360 0
43 -34 -36 42 -46 405 0
43 42 -46 -64 -65 271 0
43 42 -62 -70 -102 -104 0
43 42 -84 -85 -105 -110 0
43 42 -64 -65 -105 -110 0
43 42 -52 -60 -102 -104 0
43 42 -53 -60 -103 -104 0
43 -38 -39 42 -64 -68 0
43 -38 -39 42 -74 -78 0
43 -38 -39 42 -54 -58 0
43 -36 -39 42 -54 -56 0
43 42 -74 -75 -105 -110 0
43 42 -73 -80 -103 -104 0
43 42 -72 -80 -102 -104 0
43 42 -63 -70 -103 -104 0
43 42 -46 -52 -56 -62 -64 0
43 42 -46 -53 -56 -63 -64 0
43 42 -46 -54 -55 -75 -77 0
43 42 -46 -54 -55 -105 -107 0
43 -34 -37 42 45 46 450 0
43 42 45 46 -74 -75 272 0
43 -36 -37 42 45 -54 -56 0
43 -35 -37 -39 42 -66 -67 -70 0
43 42 45 46 -54 -55 -105 -108 0
43 42 45 46 -64 -65 -105 -108 0
43 42 45 46 -52 -57 -72 -74 0
43 42 45 46 -62 -67 -72 -74 0
43 42 45 46 -53 -57 -73 -74 0
43 42 45 46 -63 -67 -73 -74 0
43 -13 -15 -17 -22 -27 -30 42 -45 0
43 -3 -5 -7 -21 -27 -30 42 -45 0
43 -13 -16 -18 -22 -28 -30 42 -46 0
43 -3 -6 -8 -21 -28 -30 42 -46 0
43 -3 -5 -8 -21 -28 -30 42 -45 0
43 -3 -5 -7 -21 -27 -29 42 -45 0
43 -3 -6 -8 -21 -28 -29 42 -46 0
43 -3 -5 -8 -11 -18 -20 42 -45 0
43 -3 -5 -7 -11 -17 -20 42 -45 0
43 -3 -6 -8 -11 -18 -20 42 -46 0
43 -3 -5 -7 -11 -17 -19 42 -45 0
43 -3 -5 -8 -11 -18 -19 42 -45 0
43 -3 -6 -8 -11 -18 -19 42 -46 0
43 -13 -15 -18 -22 -28 -30 42 -45 0
43 -23 -30 -31 -34 -40 42 -101 -105 0
43 -13 -15 -18 -22 -28 -29 42 -45 0
43 -3 -5 -8 -21 -28 -29 42 -45 0
43 -13 -15 -17 -22 -27 -29 42 -45 0
43 -13 -16 -18 -22 -28 -29 42 -46 0
-274 -4 -9 0
-595 -4 -9 0
-229 -4 -9 0
-184 -4 -9 0
-274 -135 -144 0
-595 -135 -144 0
-229 -135 -144 0
-184 -135 -144 0
-274 -136 -148 0
-184 -136 -148 0
-275 -4 -10 0
-230 -4 -10 0
-185 -4 -10 0
-10 -4 136 -149 0
-275 -137 -152 0
-230 -137 -152 0
-185 -137 -152 0
-275 -136 -149 0
-230 -136 -149 0
-161 -4 -7 -71 -75 0
-206 -4 -7 -71 -75 0
-251 -4 -7 -71 -75 0
-341 -4 -7 -71 -75 0
-386 -4 -7 -71 -75 0
-331 -4 -7 -71 -75 0
-72 426 435 436 439 440 456 0
-63 62 67 -83 -87 237 382 398 399 0
-74 -5 -23 -24 -73 -319 428 452 0
-73 72 78 -313 432 444 445 452 461 0
53 8 51 54 58 -328 377 0
-62 381 387 390 391 392 421 422 423 424 0
73 72 -319 432 433 450 460 461 0
-73 72 74 -313 432 444 461 0
-73 74 -319 427 432 435 446 456 468 469 0
-73 -52 -55 72 -82 -83 432 443 448 449 461 0
-62 -7 8 -82 -87 192 381 390 391 411 422 0
411 62 64 381 382 390 421 422 423 424 0
73 -58 -59 72 74 -319 431 439 456 0
63 -7 8 62 64 411 422 423 424 0
-62 381 390 391 392 394 395 0
-62 42 43 381 390 394 395 411 0
-72 -17 -18 75 426 435 436 439 485 0
-472 8 52 57 58 374 -488 0
-360 -34 35 36 38 42 43 0
-73 -313 429 432 435 443 446 0
445 -51 -55 71 -73 -81 -83 -319 437 440 446 0
80 72 74 75 77 79 445 0
-74 72 75 -319 428 451 452 0
-72 -1 -7 -27 -28 437 438 439 0
73 -28 -30 72 75 79 432 434 461 0
-65 -34 -36 -46 62 316 399 0
-19 -3 8 -18 -23 25 26 27 -28 0
-72 -17 -18 437 438 439 485 0
72 -28 -30 427 428 432 443 456 457 461 0
-336 -51 52 -328 -339 345 346 350 376 377 0
393 25 26 27 61 -62 392 398 420 421 422 424 0
80 71 72 79 427 443 0
-207 8 -51 54 -215 337 -339 345 374 377 0
74 -18 -20 72 427 444 456 457 461 0
51 8 -328 345 346 353 376 377 378 379 0
53 52 54 -328 336 376 377 378 379 0
-12 -18 24 25 26 27 -28 42 -83 480 0
53 8 51 54 58 -328 352 0
-207 6 -51 52 53 54 56 -61 65 0
-379 15 16 17 25 26 27 0
11 -5 -7 8 15 16 26 -28 38 -55 -84 0
78 -34 -35 -36 73 74 433 434 461 0
-471 67 68 -313 398 411 -481 0
436 426 427 428 435 443 456 457 461 468 469 0
72 25 26 27 73 80 428 456 457 461 0
-72 -62 -67 191 437 438 440 0
-218 -34 38 42 43 -46 277 0
-61 -51 -56 141 384 386 387 0
-26 11 14 16 17 -18 -28 -46 165 0
-354 21 22 -24 25 -43 218 236 0
45 32 35 38 46 250 -313 0
231 21 22 -26 27 29 30 -84 88 243 471 493 494 496 0
231 -3 -7 -14 -17 21 22 27 29 30 243 0
-162 6 -51 52 53 54 56 -61 65 0
-67 61 -62 63 64 -331 0
-11 -7 -8 -18 -61 65 66 0
14 11 15 17 18 165 0
14 11 15 18 45 165 195 0
-488 -84 85 -481 490 492 497 0
23 21 24 25 27 216 217 0
-207 -51 52 57 -237 337 338 0
331 31 34 -36 38 45 255 0
213 13 15 -18 21 23 25 -26 27 -82 -83 195 -237 0
23 22 25 26 27 203 0
-471 -51 56 57 -313 -339 342 -481 0
-377 -7 8 21 22 -23 25 26 218 0
36 35 38 251 259 266 -324 0
220 21 22 25 -26 27 -43 236 -354 0
207 1 2 -8 25 26 -28 215 240 0
78 71 -72 74 75 76 -313 0
-341 -51 336 338 356 376 377 0
12 11 15 -16 17 18 21 25 -26 27 216 217 0
-457 11 15 18 21 25 -26 215 -331 0
71 -62 -66 75 -82 -319 437 439 446 -480 0
-495 11 15 18 195 196 197 -488 0
-215 61 -62 63 64 65 -240 0
-65 -46 -62 63 64 -226 384 0
-27 -7 -26 -28 0
-397 -32 35 42 81 260 281 480 0
-276 34 35 -36 249 255 282 285 0
-76 -62 -66 -82 -84 -313 430 0
71 72 75 76 -84 -88 285 -313 0
-497 -16 -84 135 -141 160 191 192 0
-354 11 15 17 18 -360 0
-295 -328 0
-105 -4 -10 -101 0
-294 -324 0
-486 -268 473 0
-69 61 62 67 68 411 471 0
-90 -410 471 0
-404 42 -398 0
-265 42 -46 -56 348 0
-35 -5 -7 -18 25 26 34 -46 82 0
-69 61 -319 471 487 488 0
360 42 -46 52 -56 341 342 354 0
57 -12 -18 56 -59 84 471 487 0
-75 -52 -55 -82 429 450 471 0
-246 -255 -261 0
381 42 43 63 67 68 411 0
43 61 63 67 68 411 0
-68 35 37 -38 42 62 -267 282 387 0
-267 -38 -39 42 52 -58 342 0
257 36 38 39 42 254 276 277 278 283 287 585 0
42 51 52 55 57 58 0
-338 42 -84 -336 0
-59 56 57 84 342 471 494 0
-59 -58 64 -68 351 -480 0
486 61 63 69 83 471 0
370 42 -60 344 348 377 379 0
-391 43 -62 64 383 0
-201 34 35 37 -38 83 282 0
-89 42 486 0
-54 43 -319 353 -471 480 0
-103 -34 -40 42 -105 585 0
37 34 35 36 81 -471 -481 0
-32 -13 -18 -38 82 0
-130 -6 -84 85 141 471 496 0
-498 -84 86 88 471 503 510 0
313 81 -82 83 0
-87 42 476 484 0
491 -34 36 38 42 -84 86 88 277 313 471 0
132 -31 -38 -84 313 488 0
-6 4 471 -480 -481 482 485 490 0
497 -5 -84 135 -167 471 495 498 0
-426 34 35 36 37 -38 -84 222 -328 0
281 31 34 35 -82 282 285 -324 471 0
-561 34 35 83 281 282 285 0
472 42 480 -488 0
43 -313 471 0
409 43 61 -62 63 -391 405 406 420 0
-6 3 4 471 -480 482 490 492 0
-217 -90 0
-110 42 -83 -84 -85 -105 0
58 43 51 53 56 57 0
489 5 -12 -15 -16 81 -83 0
52 51 57 58 -313 360 0
251 -34 35 36 38 42 259 540 585 0
491 3 4 -5 -7 -480 482 0
-437 61 63 -65 83 -441 471 0
78 71 73 84 -319 -399 -415 436 461 471 0
37 -33 -34 36 38 42 540 585 0
-480 4 7 471 -481 495 498 0
413 43 61 63 66 67 -319 411 0
51 42 55 57 58 -319 345 0
87 86 88 471 -488 495 0
58 42 51 52 56 57 0
-398 42 61 62 64 409 0
-600 472 -480 489 490 -575 0
105 15 16 18 25 28 -480 0
471 5 -13 -16 -84 86 495 0
-102 -105 -106 471 -480 491 492 0
-102 -11 -19 83 -103 -110 486 0
-66 2 -5 -65 -82 -84 88 471 484 496 0
-496 61 63 -66 472 480 0
-54 43 51 -52 58 360 365 371 0
58 51 56 57 -319 345 0
-351 61 -62 63 83 471 0
-360 42 51 54 -55 -319 345 0
-30 -7 8 239 244 313 471 480 0
87 -83 471 489 490 492 0
-319 51 55 -331 345 372 0
150 -7 26 28 82 0
408 43 -64 67 383 398 411 0
491 471 -488 495 496 498 0
-495 -33 -34 36 37 38 42 0
-351 -32 -34 83 177 259 276 473 0
26 6 8 38 -51 83 319 0
-103 -63 -83 84 -101 -104 0
-353 51 52 -55 354 0
43 83 473 0
497 -84 86 471 495 498 0
87 85 86 88 473 490 0
-73 -51 -53 -55 313 -319 445 446 488 0
-345 42 -336 -488 0
-471 42 -488 0
-319 51 -63 -65 -331 372 -480 481 0
-73 -51 -53 -81 -313 -319 0
-2 -8 42 82 207 0
-225 6 -23 -25 -26 -488 0
-494 90 479 486 -488 0
-480 82 0
-403 42 -398 0
-319 -1 -5 43 61 63 67 390 395 0
-319 43 61 68 -331 382 390 402 411 0
-480 83 0
407 43 61 -62 -331 390 395 411 0
-319 42 81 -313 0
-319 51 -331 345 347 354 372 0
-73 -6 42 72 -74 76 136 432 444 0
51 43 56 58 -319 -331 345 0
-319 43 -55 58 62 63 321 -331 345 387 0
87 3 6 85 135 472 -480 0
355 51 55 -319 -331 350 372 0
347 -32 -33 -52 -81 -83 -319 -331 345 372 0
-313 51 -331 336 342 346 348 350 360 372 0
313 81 -82 480 0
468 -72 80 83 426 436 438 439 444 448 471 0
-488 83 0
407 43 61 63 68 -331 390 411 0
365 42 51 -54 -61 -62 364 -488 0
-67 61 63 313 -331 0
82 -481 0
-319 55 -331 340 342 345 372 0
-319 51 53 56 -331 350 471 0
51 43 58 -255 -258 -319 -331 0
-319 55 -331 337 345 372 -471 0
497 4 -5 -7 -82 -84 -488 489 0
-12 -5 -7 -14 -82 -83 -488 491 0
-489 -55 81 339 354 360 -488 0
-221 -227 471 -488 491 496 0
-107 -102 -105 472 -480 483 485 0
-23 -5 -25 -26 -84 495 0
14 -5 16 18 25 -26 -34 0
14 -5 16 18 -26 -34 38 0
36 -34 35 38 42 251 259 -495 0
-62 -33 -38 43 84 222 381 394 411 0
-65 -34 -36 -46 61 -62 64 0
497 4 -7 -84 86 88 490 495 0
497 1 4 -5 -7 -84 -488 495 0
-495 31 32 -34 35 36 37 42 270 0
472 -4 38 -83 -84 480 0
77 43 -73 74 75 76 -319 432 440 -481 0
108 -4 8 104 -105 106 107 109 570 0
-442 -32 35 42 81 260 281 480 0
87 4 7 -84 495 496 498 0
-64 42 -61 -62 -84 0
66 42 61 -62 63 65 313 -331 0
-262 42 61 63 64 81 480 0
-566 42 -87 -561 0
-261 -22 25 27 28 42 81 480 0
-525 -14 -19 -83 473 534 0
-2 -8 89 90 207 -471 -480 0
222 -33 -38 -488 0
-146 -83 85 86 -124 313 471 0
267 -23 -28 -488 0
-6 -7 42 -84 136 -480 490 494 495 0
-27 -23 -25 -84 87 495 0
484 11 13 15 16 -17 18 472 -480 490 0
51 -43 52 55 56 57 0
117 -11 -18 -82 313 480 0
-486 51 -59 -84 488 0
-52 -32 -33 43 -255 -258 -319 -331 350 0
-486 81 -488 0
110 42 82 -102 104 107 -495 -572 597 598 603 0
67 61 62 -63 68 411 471 0
495 7 -82 -84 124 137 -146 0
-495 42 -84 474 482 0
85 -7 -12 -15 -16 -480 0
-336 34 35 36 83 -331 0
87 -83 85 88 473 490 0
231 6 -7 8 28 82 0
393 43 61 63 67 -319 385 411 413 0
491 51 -55 -84 86 88 -480 0
-561 34 -35 36 37 39 -45 83 0
471 51 55 -328 375 -480 0
-589 34 -35 36 37 -38 39 83 -324 0
110 -82 103 -105 106 107 108 109 275 0
185 82 103 -105 106 107 108 109 110 0
-482 -31 -33 -40 -55 84 354 360 0
87 61 62 68 -319 401 471 -480 492 0
-105 -4 8 570 585 591 592 593 594 0
-39 8 -82 313 331 480 0
491 -480 483 489 492 0
313 -82 471 480 0
-32 11 15 -18 19 20 -38 84 191 471 0
278 -38 42 252 260 282 285 540 585 0
-471 51 55 371 372 375 -488 0
496 4 5 -82 -84 85 -488 0
43 308 -313 0
-471 42 82 0
337 -7 -8 -51 56 57 142 313 375 -471 480 -481 0
-486 51 -59 488 0
385 -66 400 472 480 -496 0
-300 319 0
-300 81 0
-487 -89 0
-442 -90 0
-397 -90 0
-352 -90 0
-262 -90 0
-441 -89 0
-396 -89 0
-351 -89 0
-261 -89 0
-216 -89 0
84 -481 0
114 -5 -7 82 85 87 135 0
3 -5 -7 -12 -14 -16 -480 0
484 2 4 -5 -7 -481 482 0
-24 -5 -7 -14 -15 -18 0
-471 -5 -7 -15 -16 -18 -34 -35 -105 0
87 -5 -7 -82 -83 -84 85 135 0
87 4 -5 -7 -84 85 -480 0
58 8 55 -59 0
-20 -6 -7 8 -18 -25 0
586 -6 -7 -23 -26 -104 105 563 0
12 -4 -6 -7 -16 18 25 -27 201 0
12 -6 -7 15 17 18 25 -26 -34 -37 0
-17 -7 8 -16 0
374 -7 51 52 55 353 377 0
-27 -7 8 -25 0
14 4 -7 -8 -15 16 18 105 -109 -324 0
150 -7 -26 -27 0
-286 -7 8 15 18 0
-287 -7 8 15 18 0
-604 -7 8 15 18 0
-242 -7 8 -17 18 0
422 -7 8 63 64 -67 381 0
196 -7 8 -17 195 197 0
567 -7 8 15 18 -71 -80 -161 0
190 -7 8 18 189 196 197 0
164 -7 8 18 -46 165 180 -422 0
-40 -7 8 -14 -17 18 -34 0
-389 -7 8 -11 17 18 -61 -67 0
-29 -7 8 -14 -17 18 -24 0
249 -7 -8 -31 -51 -57 250 0
243 -7 -10 22 25 -45 205 206 207 218 0
36 -7 -14 -17 -34 35 0
599 -7 -34 -36 -106 561 562 570 586 598 600 0
142 4 -7 -12 -13 85 86 -480 0
-377 -7 32 34 35 36 247 0
2 4 -7 -82 85 86 87 480 0
19 -7 18 20 -150 -192 0
389 -7 62 64 150 383 387 399 400 411 420 0
143 -5 -56 -59 0
70 -5 -6 63 67 68 69 340 405 0
40 -5 -8 -26 -28 37 39 0
349 -2 -5 -45 51 54 348 350 0
20 -5 -9 16 17 -18 -25 26 27 30 0
187 -5 -15 -107 -109 -110 0
87 -1 -5 6 14 -15 85 336 480 481 489 0
331 8 -26 -27 0
-29 -5 -9 -35 -38 0
472 42 82 0
30 -6 -7 25 28 -108 -110 0
-344 -6 -7 8 -11 18 -101 -108 0
-101 -64 -82 -102 -104 0
-109 -6 -7 -8 -34 35 -105 0
180 -7 11 -15 -16 -83 480 489 0
339 -6 -7 8 -51 58 60 345 346 353 0
102 -6 -7 -46 103 104 106 0
-12 -7 -14 -15 -16 -83 0
-20 -7 -16 -28 -37 -38 0
175 -7 8 15 -16 -46 160 166 0
192 -7 8 -16 0
353 -7 8 15 16 -18 51 52 -57 -58 0
150 -7 15 16 17 -18 51 60 345 346 353 0
-45 -7 -8 -15 18 -25 -34 0
188 -7 16 -18 -37 -38 -39 0
101 -7 -36 -38 103 104 105 107 0
-21 -7 -31 -37 -38 -40 46 0
286 -7 8 -37 -38 251 255 272 287 0
191 -7 -8 11 -17 -34 -38 165 187 0
108 -7 -36 -38 101 103 104 106 107 0
2 4 -7 -84 85 -146 -481 496 0
-88 -4 -7 11 -14 -83 -84 -324 0
-88 4 -7 -84 105 -108 -473 -488 0
14 -7 8 11 18 165 0
-492 11 14 15 -46 -488 0
151 -7 8 63 65 68 381 391 406 0
246 6 -7 8 34 -108 -109 247 255 0
-4 -8 -25 -28 -34 0
15 11 -16 17 -84 -328 -480 490 492 0
-62 -5 -7 -28 38 -51 -55 -84 0
65 61 62 66 67 398 0
-60 58 336 359 365 374 377 0
-237 23 26 -28 201 226 231 241 242 0
-450 -34 38 42 43 -46 277 0
-56 42 43 -46 52 -63 -64 361 0
15 -5 -7 8 -11 18 34 38 319 0
15 -5 -7 8 -11 18 34 38 255 0
-71 -7 73 341 386 428 429 432 433 434 0
-73 3 4 -5 72 75 -82 -83 432 443 446 0
63 -7 8 -11 16 17 18 -61 62 383 387 411 0
-13 -5 -7 8 -15 16 18 -23 26 0
-387 -11 16 -51 52 56 57 62 63 64 187 353 0
-34 6 11 17 18 38 165 270 -328 0
-337 8 34 38 277 -328 480 -488 0
-54 11 -14 16 17 18 -55 -83 -84 0
-65 11 -14 16 17 18 -64 -83 -84 0
-34 -5 -7 -14 -15 38 -328 0
-387 73 74 75 -385 426 439 461 0
-54 8 -34 38 42 43 -46 -55 315 0
-360 -34 38 42 43 -46 277 0
-32 21 23 26 -34 -35 219 241 242 0
-31 2 4 -5 -35 -51 -52 338 0
-27 -7 -9 15 16 17 -18 -28 -67 -70 0
207 22 25 26 -28 218 241 242 0
243 21 22 25 26 -28 30 219 220 221 0
-65 -51 -55 58 -64 -67 -83 -84 -328 0
-65 -55 57 -64 -68 81 -83 -84 -328 0
58 52 56 57 59 62 64 67 68 82 354 411 0
25 26 -28 207 215 221 228 0
64 -7 62 63 65 66 422 0
-422 8 22 25 26 -28 207 218 0
22 21 24 25 26 221 0
23 21 22 26 225 227 0
-13 -18 25 26 -28 -82 -84 207 241 242 0
135 2 -5 -7 -82 -84 85 87 0
26 -5 -7 8 -28 38 -51 -55 -84 0
-67 8 52 53 54 58 61 62 -328 331 360 361 398 0
105 104 106 562 566 570 574 575 581 587 0
-340 -51 56 -328 -339 341 342 348 353 0
-52 2 4 -5 -31 -35 -51 487 493 500 0
22 23 25 27 29 30 -46 203 0
276 -7 8 -13 15 16 18 -32 38 -46 277 526 571 0
13 3 6 11 15 16 -17 18 114 191 0
-336 8 34 38 -82 277 -328 480 0
8 -5 -7 -28 38 -51 -55 -84 0
31 34 -35 38 45 255 277 331 0
-426 -72 427 429 432 433 434 436 461 0
-54 -51 -55 62 66 -313 391 420 0
52 -51 54 -313 -328 341 342 0
-338 -51 54 346 353 364 365 0
218 21 25 26 27 -32 258 277 471 488 0
64 62 -313 384 386 387 0
52 54 57 58 -313 -328 360 0
-63 61 66 -313 391 399 420 0
14 4 -5 11 15 -16 18 83 85 -328 0
12 11 15 -16 18 19 20 480 496 0
-21 -7 -8 -28 62 65 -313 391 406 411 0
-24 -16 17 18 27 -28 -34 180 -181 225 273 277 0
66 62 63 65 -331 387 420 0
399 62 -63 64 -331 387 -411 0
66 45 46 62 65 67 -313 387 0
-399 11 15 17 18 -398 0
36 31 34 -35 37 38 -313 0
-209 -11 15 16 62 64 67 68 195 411 0
488 4 -8 -21 -28 -84 313 0
-3 -5 -7 -11 16 -17 18 42 43 -45 0
-71 -7 -8 73 428 429 431 438 477 0
-497 106 -473 -481 561 572 579 582 585 593 605 0
-343 -11 15 16 -21 25 26 195 206 0
58 52 56 57 347 354 364 365 0
-344 -11 15 16 -21 25 26 27 195 0
-21 -7 -8 -28 -61 62 388 389 398 411 0
82 42 43 62 -64 0
-181 -16 17 18 -24 27 -28 -34 186 225 277 0
-90 2 -8 25 26 -28 -30 -82 207 240 0
90 2 -8 21 26 -28 30 81 -82 83 233 240 0
60 53 56 57 58 59 346 0
64 62 -313 384 386 387 420 0
432 74 -313 429 430 436 438 439 440 0
-71 -2 -5 -7 -61 -67 78 146 206 341 429 0
-262 53 56 57 58 81 83 342 354 360 0
-21 -11 15 -16 25 26 -28 -51 52 57 191 240 353 0
36 32 35 38 251 -313 0
36 35 38 251 261 262 277 -313 0
105 -5 -7 -8 46 331 561 578 581 587 0
-262 -22 25 26 27 42 81 480 0
-261 -22 25 26 27 81 83 0
-196 35 38 -193 254 262 269 279 0
34 37 38 261 262 268 269 276 0
-591 -105 106 108 -471 592 598 599 0
175 11 15 -16 17 18 -165 0
-385 -5 -7 -8 -51 52 56 -313 360 0
13 11 15 17 18 -34 36 -43 -45 0
-404 31 -33 34 38 82 255 472 0
-255 31 32 -33 34 38 261 262 0
-34 -5 16 18 -19 25 -26 -39 0
-319 4 -5 61 62 -64 65 -82 83 420 0
-336 -51 52 56 57 58 351 352 353 0
-21 -7 -8 -26 -28 -51 52 53 54 0
-60 -51 -53 62 -64 67 68 82 411 0
488 81 -84 313 0
-343 -11 15 17 18 62 63 64 0
-441 -32 81 83 257 258 285 0
72 -313 428 429 430 432 443 450 452 462 0
-344 -11 15 17 18 62 63 64 0
175 11 15 -16 17 18 -34 -43 -45 0
43 -64 -84 -313 0
-56 23 25 -26 27 -51 -52 226 0
107 -5 -7 46 102 -105 331 564 578 598 603 0
-110 -43 52 54 -55 59 -105 0
106 -5 -7 46 101 105 107 603 0
18 -5 -7 8 -26 -34 -35 38 -46 -231 0
-129 61 63 -64 83 -142 282 407 0
-16 -7 11 15 175 181 -328 0
-26 11 15 16 -18 -28 -46 166 176 0
-14 15 182 183 -328 0
87 6 -7 -15 17 18 83 85 -270 -328 0
73 -68 -69 426 428 436 441 442 456 457 461 0
-74 71 73 78 436 451 452 0
28 24 25 30 -33 -39 201 236 533 0
38 -6 -7 -33 39 40 -267 0
52 53 58 59 -319 -328 344 360 0
51 -7 43 -52 53 55 -328 361 375 0
17 11 15 -18 165 166 173 -328 0
-377 -7 8 11 15 -17 149 165 166 173 0
-28 23 27 29 207 215 228 0
-62 3 4 -5 82 135 381 392 394 395 0
-422 8 32 34 35 36 247 0
-313 51 52 -328 360 362 0
25 206 207 214 215 218 240 -328 0
-73 427 435 444 447 448 449 451 0
-276 34 36 284 285 -328 -471 -480 0
-51 58 -328 336 337 338 341 0
18 -6 -7 16 150 161 169 173 0
-56 8 54 374 -471 -480 0
-23 25 220 221 223 244 0
74 -58 -59 71 -73 77 435 456 458 0
57 54 55 336 337 345 374 0
-63 -319 382 390 401 402 411 0
-16 8 -15 -26 331 0
-28 24 27 201 222 233 -328 0
225 -25 -45 52 -54 201 339 340 353 375 0
-324 45 321 0
-34 15 -38 82 162 192 -331 0
-109 -6 -8 -24 -26 570 589 598 601 603 0
599 -6 -7 -24 -26 101 102 103 109 563 592 0
105 5 101 102 103 -104 -331 599 0
-589 103 -104 105 576 598 601 603 0
104 -1 5 103 -331 561 591 598 0
-107 2 4 -6 -102 -104 0
-51 -6 -7 -8 -11 -18 159 161 336 342 343 344 353 0
105 103 104 561 574 576 601 603 604 0
-37 -25 -26 38 281 -331 0
60 -12 -14 59 82 336 354 371 372 375 0
-105 103 561 585 591 594 595 600 0
105 2 4 -6 -7 46 82 -331 561 574 576 586 600 601 603 0
-105 -6 -7 -8 -34 -36 82 185 591 595 0
11 15 17 -54 -55 82 192 0
-11 5 15 -21 -26 -331 0
105 -1 -6 -7 103 104 576 599 601 603 0
-105 103 572 585 591 592 594 604 0
-104 4 5 -84 -102 -105 490 0
-16 11 14 20 165 191 192 193 0
-254 -8 -11 15 16 -18 -21 25 -26 161 0
-74 428 436 443 454 455 0
-35 33 38 257 270 276 -331 0
-15 167 174 180 186 188 -331 0
26 25 -83 -88 243 244 -331 447 0
80 79 426 427 428 436 444 445 446 0
-383 -84 90 -388 488 0
11 5 13 15 -16 18 83 191 495 496 0
71 72 73 78 438 451 457 0
13 12 14 18 161 331 0
-64 14 -15 16 -66 -83 -84 162 -331 0
-252 23 24 26 240 -260 -331 0
74 71 73 77 78 456 0
52 -45 59 337 338 342 353 374 377 591 0
-423 42 -68 69 387 395 0
-26 201 220 226 237 238 239 0
17 16 162 165 167 173 174 180 183 0
-38 34 -82 -84 177 222 252 471 486 494 500 0
22 23 24 26 28 232 0
55 -46 -252 -285 471 -480 0
36 34 35 -38 39 40 -46 55 277 280 287 471 -480 0
-55 -313 339 345 351 360 370 0
68 62 67 -319 383 388 404 411 0
20 11 19 165 166 173 188 195 0
-16 11 168 175 181 0
35 37 38 39 -104 -107 -331 410 0
-11 -5 -7 -8 16 -21 -25 0
36 -8 35 40 147 253 255 273 277 286 0
30 -15 -16 29 236 237 240 0
246 -6 -8 -15 -16 34 -313 -331 0
101 5 103 -105 106 107 -331 571 0
-70 7 340 397 404 410 422 424 0
68 -63 69 381 383 399 401 404 0
56 -18 -20 51 52 57 -319 -331 345 360 0
-34 38 42 43 46 -173 276 -331 0
-68 387 395 398 423 424 0
-62 43 68 -331 381 390 407 411 0
341 -51 58 337 338 339 342 351 352 0
31 32 33 45 46 270 271 0
33 38 39 246 270 271 276 278 287 0
64 -63 65 70 382 390 421 423 0
72 -6 -7 73 -319 386 429 430 0
35 38 259 272 281 -313 -328 0
-52 53 55 336 346 350 371 0
594 -7 -45 46 103 561 563 571 578 -591 592 593 599 600 604 0
-104 103 563 571 585 586 600 601 0
-395 11 14 -18 -84 -480 0
-324 16 18 -31 36 38 165 182 0
103 102 104 107 108 110 598 601 0
31 34 35 36 37 -38 -82 177 0
-68 -58 64 336 357 363 381 382 390 423 0
8 -7 -39 -81 -82 480 0
11 12 13 15 195 -328 0
34 36 37 38 40 84 90 -480 0
18 16 169 176 182 187 189 190 197 0
-26 -8 -15 -34 236 237 -328 0
103 5 -46 105 -328 561 571 586 0
-62 381 390 391 392 393 420 0
62 51 -55 61 -82 -84 -313 383 406 420 0
-65 62 -81 -84 -101 -105 384 399 0
-30 25 26 209 217 218 240 0
-58 -28 -30 51 53 -55 346 374 0
-319 -146 372 375 -472 -474 -480 0
38 34 36 251 255 276 279 280 0
31 34 35 38 255 -328 0
-34 -4 -324 -328 0
38 34 251 255 -324 -328 0
444 -73 76 -319 432 435 -457 0
165 14 161 182 -324 -328 0
-432 23 26 -28 -228 240 -324 -426 0
-73 3 4 5 51 -55 84 -319 432 0
51 57 58 -319 -328 345 0
-73 51 -55 84 -319 427 447 492 0
-456 42 43 -45 52 -55 337 0
211 21 23 -24 25 27 -328 0
3 4 -5 -73 75 84 85 -319 432 0
-38 35 252 255 273 285 -328 0
58 55 57 -328 361 0
-38 247 260 273 278 285 -328 0
-132 -24 -28 161 -324 -328 0
31 34 37 255 -324 -328 0
-471 56 57 58 -319 -480 0
471 84 319 0
81 84 319 0
106 -6 331 561 562 570 585 594 595 600 601 602 603 604 0
-28 84 -324 -328 0
27 28 -324 -328 0
319 -26 -34 84 -272 -324 -328 0
-74 73 77 432 437 451 454 455 0
52 42 43 53 55 57 -328 361 0
8 26 28 313 331 471 480 0
-81 2 4 -8 -342 472 0
-480 -84 -473 0
-280 8 -24 26 28 -270 -328 0
53 8 54 55 58 336 0
-218 1 2 -6 25 27 28 201 0
-201 15 -18 -84 183 -252 -480 0
67 42 43 68 69 381 383 404 411 0
31 33 35 37 38 256 281 0
-59 343 351 353 373 376 378 0
-52 -18 -19 -42 336 348 349 0
68 63 66 69 70 384 391 0
-278 21 -25 26 218 232 -260 0
-71 72 427 428 430 431 432 0
605 104 105 561 563 567 572 573 574 575 580 588 596 601 602 0
-105 564 572 579 591 593 594 602 0
83 -1 -5 -7 85 -106 -107 0
215 8 25 -28 30 -46 207 228 241 0
-375 -58 341 345 362 376 377 0
37 8 -28 -30 31 34 35 -38 255 331 0
104 -1 -6 -7 103 -115 591 594 595 598 599 0
-381 34 36 277 -313 -387 0
-68 -38 -40 63 381 408 0
30 26 29 207 215 222 232 0
151 6 8 31 34 36 39 255 -328 0
-63 -313 382 395 398 399 401 0
-21 -5 -7 -8 26 -31 -35 0
-28 -68 -69 -150 233 237 0
-18 11 16 -36 -38 -46 165 180 182 0
-23 219 220 222 -331 0
429 72 74 76 78 -313 0
75 72 74 76 78 -313 0
353 55 58 59 336 371 374 377 0
-37 31 34 35 -38 39 255 287 -324 0
-218 -34 35 37 38 42 43 0
-59 -45 341 351 358 364 546 0
52 53 54 55 57 374 0
45 34 -36 38 251 259 276 331 0
-236 -6 -240 331 0
103 7 -8 105 331 561 571 588 604 0
67 62 68 382 383 398 411 0
105 -1 -5 -7 -8 103 563 571 602 0
-106 105 565 573 578 596 597 598 0
62 -331 385 387 423 424 -472 -488 -496 0
-7 150 -331 0
-110 25 -29 -104 -105 201 236 237 240 0
-228 -34 39 -233 -244 281 282 285 0
71 -1 -6 -55 72 -82 83 -84 -313 339 495 0
68 61 63 65 67 391 0
-4 -6 -7 -34 35 39 40 0
55 51 58 345 346 353 371 0
-58 -33 -38 -84 -86 278 342 -480 0
59 -22 -24 -32 -33 58 60 371 -471 -481 0
-59 8 -38 278 282 285 337 351 364 0
-493 319 -480 0
65 63 -64 66 -398 420 0
-72 427 428 429 440 441 442 444 450 461 0
-35 8 -18 -20 46 331 0
-59 8 -18 -20 336 337 345 360 0
21 23 24 26 28 214 0
-23 -5 -6 -25 -27 -84 495 0
-61 -81 87 88 381 382 383 386 387 480 0
-52 -328 336 345 346 349 350 0
354 -55 59 60 336 338 346 371 0
-162 25 26 27 -28 -30 -68 218 398 0
67 43 61 -62 63 68 87 88 488 0
-255 8 34 35 -39 252 281 331 488 0
21 8 22 23 24 46 0
23 -7 8 21 22 26 27 46 0
-11 -9 -45 162 164 0
411 386 387 389 390 391 396 398 403 409 422 424 0
386 -46 62 64 66 387 420 -457 0
-77 -84 -87 -101 -104 -313 439 0
17 15 16 -54 -55 162 -488 0
62 -28 -30 63 -331 383 411 0
-4 -8 -15 -16 -34 135 0
27 25 28 238 239 -324 0
-62 383 390 394 395 396 397 411 0
-411 -45 52 56 57 58 353 0
406 62 63 69 389 405 420 0
-28 -43 207 215 218 219 237 240 534 579 0
62 -313 383 384 386 387 405 406 420 0
77 73 74 78 79 434 456 0
-34 -5 -7 -14 18 35 36 37 -328 0
-13 -18 31 35 36 -38 82 277 286 287 471 0
-62 -1 -5 61 63 67 390 395 405 0
-59 51 58 351 358 360 0
231 30 207 208 215 216 218 232 236 243 0
-38 34 35 246 269 278 282 285 288 0
-186 -15 16 17 192 -328 0
218 8 25 -28 30 207 215 233 241 -328 0
-62 70 386 387 390 391 392 396 0
-493 62 -69 386 387 411 -480 0
-75 80 429 436 444 459 0
25 21 28 213 215 218 236 -331 0
37 39 40 252 255 273 276 0
-448 61 62 64 471 -480 488 0
-62 63 68 391 392 393 396 422 0
-73 -53 -54 -313 427 443 0
-173 71 72 -74 76 285 443 480 496 0
-328 -51 52 54 -313 -340 0
-103 4 7 85 88 331 480 -488 492 495 579 582 0
-35 -6 -8 -15 -16 34 249 255 0
75 72 78 -319 427 432 461 0
66 -62 68 -75 -319 -331 395 -480 0
-35 -15 -16 -38 -331 0
-59 31 34 35 -36 37 -56 255 0
17 15 18 193 194 -324 0
-72 73 78 -319 426 439 456 0
-73 -55 -81 84 -319 427 446 447 0
-73 3 -5 7 84 85 86 240 -319 427 491 0
23 25 28 -57 -59 201 226 0
-358 -33 38 266 276 471 488 0
-313 -33 38 266 276 0
52 53 57 59 336 339 359 360 365 372 0
107 -5 -7 -45 46 104 -105 561 562 570 598 599 603 0
480 8 -39 -319 331 -471 0
54 8 55 -142 336 337 345 377 0
108 104 106 109 561 562 570 602 0
-25 6 26 -104 -105 -108 201 233 -328 0
406 63 68 69 394 396 397 405 411 422 0
-337 34 38 -83 246 277 -319 -328 0
25 26 27 207 216 218 244 0
34 38 -62 -63 -81 -82 246 277 -328 0
270 -34 38 -57 -59 281 -328 0
-85 42 -83 -84 103 -105 106 -481 600 601 603 0
76 72 78 -319 427 428 457 0
35 34 37 -52 -53 -82 246 -328 -345 0
-25 8 28 -142 201 219 225 0
-18 16 -36 -38 -46 162 165 183 -328 0
8 15 18 -241 0
-369 62 64 -65 72 73 -75 382 428 0
-5 4 -7 83 85 87 122 -481 0
-586 71 72 73 -74 75 285 480 495 0
101 2 4 -6 103 -104 106 109 110 575 576 578 600 603 0
8 9 -20 -147 -331 0
-25 -5 7 -8 -34 201 219 231 -331 0
-101 105 108 110 565 568 574 578 0
-109 103 -104 576 588 594 598 601 0
30 23 24 25 29 201 237 0
8 18 -242 -324 0
-160 57 59 60 -192 345 360 0
-28 -25 27 201 222 228 237 -240 0
-52 3 -5 -21 -25 -51 135 345 0
-168 -12 15 16 191 193 194 0
33 32 34 35 36 252 0
51 -42 -46 56 353 356 357 360 375 0
-109 -5 -7 -15 -18 571 583 594 598 601 0
-107 -5 -7 -12 -15 561 563 571 578 580 589 592 597 598 601 602 0
-62 3 -5 135 381 392 393 395 421 422 0
-167 -103 105 -188 562 582 602 0
-106 103 104 561 596 597 598 599 0
-496 6 11 14 -15 -84 135 0
-36 8 15 17 -18 276 -328 0
-106 2 4 -5 -10 -82 -84 -104 0
-313 -328 346 375 -471 -473 -495 0
32 31 34 36 37 39 280 0
33 34 36 -38 39 246 277 280 287 -328 0
18 3 4 -5 8 17 174 180 331 336 0
182 8 11 -17 25 30 165 199 -328 0
-81 62 68 -84 -86 421 422 -488 0
339 -51 58 -328 337 338 349 0
38 36 39 254 262 269 277 -328 0
-73 -51 -55 -81 427 435 447 461 -488 0
1 2 4 -5 -7 -25 -26 -81 82 -84 85 0
-9 -5 25 -28 -29 30 36 -38 39 40 237 0
240 21 22 24 25 -28 232 -328 0
59 53 57 60 337 346 347 360 372 0
84 319 472 0
55 52 57 58 59 353 374 0
-2 -5 -7 -8 105 561 562 563 571 597 602 603 0
-56 -16 -20 51 53 58 347 371 0
55 -16 -20 52 57 58 353 0
53 -3 -5 51 52 55 331 346 375 0
-56 -58 -62 -63 -81 -82 374 0
-104 561 578 585 586 589 600 602 604 0
-36 -8 -35 103 104 -106 110 561 0
105 103 104 110 561 601 603 0
183 15 -18 162 165 193 194 195 0
57 56 58 59 60 339 0
62 8 -18 -20 61 331 398 400 406 422 0
68 -7 8 61 65 398 400 406 422 0
-15 6 11 17 -88 135 183 -328 0
-38 -64 -68 -69 278 285 497 0
-38 252 255 273 278 284 285 288 0
-105 7 -45 370 564 572 579 585 601 0
-104 4 7 -105 -108 -480 -488 0
108 7 46 101 102 103 331 0
-136 -105 -147 561 578 591 593 595 0
-16 15 160 165 181 191 192 0
-173 4 7 -182 -480 -488 0
-54 7 -8 -51 -82 -84 -101 103 105 0
-108 4 -6 7 85 -105 -480 -488 603 604 0
-107 15 -16 17 18 -20 -83 -84 -104 -105 0
60 55 56 57 59 345 346 353 0
-6 -12 -14 -87 -480 -481 0
-30 21 27 -56 -59 217 218 233 0
-68 62 -84 -87 282 387 402 0
65 -62 63 66 67 -382 0
15 16 161 162 165 182 183 195 0
87 6 -7 -15 82 85 135 180 336 489 0
-56 -32 -33 42 -81 82 -319 -328 0
-46 5 -6 -7 103 570 571 572 573 585 586 591 0
-28 201 222 228 237 242 243 -324 0
188 -7 8 16 -18 31 34 35 -37 -38 -45 255 0
-5 8 46 -56 -58 62 -66 340 398 411 0
23 22 25 27 28 203 0
-352 -22 25 27 81 215 488 0
59 54 56 57 60 342 345 0
22 24 25 27 28 202 0
-102 34 35 38 -82 -101 281 -324 0
-588 103 -104 105 563 575 599 603 0
-76 -81 -83 -101 -106 -319 438 0
-110 -7 8 -24 28 -45 -105 0
-110 -7 8 -23 -26 28 -45 -104 0
83 313 471 0
480 -6 -7 -23 -26 86 495 0
-86 -12 -14 -105 -106 496 0
13 -7 12 16 -18 162 181 196 197 -324 0
52 51 -319 337 353 358 359 0
17 11 15 173 215 -328 -480 0
-23 8 -13 -15 16 25 26 -328 0
-52 -13 -15 257 336 345 351 352 0
383 -7 8 -28 -30 62 382 398 411 421 422 0
56 -51 52 54 339 343 375 377 379 0
-62 384 390 394 395 396 397 406 0
-32 -23 -28 -38 -84 255 0
66 61 67 68 399 405 421 422 0
432 73 76 -319 435 437 438 439 457 0
61 -46 64 67 68 390 398 547 592 0
-56 8 337 348 361 374 0
104 -7 106 109 561 562 570 593 602 603 0
-18 -22 -28 162 177 183 480 0
-31 26 29 30 -32 -38 42 -84 232 0
-28 26 201 228 233 241 242 267 -488 0
428 -61 -62 67 72 73 -87 -319 383 387 411 427 -431 -484 488 0
25 26 28 206 207 216 217 227 228 -328 0
-26 8 25 201 220 228 -328 0
-15 8 84 85 87 135 180 188 -328 0
27 23 24 25 26 201 0
57 43 54 -55 56 58 -319 337 343 345 352 0
-472 51 59 60 -336 -488 0
56 52 55 337 338 342 353 375 0
-25 -1 -5 26 27 -52 -59 233 235 0
-219 -5 14 16 18 114 135 -331 0
488 88 313 480 497 -564 -591 0
-177 -18 19 174 176 192 199 0
-221 -18 19 174 -177 192 -242 0
62 42 61 399 400 405 406 420 0
14 11 13 16 169 170 0
-37 33 34 -38 -146 246 278 -604 0
432 3 4 -5 72 75 -82 -83 -319 443 446 461 0
-247 72 -267 -319 429 444 461 0
222 25 26 -28 201 -218 241 242 0
-20 -5 -7 -10 -18 -38 39 -46 0
-24 -5 -7 -105 -108 228 -328 0
-12 15 16 20 169 171 0
-22 -12 -18 -28 -29 -82 -103 -110 0
183 11 15 -16 17 -18 -46 61 62 0
-570 34 35 36 -38 286 287 -562 0
22 21 23 25 26 241 242 0
-288 36 -38 39 278 286 0
-165 -84 86 87 88 -101 -102 -328 336 360 374 375 471 0
-33 -38 -82 -83 -319 426 427 432 435 438 456 457 461 0
-36 35 37 -82 -83 -101 -102 246 255 271 276 283 284 0
11 1 -5 -7 15 17 19 20 82 -328 0
-85 3 4 -7 -10 -82 -83 -105 -108 0
-24 25 26 -28 227 229 244 0
-23 -5 -7 -25 -26 85 480 0
16 -5 11 17 19 20 114 135 180 0
27 23 25 -28 29 30 35 -38 -162 282 286 287 0
24 21 23 25 26 241 242 0
-340 -51 -328 336 355 361 0
-427 -434 481 493 0
58 8 54 55 56 60 345 0
-104 4 -7 -10 -84 -108 -480 0
-17 3 4 -7 -11 -12 426 0
-255 -31 34 38 -82 277 -328 0
14 -10 11 13 16 17 19 0
-58 54 60 72 73 74 -78 342 345 0
27 22 24 25 26 30 223 0
13 11 15 16 -18 20 183 196 0
-104 -13 15 16 -108 -110 179 0
14 8 11 13 16 19 -45 197 0
-55 -12 -14 -83 -84 339 347 354 0
-110 8 -108 0
83 8 -39 313 331 0
18 -7 8 17 -324 0
62 61 -81 -83 -84 87 88 -101 -105 420 480 0
-66 61 62 400 406 0
-249 -25 218 233 234 235 -246 0
-249 -25 28 218 231 232 -246 0
342 -58 -319 -336 357 0
-173 -34 38 42 43 -46 277 0
-56 52 -328 355 361 0
-58 -54 61 62 -68 -83 -84 0
-201 24 -25 28 29 30 33 -35 37 38 283 284 0
129 -5 -7 61 62 84 87 135 -319 420 0
105 106 563 570 575 582 588 589 601 602 0
-207 14 15 16 -18 19 20 84 201 0
-471 8 54 57 58 -319 374 -480 0
-84 -7 8 -39 43 488 0
-61 -23 -25 -84 -85 -313 381 386 387 399 0
58 8 51 56 354 360 377 0
-72 85 435 438 439 440 441 442 450 451 490 492 0
-473 -82 -313 -328 346 375 -495 0
55 -319 -328 336 337 338 345 375 0
135 1 2 6 -25 -26 -81 83 -84 85 0
252 -38 -246 273 285 -313 0
-35 8 23 -25 -34 -38 -142 201 0
-43 25 26 28 -53 -57 206 217 579 0
25 8 -28 29 30 207 215 218 -328 0
450 72 -313 432 436 444 451 452 456 457 461 0
-260 21 26 27 28 35 36 37 -38 218 -252 488 0
-433 15 16 -17 35 -38 -161 -252 282 0
-61 51 52 -54 -55 62 -63 -65 82 -360 386 387 411 472 0
-105 -45 370 550 570 585 592 593 594 0
16 15 -37 -38 46 -331 0
56 54 55 83 -319 -331 347 357 0
-471 55 -319 -331 372 -480 0
42 -34 43 270 271 272 540 585 0
-110 -5 -6 -38 40 46 -107 -109 288 0
103 105 106 -107 109 -471 -481 563 604 605 0
102 103 104 105 106 109 604 0
-87 -81 -82 105 106 497 561 562 570 588 605 0
-247 -51 -265 -267 -319 -331 336 0
337 -51 52 55 -319 -331 372 0
-87 -7 -81 -84 -103 105 106 -107 603 0
-59 336 358 364 373 376 378 0
52 -18 -20 51 -331 353 366 0
-220 106 -238 561 562 570 593 594 603 604 605 0
-37 -8 39 246 266 272 287 0
352 53 54 -60 -336 0
-33 265 266 278 -313 0
-448 81 -82 -486 0
-15 14 167 174 191 195 -324 0
102 -8 -45 101 103 105 -324 603 0
-52 7 8 336 338 346 350 354 374 0
51 8 52 -319 -331 336 338 346 354 372 374 0
72 74 -319 426 428 433 444 447 449 460 461 469 0
-61 -331 381 382 383 387 411 0
23 24 26 27 28 201 0
108 -6 101 102 104 106 331 601 602 0
-24 27 -43 225 229 237 579 0
19 12 16 20 174 180 195 0
-65 61 -313 392 405 0
401 3 -5 -63 -313 382 -420 0
-72 -52 -54 -84 -313 437 438 440 0
-45 51 56 57 58 -135 0
102 -8 101 103 104 110 603 0
432 3 4 -5 72 75 84 85 -319 429 461 0
-14 7 -10 -15 -34 37 39 0
-72 -1 -7 45 46 426 437 438 440 0
82 62 -313 385 405 408 413 421 422 0
-51 54 336 337 339 341 344 0
561 -5 -7 46 331 578 579 581 585 587 592 0
-16 160 168 175 181 0
-594 -5 114 122 -143 -585 0
168 -1 -8 -16 161 175 181 331 471 0
-51 -5 -6 -71 -76 142 339 342 385 0
105 7 104 331 570 575 578 582 0
406 61 65 68 69 70 390 0
46 -5 -7 101 103 104 -105 106 107 0
38 34 39 40 -101 -102 -480 0
-58 -35 -38 -40 342 345 496 0
40 31 33 38 39 -135 0
-26 24 29 205 220 233 239 240 0
21 25 26 -218 227 228 240 0
37 31 32 35 -313 -328 0
31 -7 32 35 277 285 -313 -328 0
-33 35 -37 38 265 -313 0
-51 -313 -328 336 338 339 341 0
-72 -52 -57 73 187 426 437 440 450 452 0
76 71 -72 73 74 78 86 485 488 0
166 15 17 20 160 163 165 173 193 195 0
-74 11 14 -15 187 450 452 453 -488 0
-331 -7 103 105 -106 -146 561 563 571 -605 0
-16 11 12 14 15 191 193 194 0
-59 343 351 358 364 0
-62 381 390 392 393 395 396 410 0
-64 62 398 405 406 408 421 422 0
61 -46 62 -226 398 400 406 420 0
-11 8 -9 17 162 164 -328 0
-34 -5 -7 -15 16 18 25 -26 -37 0
-26 -46 213 220 226 231 238 0
-72 430 432 435 436 437 439 462 0
-76 72 75 -319 430 461 462 0
-271 73 -270 -319 426 432 440 0
61 8 62 331 398 400 406 413 422 0
-65 61 -319 392 399 0
-30 28 209 217 218 242 331 0
32 31 33 -34 35 40 281 283 286 0
-35 251 255 270 276 278 -324 0
-31 -6 -8 -51 -56 251 -324 0
-184 -8 -24 25 26 28 -34 37 150 0
34 -6 -8 -56 -57 246 247 255 -324 -371 0
-4 -5 78 -141 426 427 428 435 436 443 0
73 72 75 -338 -342 461 0
-66 -5 -63 105 -106 135 -480 565 0
7 -46 -101 -106 -110 0
338 -51 55 60 336 337 375 0
38 35 36 45 -104 -108 276 283 284 286 455 0
-73 -319 427 435 444 445 446 0
-4 -5 -7 -8 -34 -106 -107 0
71 72 87 240 -319 427 435 445 446 481 490 0
-150 55 -147 -319 336 337 345 0
-393 104 105 -106 -381 -562 0
-11 -3 -5 -8 15 16 17 -18 42 43 -45 0
-17 -6 -18 51 55 -57 -319 345 0
-76 -52 -57 187 430 445 451 0
-63 382 390 398 400 401 413 0
63 -71 -77 146 -319 384 387 392 393 395 0
-63 387 390 398 399 400 401 0
-105 -34 38 -106 -108 -328 0
-218 -23 24 27 203 211 220 222 0
-58 -313 342 350 363 0
23 -25 201 225 -328 -331 0
62 65 -313 -331 381 387 405 406 0
65 -313 -331 381 387 391 395 405 406 0
339 -55 -313 -336 360 0
167 13 14 18 -328 -331 0
11 14 18 165 -328 -331 0
-267 35 -38 265 266 -313 0
29 21 22 24 25 236 239 242 0
22 21 23 25 -328 -331 0
-62 43 -331 381 390 395 407 411 0
-375 -58 -331 342 345 362 0
12 11 14 15 -328 -331 0
-56 3 -5 -21 -25 122 135 -319 -328 345 0
22 23 24 26 28 236 -331 0
22 21 24 25 -328 -331 0
-15 -1 -5 16 165 180 187 188 336 0
33 34 38 246 -328 -331 0
61 63 68 313 -331 409 410 411 0
-55 54 -319 -328 -331 336 342 350 354 0
52 53 54 -328 -331 342 0
390 61 -62 391 393 397 414 421 0
-81 3 4 -8 -82 -83 -252 0
11 12 18 173 -328 -331 0
-129 3 -5 112 120 135 0
-218 -1 2 7 -43 -55 83 -336 432 436 438 439 0
32 31 34 38 283 284 -331 0
-68 -53 -54 -58 -62 -82 0
38 33 34 36 246 -331 0
-445 73 -76 -319 427 435 0
-181 -135 -192 -331 0
-73 -313 427 438 440 443 446 -473 0
498 -84 87 489 495 496 0
-61 -4 7 295 340 386 387 0
260 -38 252 -255 270 271 -331 0
-61 7 -331 340 382 384 387 -488 0
-17 -14 -16 -135 0
11 -8 -16 -135 168 175 0
-18 -5 -7 -8 -11 -21 26 0
-62 61 -331 -381 382 383 387 392 0
-40 -38 61 -331 390 391 398 411 0
-109 -8 -105 -107 -135 0
-108 -7 -105 -107 -135 0
-67 61 -331 390 391 398 0
-37 34 250 255 277 285 -331 0
102 -5 -7 -8 46 104 105 581 603 0
-27 201 220 226 232 240 -331 0
-108 101 106 107 593 603 604 0
-16 -135 -331 -488 -491 0
-28 -12 -18 27 207 220 228 233 480 0
-28 27 207 215 220 228 233 0
-28 207 215 220 228 233 240 0
22 21 24 27 28 220 0
-14 16 17 180 183 0
6 102 103 104 105 -331 561 0
-222 1 4 -8 14 15 -18 192 195 0
109 104 105 106 -107 561 581 596 604 0
-107 -135 -331 -488 -491 0
17 13 14 -15 16 18 19 -104 -106 -488 0
18 11 16 165 180 -331 0
458 71 72 427 443 445 446 451 452 0
62 -6 -7 -8 65 66 398 420 431 476 0
-17 5 -102 -106 -110 -331 0
102 5 45 103 105 107 563 603 0
-7 -6 -135 -331 -488 -491 0
-395 -319 -390 426 427 432 456 457 461 0
-31 38 249 250 -331 0
-31 -81 -84 132 249 250 -331 0
-143 -6 -135 -331 -488 -491 0
102 101 103 -104 105 110 598 601 602 0
-16 -34 82 186 192 0
-12 -7 -8 15 -103 -109 -328 0
-23 25 221 222 -328 0
-17 -26 28 -46 187 231 0
-135 -24 -143 -150 -328 0
83 -6 -8 -84 88 313 387 474 496 0
-409 -74 428 436 443 471 472 480 0
-61 -7 -8 -51 -58 381 382 384 387 406 0
-78 72 73 432 453 0
-289 -18 25 26 27 188 192 195 0
8 -18 -19 -36 -38 46 149 152 0
222 -7 8 21 46 228 238 239 241 242 0
-51 -6 -7 -11 -17 339 342 0
11 15 16 18 -83 472 -488 496 497 0
-17 -5 -7 -8 25 -26 29 30 -34 35 36 0
252 34 -38 -45 255 281 283 284 286 287 0
102 -103 104 105 107 582 598 599 0
-84 55 59 60 342 371 -480 0
72 -73 74 -313 432 446 456 0
-74 71 77 -319 435 450 451 0
-60 -45 58 336 359 365 371 591 0
-104 42 43 275 -488 493 494 586 587 589 601 604 0
-103 4 -6 -10 -82 -104 -107 0
-53 8 -82 -102 -104 336 337 354 374 377 0
-474 106 108 -471 -472 570 587 593 600 605 0
-85 -7 53 56 57 -59 -82 -84 342 346 0
-24 5 25 -34 -37 228 0
10 8 -34 -37 103 -110 -324 571 0
-24 5 25 28 -34 -37 0
-35 8 15 -18 -38 -45 165 183 0
23 21 24 25 28 236 0
-602 8 -26 28 -45 0
57 51 53 58 -328 360 0
270 31 32 37 -313 -328 0
376 -28 -30 -328 336 337 338 345 346 353 377 0
161 12 13 14 16 18 0
182 15 18 161 165 -328 0
192 -14 15 16 -181 -328 0
158 12 13 15 17 -328 0
339 -51 58 -328 341 0
278 31 32 33 37 -328 0
174 3 -5 16 17 18 336 -456 0
389 62 69 -313 382 405 406 420 0
122 -5 -84 -86 135 488 0
255 -5 -8 -11 -18 34 36 37 0
-483 4 -5 -480 -481 0
-1 -5 -63 -66 -480 0
580 -1 -5 -82 -87 -106 586 591 0
389 -5 -62 63 67 68 69 82 -270 405 0
70 -5 61 -62 65 -67 69 82 135 400 420 0
421 4 -5 62 -63 -64 383 405 408 422 0
4 -5 -63 -64 -66 0
19 -5 16 17 20 135 180 -219 336 0
141 -5 -146 0
141 -5 -51 58 -61 -66 336 337 338 0
159 -1 -5 54 59 60 337 345 0
3 4 -5 84 -86 0
1 4 -6 11 15 -16 17 18 -23 -24 0
-10 51 52 54 -56 0
267 -6 -8 -28 -51 -56 -83 -84 215 225 240 0
196 -6 15 16 -56 -57 -195 197 0
20 -9 18 -45 0
39 -15 -16 -20 37 38 0
328 31 32 36 38 -313 0
31 34 35 37 38 -313 0
250 35 37 38 -255 -313 0
246 -32 33 34 38 -255 -313 0
32 31 37 38 -313 -324 0
191 -17 -26 -35 38 -45 0
258 -23 -26 31 34 37 38 255 398 0
-208 -31 35 37 38 -61 63 64 381 0
264 31 -35 257 270 0
254 32 33 34 38 39 0
-43 31 32 -35 38 277 331 0
212 11 15 16 17 19 27 -30 209 239 0
284 35 37 38 283 0
286 35 38 40 250 255 271 0
253 34 35 36 38 40 261 0
90 34 35 38 -39 84 281 471 0
261 -32 34 38 246 255 262 0
255 31 34 38 -67 -69 0
268 34 36 37 38 40 261 0
268 31 34 38 40 255 261 0
-43 -12 -14 36 37 38 246 0
257 37 38 249 270 283 284 0
269 32 37 38 249 268 271 283 284 0
279 38 -39 251 261 268 271 0
268 31 38 40 261 276 277 281 0
-54 51 -63 -64 -319 0
432 7 -14 -15 72 73 -319 0
432 7 -24 -25 72 73 74 -319 0
-71 -54 -72 -81 -84 -319 353 0
485 -17 -18 71 73 75 -319 438 0
-370 62 -65 73 -75 437 -473 -488 0
492 85 86 87 471 -480 0
-31 -13 -17 -33 -37 -74 -319 0
-75 -55 -72 -73 -83 -319 0
-347 52 -55 -319 336 345 0
354 -55 -72 -75 -81 -82 -319 0
-71 -55 -63 -65 -73 -82 -83 -319 0
17 -7 8 15 18 0
364 8 15 16 17 -18 -59 337 351 0
10 -7 8 72 73 74 -101 -108 0
215 6 -7 8 25 82 150 207 218 240 0
22 -7 8 -18 -19 21 23 25 -27 -28 0
112 3 -8 125 128 -132 0
384 -7 -8 -21 -28 -61 63 381 406 0
476 -7 -8 83 85 432 486 496 500 0
191 -7 -8 -17 -23 -24 -28 187 426 0
-177 -7 -17 -18 -19 -23 28 -324 0
30 -7 -9 26 27 28 0
594 -7 -9 -14 -17 -105 561 579 587 591 0
-46 -7 35 -36 -107 -109 0
525 -7 -10 -12 18 -22 28 -45 0
45 -7 -9 46 0
70 -7 -9 -31 -39 62 68 398 411 0
423 -7 62 150 386 387 388 389 398 411 422 424 0
1 3 -7 -103 -105 -107 -146 0
570 101 104 105 108 109 331 0
101 -7 46 103 104 105 106 0
276 -6 15 18 -36 38 -328 0
277 31 34 38 255 -328 0
286 -8 -17 -18 36 38 -277 287 0
-377 21 22 26 -27 28 35 38 225 281 -328 0
376 51 58 -319 -328 345 360 377 0
-208 8 -11 18 -206 -328 0
57 -18 -20 51 52 -328 353 0
375 51 54 55 -328 337 345 353 0
188 16 -18 51 55 57 60 195 -328 372 0
24 -25 -26 28 -55 -313 -328 -336 480 0
285 -33 35 -313 -328 0
342 52 56 57 -313 360 0
376 52 54 58 -313 -328 336 354 377 0
138 5 -82 -83 -84 85 86 -328 0
286 -8 -17 -18 -37 287 0
207 22 23 25 26 27 0
-173 25 -182 201 207 215 240 -328 0
211 25 28 206 221 236 -328 0
-81 34 35 37 -62 -63 -82 -328 0
376 -51 52 337 340 342 360 377 0
141 -105 -108 -109 246 247 255 -328 0
162 15 17 -328 -353 -360 0
177 15 17 162 183 -328 0
51 56 57 58 -59 -82 471 0
-4 -6 -7 -10 -34 35 39 0
104 -6 -7 -27 -29 105 106 108 109 -110 331 570 0
-24 27 -58 -59 225 226 0
86 1 -6 -7 11 -14 17 -83 -84 -324 480 489 495 0
-11 15 16 -17 162 163 197 0
28 8 -45 82 -602 0
55 8 -59 342 345 346 353 0
28 8 -45 -101 -107 -110 0
32 34 35 39 247 281 284 287 0
28 -7 -10 -45 201 223 226 227 236 0
36 34 35 37 -38 39 254 -313 0
-24 -30 42 -104 -105 579 0
-25 8 -45 207 215 218 0
-52 34 35 -38 39 40 -58 -82 -83 281 0
-29 26 208 214 223 229 234 0
21 8 23 24 29 30 -45 0
-253 56 57 -59 -82 -252 471 0
58 8 -59 -82 339 471 0
31 34 39 40 -45 255 281 0
-38 8 34 -45 -59 252 255 546 0
55 -7 8 51 53 -59 -84 472 0
-45 8 -59 -110 0
13 12 14 16 19 20 195 0
40 35 37 39 -51 -52 -81 -83 271 0
191 8 -16 46 162 165 181 193 194 0
175 15 -16 162 168 181 -331 0
-68 -58 -59 382 383 395 398 0
61 4 -5 -62 63 65 68 82 411 421 422 0
-71 426 427 428 430 432 457 461 0
-14 -5 -6 -105 -107 183 -331 0
-65 64 384 392 414 415 0
-62 65 66 381 395 396 398 422 0
-70 -62 -68 -80 428 449 460 461 0
66 62 65 -331 381 382 383 398 0
-71 426 427 428 429 433 461 469 0
-455 42 61 62 -70 0
-4 8 -230 -595 0
-65 62 384 398 414 415 0
61 -58 -59 62 65 -331 398 0
73 -58 -59 75 426 450 453 454 455 461 0
-68 -58 -59 61 62 398 0
-68 51 52 56 57 -58 -59 62 82 408 0
273 -7 8 31 -38 39 40 255 276 -328 0
-30 -5 -7 -10 -28 -38 39 -46 242 0
-103 52 -55 56 57 58 82 -105 0
-65 382 383 392 398 414 415 0
218 21 25 28 30 214 216 241 0
61 65 67 -319 395 398 399 400 420 0
5 8 45 0
62 -7 8 -58 -59 382 383 398 411 422 0
-105 8 -55 -59 82 104 -110 0
70 42 -62 65 66 67 69 -84 382 0
66 8 -10 61 62 64 65 398 0
-107 8 -106 -110 0
-71 -52 -53 -81 427 428 430 431 432 471 0
31 7 34 260 -313 -331 0
-40 254 260 269 280 284 287 0
73 72 -319 428 434 459 461 468 0
58 51 56 57 -61 -62 -81 82 0
-69 62 66 414 421 423 0
-75 51 52 -55 73 82 426 459 460 0
-472 62 69 70 82 471 0
62 61 65 -313 408 421 422 -472 -488 0
-106 -5 8 -101 -110 344 0
77 72 73 75 80 432 433 468 0
-101 72 73 -74 82 -103 -410 0
68 -7 8 62 65 382 383 398 422 0
354 43 51 -55 56 58 -319 349 0
-40 -7 8 25 26 -28 -38 -57 -58 0
411 67 68 -319 381 386 387 389 396 397 398 401 403 424 0
-226 -46 61 64 -65 390 0
-18 25 27 29 30 -46 188 195 0
-65 -46 62 -271 383 399 0
71 78 -319 436 441 444 447 449 460 461 0
-58 51 -319 350 357 0
-2 -7 -8 11 15 16 138 -165 195 0
-72 42 43 -102 -104 426 435 441 0
33 31 32 35 37 39 284 0
-489 52 55 -339 371 372 375 -488 0
-344 -5 -11 -141 147 161 162 -340 0
-25 -12 -15 204 219 234 235 237 240 345 0
-72 -82 -88 195 426 435 436 438 457 0
-480 11 16 17 -18 180 -395 -488 0
-68 -6 -8 63 408 423 424 476 0
-480 11 16 -18 87 180 -395 473 483 -488 0
-87 72 75 76 78 426 -488 0
15 11 16 18 86 87 471 -488 0
495 7 11 14 -15 -17 480 -488 0
-51 52 340 342 353 354 360 376 377 0
6 -7 11 -15 16 18 82 -84 87 0
-495 7 -105 331 -481 -488 -498 0
-55 42 43 -45 -225 336 337 345 0
-33 -37 38 249 255 265 270 -313 0
-51 6 336 340 342 354 360 430 0
36 -5 -7 16 -17 18 25 -26 37 -38 252 260 278 0
-34 -5 -7 -8 16 -17 18 25 -26 -38 0
-489 8 -55 -328 336 368 376 377 -488 0
-38 34 252 260 278 282 285 0
-374 7 11 -16 17 147 170 175 0
24 23 26 201 207 215 -331 0
-313 270 271 276 -331 -381 -387 0
-34 -5 -6 -75 -77 273 -331 0
105 7 331 561 573 578 582 588 602 0
227 25 201 207 215 218 221 237 -328 0
-182 11 16 17 165 169 176 189 190 0
-26 -83 -87 201 220 226 238 239 402 0
-388 -11 16 18 -71 161 426 427 428 0
-389 -11 15 16 -71 195 426 427 428 0
-388 -11 15 16 -71 195 426 427 428 0
-4 5 -15 16 -25 -34 0
-73 432 435 443 444 445 446 0
-219 -34 -225 281 282 285 471 497 498 0
-282 5 -16 0
-411 -43 -45 51 -55 336 346 0
-198 25 26 27 35 -38 282 285 0
59 -33 -38 51 56 57 60 -82 342 0
-385 -86 90 -388 488 0
-68 -18 -20 62 387 398 0
-60 344 352 353 374 377 379 0
-60 336 359 365 374 377 379 0
-63 51 -54 62 67 -319 389 402 403 411 0
-216 31 35 -38 84 -215 282 285 471 0
12 5 8 -16 -34 35 -38 0
-63 42 68 -313 401 411 -488 0
-59 8 25 26 27 -45 546 0
-60 52 56 344 359 377 379 0
51 52 -313 346 360 371 372 375 0
52 5 -8 -21 -28 -313 342 360 0
-262 -1 -8 -23 26 27 -28 -84 -218 219 -256 471 488 0
62 66 -313 386 387 405 406 420 0
-351 21 24 25 26 27 -32 35 260 281 0
-52 56 57 58 81 83 -217 346 354 0
-351 -22 25 26 27 81 83 0
55 -313 340 341 342 346 371 372 375 0
64 -2 -6 62 205 -313 388 389 0
-561 103 -104 105 109 110 -313 0
51 -43 -45 -270 336 346 371 372 375 0
-38 5 -6 -7 -8 -31 52 -313 360 0
-21 5 -8 -28 -51 -82 -84 -85 0
248 33 -34 35 38 -246 281 0
-16 5 -28 -43 -422 0
-52 -32 -36 -84 -87 336 345 351 352 0
563 102 103 -104 105 109 599 0
-4 5 -34 35 -107 -109 0
-57 -7 8 -17 18 -38 -39 -58 0
342 52 54 -58 -337 0
-88 -5 -7 11 16 18 82 188 0
26 23 25 27 208 209 216 217 0
32 34 37 38 -255 277 -328 0
-51 58 336 337 340 341 360 0
-65 -4 -6 -46 62 398 0
-61 62 386 387 388 389 398 411 0
109 101 103 106 108 571 602 0
105 103 106 109 571 578 600 602 604 0
-267 -7 8 51 54 56 -260 353 377 0
-167 -83 87 -187 471 489 0
488 -72 -78 85 87 195 483 0
18 6 8 17 -280 0
-599 8 -35 38 -46 276 277 0
-7 1 4 124 131 0
-17 18 187 191 196 197 0
167 -6 11 14 -15 -165 0
-482 5 -8 -31 -38 -313 336 372 375 -481 0
207 201 215 218 219 220 225 226 231 -331 0
64 7 -43 46 62 -313 -331 340 384 0
-426 -71 73 76 429 439 440 0
13 12 17 18 163 164 168 186 0
-61 -319 -331 381 382 384 387 0
65 61 66 -319 -331 387 390 0
-65 -52 -55 61 -319 392 -480 0
-420 -68 -331 387 390 407 0
-2 -7 45 46 72 -73 427 443 0
-218 1 2 -5 21 -25 26 215 232 0
-105 -8 -42 -82 -85 564 579 585 603 0
-471 -82 472 473 0
182 4 -7 15 16 -17 18 426 -588 0
58 8 51 53 -328 346 377 0
62 61 66 -319 -331 413 0
353 -42 -45 51 58 342 371 -456 0
-488 81 481 499 500 0
72 -61 -65 -66 -81 -83 -84 240 -319 427 429 430 432 474 0
-8 1 -7 -81 82 -83 -84 86 87 -162 0
77 -61 62 -71 72 73 -319 382 420 426 432 0
-46 -42 51 58 341 353 -371 0
105 7 46 331 -471 -480 562 567 571 575 582 603 0
57 58 -319 337 366 -471 -480 0
-331 -61 62 63 -319 -386 0
-5 -8 -81 -83 -84 114 135 -162 0
56 -51 53 55 59 342 346 352 365 0
28 -7 8 29 142 209 217 218 238 241 0
-64 4 -5 -34 -36 61 62 -63 316 409 410 420 0
105 7 106 331 -471 -480 -485 587 598 601 0
3 -5 -63 -66 72 73 78 -82 -83 -141 -319 0
-106 7 105 331 573 580 588 0
399 61 62 -319 -411 420 0
72 6 -319 341 427 431 432 444 445 446 0
-11 -7 -8 -51 -57 160 161 -324 0
-25 -5 -8 26 -45 232 0
25 -7 8 15 17 26 -34 35 37 -38 82 -328 0
-62 67 390 392 395 396 397 406 0
17 15 162 170 177 -328 0
197 11 13 15 16 -82 -83 192 196 215 0
-177 -23 25 -195 -328 0
68 2 3 -5 43 61 -62 63 67 390 0
-105 -6 103 104 331 564 574 575 591 600 601 603 0
-393 -62 387 394 396 397 400 406 411 0
-75 45 46 72 -73 -137 427 443 0
-244 -28 30 235 239 242 0
-61 -63 66 -71 -77 146 387 399 0
52 -319 337 338 339 353 354 371 372 375 0
-72 -319 426 435 437 440 461 0
4 3 -5 7 72 -82 -83 -319 429 432 450 458 0
190 14 -15 18 19 169 176 186 0
-324 -15 169 176 180 186 188 0
-28 23 25 170 228 237 240 -480 0
87 -5 -8 -58 85 -143 -480 -488 492 0
-240 25 26 27 -28 206 221 227 -328 0
101 103 106 108 110 571 601 602 0
-27 26 206 221 227 232 241 242 0
-377 12 13 14 16 35 36 38 162 0
-59 25 26 -28 -58 206 221 227 0
101 -6 103 106 108 331 571 601 602 0
-109 -7 -8 21 25 -27 28 -104 -105 236 0
28 24 25 26 206 221 -328 0
-73 3 4 -6 -7 -11 -17 76 136 443 447 -480 0
-27 -57 -59 232 236 240 0
39 34 35 36 251 254 255 277 280 287 0
109 4 7 102 103 -105 106 107 110 -480 -488 0
-498 7 105 331 -480 -488 0
-85 -46 -101 -104 341 342 371 372 375 -481 -488 0
-57 -17 -20 341 349 353 359 365 0
-105 -55 -60 103 324 564 571 592 593 594 0
106 5 -6 -7 -46 103 105 570 571 603 0
-102 34 38 -101 277 -328 -480 0
-20 11 14 -17 -83 -84 -85 -105 -108 0
-251 -58 59 -287 -342 345 363 368 372 0
-375 34 -38 -51 55 56 255 278 282 0
-56 7 -46 55 331 371 0
38 35 42 45 251 255 259 281 331 540 585 0
105 7 -15 45 331 -480 -488 0
-4 7 -15 45 331 -480 -488 0
-38 34 252 255 278 282 286 289 0
-35 34 -37 38 249 255 276 280 286 0
78 -72 73 74 75 433 434 461 0
56 55 59 60 345 346 353 372 375 0
-63 65 66 -319 382 390 401 0
-65 -84 -102 -105 384 392 -480 0
73 72 80 428 433 454 0
-62 392 393 394 395 0
-57 -51 -58 62 64 65 66 0
-25 -5 -8 21 26 -104 -105 -109 214 233 0
104 7 -15 45 107 331 -480 -488 591 0
28 22 24 25 221 -328 0
-14 -15 17 18 184 185 186 0
-74 4 7 72 -84 -88 285 449 450 -480 0
78 -3 -5 -6 73 74 -104 -105 426 461 0
-18 15 -58 -59 192 195 0
-2 -7 -8 11 15 16 173 0
-21 -5 -7 -8 -11 -18 205 0
11 6 8 -26 -28 -46 165 166 173 188 0
429 -5 72 74 -313 341 432 0
77 72 74 76 -313 458 0
51 -313 -328 346 347 350 360 363 0
21 -24 25 29 30 211 218 240 0
78 73 77 -319 426 439 456 0
-45 42 43 51 -55 345 -456 0
75 -1 -5 72 84 85 -319 432 461 0
31 32 33 35 36 -331 0
-57 -331 341 345 362 0
-84 4 -6 -74 -77 -480 0
-62 -22 26 27 28 381 390 391 471 488 0
23 24 26 28 201 -331 0
212 21 -23 24 -25 26 28 227 -331 0
-25 -12 -15 46 204 218 231 233 345 0
-28 201 228 233 237 240 267 -488 0
495 4 5 -142 471 -480 -488 0
-267 -33 38 278 282 285 0
-37 251 255 272 277 281 285 0
-16 160 165 181 186 191 192 0
-15 159 165 180 186 187 188 0
61 4 -5 62 -84 -313 391 392 398 405 420 -480 0
-488 -141 -146 -336 -480 0
68 43 -319 -331 381 382 390 411 0
-405 -34 37 38 42 43 276 0
-16 17 160 175 181 186 191 192 0
163 -11 15 164 191 192 195 0
33 32 34 35 250 -331 0
62 51 52 58 -141 -319 -331 353 387 0
-25 201 219 225 231 233 -331 0
28 25 27 238 239 -331 0
123 1 4 -6 -16 -17 -81 -84 85 -141 488 0
68 -61 62 64 65 -331 386 403 404 0
56 58 -313 -331 346 347 360 0
77 -72 74 75 -313 429 430 432 451 462 0
22 21 23 -26 28 225 -331 0
52 54 -146 -313 338 339 372 375 0
51 8 -66 -68 -313 -331 346 347 360 506 0
-24 -4 -25 -28 45 0
-216 -62 67 83 385 390 391 395 473 0
-68 64 383 395 398 -408 0
-51 57 -313 336 340 342 360 0
-15 162 167 174 180 186 -331 0
-71 5 74 386 426 427 432 456 0
-62 59 60 313 -331 395 411 -471 0
12 11 15 -18 19 20 21 25 -28 191 237 240 0
12 11 -15 -16 18 19 20 480 0
177 11 15 17 -18 19 20 -165 0
-25 -8 -16 -18 23 27 204 212 233 0
-21 27 28 204 205 0
24 21 22 26 28 222 -331 0
31 34 35 36 37 51 55 -331 372 0
-488 51 59 60 -82 0
-43 -57 -319 -331 0
-14 16 17 -25 -34 -35 36 37 38 231 232 233 0
-62 390 391 392 393 396 397 420 0
-231 -5 -23 -25 480 495 0
36 -22 26 27 28 -32 35 37 -38 81 -82 480 0
22 21 25 -26 27 29 30 -84 88 236 471 493 494 496 0
-353 -33 -35 51 59 60 219 0
-218 -33 -34 36 37 38 42 0
-33 -32 -51 -83 89 90 343 344 0
-38 11 -18 21 25 26 27 -28 -32 -36 188 195 0
61 -5 -24 -26 62 67 84 129 135 310 -319 0
-57 -56 -331 0
-391 42 43 -62 63 -84 383 405 406 420 0
-269 -90 471 0
-450 -34 37 38 42 43 276 0
-31 -51 -54 129 250 252 -331 0
-16 17 160 180 192 -488 -497 0
-129 16 -143 162 166 167 180 -331 0
-7 16 -17 -143 -331 0
-142 16 -17 -331 0
107 102 103 105 106 563 571 0
-34 42 43 -142 -150 271 540 585 0
-195 13 16 17 -18 162 182 -331 0
-54 -319 -331 -480 -488 0
108 101 104 106 110 570 601 0
104 101 105 106 570 601 0
105 101 106 570 571 578 601 0
-68 61 -87 -319 -372 -480 0
-68 -58 -59 62 387 398 0
271 38 249 250 255 277 278 279 280 -331 0
-160 -11 16 17 18 168 175 181 0
25 -5 14 16 18 28 -34 -331 0
84 81 -104 -105 275 471 0
-26 -5 -8 14 -15 16 18 -34 0
-405 -34 81 84 270 271 272 0
-341 -51 -52 53 57 58 59 347 362 377 0
-63 3 -5 82 -313 382 395 401 0
-64 -61 -65 83 -84 -313 -331 336 372 0
-62 3 -5 -63 67 -313 381 395 0
51 61 62 -82 -84 -313 -331 346 372 383 406 420 0
-38 6 14 16 18 -34 -331 0
-270 -34 35 -271 278 279 280 0
-63 -5 135 -313 382 390 405 420 0
-72 429 430 432 435 436 439 456 458 462 0
72 -313 429 430 432 450 451 452 454 0
451 72 -74 -313 429 432 436 452 458 0
452 72 -313 429 430 432 436 456 458 462 0
8 -7 17 18 -146 0
-62 63 65 381 395 407 409 410 421 422 0
13 11 14 16 17 188 0
-72 -319 426 435 440 456 457 461 0
432 -1 7 84 -319 429 440 444 0
56 55 -319 338 341 342 345 353 375 0
-22 -12 -19 26 30 214 215 525 0
-220 -23 26 236 237 -324 0
-494 34 -40 254 -480 0
-87 71 -77 -82 -83 -319 0
-491 71 -77 -319 -480 0
73 76 77 78 -319 426 0
-8 51 55 143 -319 345 0
-51 -46 55 341 342 0
426 6 73 78 -319 341 439 456 457 0
-398 42 -63 64 383 0
36 -7 8 38 39 40 0
40 31 36 37 39 255 270 0
-51 -5 -8 -328 336 337 341 360 475 0
-63 67 381 383 402 403 404 411 0
-572 61 63 -319 420 -591 0
-61 -319 381 382 384 385 387 0
-61 -7 8 381 382 383 387 411 422 0
-260 51 -58 -255 -319 0
-104 42 43 275 563 571 578 589 597 602 0
72 76 -319 427 428 432 447 457 0
215 11 17 -18 21 25 26 27 -28 -82 -83 0
59 52 54 56 57 60 357 -471 -481 0
-564 -101 104 110 572 580 581 593 594 596 0
-341 -51 52 54 56 57 356 375 0
-20 -7 8 -16 46 -51 0
28 25 26 241 242 -324 0
-57 8 56 58 349 356 360 377 0
-341 -32 34 35 36 -51 -83 89 90 337 338 376 377 0
14 11 15 16 165 189 190 196 197 0
457 73 76 -313 426 432 440 450 452 461 0
-107 105 566 574 578 596 601 0
-73 -313 426 432 440 443 444 461 0
-7 150 151 152 0
-396 35 37 -38 83 258 -260 473 0
-78 -38 -40 74 427 440 0
432 4 7 72 75 130 -319 429 436 443 -480 0
-76 3 4 -5 -74 -82 -488 0
18 14 16 164 165 169 176 189 -331 0
55 -18 -20 51 56 60 375 376 0
31 7 260 270 271 -313 -331 0
-73 74 -319 427 -443 0
-78 73 74 426 468 469 0
-326 -51 -319 -328 -390 0
37 39 40 276 278 282 0
71 -54 -58 72 75 -83 -84 -319 461 0
-58 53 -319 342 350 0
72 7 -34 -35 74 78 427 0
150 -8 -71 -78 85 90 486 488 0
-218 -34 38 42 43 45 46 276 0
-420 62 65 66 67 -331 401 0
14 11 13 161 162 167 168 -331 0
28 -7 8 25 -46 82 0
-340 -6 8 -36 46 282 -313 -336 0
-341 -10 38 39 266 276 -336 0
108 -6 -84 102 107 109 110 -488 494 499 563 0
-27 201 221 225 226 231 240 -331 0
25 23 28 30 201 221 226 240 241 0
374 55 57 59 -331 337 338 345 350 353 0
-24 23 27 29 209 217 225 228 0
110 -6 -84 102 106 107 108 -488 494 499 563 0
-4 -5 -6 -34 -107 -109 -141 -331 0
108 105 109 110 561 562 596 0
104 103 105 108 109 561 596 603 0
-123 101 -103 105 108 109 -141 -570 578 0
-30 -5 -10 -103 -109 143 231 242 494 0
-10 7 31 34 37 39 255 0
-28 -81 -83 125 215 222 228 240 0
-273 -34 38 40 276 285 288 0
-110 550 561 578 599 602 604 605 0
37 38 39 -54 -60 276 284 586 0
-108 1 4 -6 82 -88 105 567 575 0
107 105 108 562 563 573 578 605 0
-488 -82 -473 0
-68 62 65 -319 -331 387 417 0
58 42 52 55 57 -313 338 0
-66 62 -74 -76 -81 -84 400 406 0
-77 2 4 -74 -82 -84 480 482 0
14 12 13 16 18 -331 0
-67 -7 8 382 383 394 398 422 0
55 -46 -267 -285 336 338 346 0
-20 -18 51 53 -58 346 374 377 0
-199 12 13 17 -18 20 183 194 0
84 51 57 58 -328 471 0
-31 -5 -7 -21 -27 251 252 -328 0
-78 73 -319 432 440 0
27 29 30 207 215 218 231 0
-5 -63 -66 129 135 -480 0
561 -45 103 578 585 586 589 591 593 594 598 599 600 602 604 0
84 -33 -38 51 -58 472 0
-62 -53 -58 67 70 -82 -83 390 393 396 405 0
-74 -23 -27 -31 -37 88 131 266 436 450 453 480 495 0
-103 561 580 581 582 583 584 585 0
23 21 22 25 26 230 241 0
62 -7 -8 -31 -38 -313 405 406 411 420 0
-269 72 -73 78 82 444 461 472 0
-14 -5 -7 16 18 -34 35 36 -328 0
-374 15 18 23 24 -26 28 191 201 -331 0
-122 11 14 16 18 -142 -165 0
-31 34 246 247 249 250 286 287 0
57 51 -52 56 59 60 357 360 0
-328 8 52 57 337 342 357 360 377 0
55 8 54 58 336 337 359 371 0
-59 8 25 26 27 55 0
-18 16 -25 -26 -28 -46 195 0
62 25 26 27 67 387 388 389 398 411 424 0
-73 -5 -6 -12 -15 427 435 443 444 0
-21 -6 -7 -51 -56 207 -324 0
432 72 -88 -102 -106 -107 240 -319 429 443 461 -480 0
73 72 -319 429 430 431 461 0
-37 251 259 266 276 278 282 286 287 0
28 27 30 231 234 238 241 0
-19 -15 51 -52 -102 -106 -146 -150 -489 0
59 60 -146 -150 337 338 339 354 360 372 0
-36 31 34 -35 255 282 331 0
18 16 163 165 166 173 187 190 197 0
-11 -7 -8 15 -51 -57 -328 0
73 -72 -313 426 436 437 442 461 468 0
-34 -12 -14 38 -43 45 46 271 0
-76 2 4 -5 -74 -82 -84 0
72 2 4 -5 -7 -52 -55 -313 429 432 461 -481 495 0
-282 -56 -252 -267 -319 348 0
-21 25 205 207 -331 0
12 -15 17 160 162 173 174 180 0
-483 -5 -8 105 -106 -480 586 0
106 561 562 570 587 588 594 595 600 603 604 605 0
66 62 63 65 420 421 422 423 424 0
-374 -6 -7 35 39 -56 -58 0
444 -73 445 446 447 0
-18 162 165 183 192 195 -324 0
-63 -7 8 382 390 398 402 411 422 0
32 -7 31 33 35 -38 39 283 284 287 0
-374 -6 -7 8 35 -56 -58 0
-216 -72 73 74 75 76 78 432 471 488 0
23 22 26 27 28 203 0
-63 68 -313 381 383 401 411 0
381 63 68 -331 389 405 406 411 0
-16 -35 -36 186 192 193 194 0
-389 -11 15 16 -21 195 205 207 232 0
-63 3 -5 135 -313 382 390 395 401 405 0
-72 3 7 74 75 135 426 440 0
-173 -34 35 36 37 42 43 0
-69 388 396 411 421 423 471 0
-24 -43 45 46 231 233 237 -399 0
68 42 -61 -62 -82 -331 392 393 0
-571 102 103 -104 106 563 574 575 576 0
-29 21 28 223 229 234 241 0
-18 12 16 19 20 162 173 195 0
601 103 106 561 576 585 600 602 603 604 0
-19 -5 -7 8 -9 -18 40 276 0
16 11 14 17 19 20 174 0
-492 -7 -84 -480 -489 0
-363 54 -58 338 346 357 0
-350 52 -58 336 345 346 0
-53 56 57 59 337 354 359 0
287 -40 252 262 269 280 284 0
-71 73 426 428 429 430 432 0
22 8 21 24 25 29 239 242 331 0
-84 4 -5 -7 -480 489 497 0
-396 -32 35 83 260 281 473 0
-313 43 471 0
-25 -28 -34 46 -328 0
-21 4 -8 -28 43 83 0
55 52 -313 -328 341 342 346 375 0
-240 25 27 -28 236 -331 0
-406 4 14 -15 16 18 -141 142 -331 336 0
405 -313 -331 381 387 391 395 406 411 0
83 -28 -34 46 -328 0
55 54 -319 -328 -331 342 345 371 372 0
58 53 57 -319 -328 336 345 0
61 63 68 -319 -331 411 0
447 -55 71 -73 74 77 -83 -319 445 457 0
260 34 -38 252 -255 0
-62 8 68 331 382 383 392 393 398 422 0
255 8 25 26 -28 34 35 -38 252 -328 0
-9 -7 -23 26 28 -33 36 38 -142 578 0
-74 -23 -27 266 -319 472 480 0
72 71 74 427 448 460 461 469 0
36 33 35 39 40 246 272 0
-29 8 82 243 -328 0
-28 -25 -30 37 -38 39 -46 0
-108 105 561 571 582 588 602 603 604 0
-24 -43 45 46 228 231 444 534 579 0
56 -52 54 57 336 342 354 378 379 0
34 38 -39 84 90 276 286 0
-78 -68 -69 72 73 453 0
34 -6 -8 246 247 255 -276 331 0
-73 42 43 -103 -104 427 435 443 448 0
-54 -71 -72 -101 -104 -319 338 353 0
-67 62 -63 65 383 385 391 393 406 420 421 422 0
165 11 14 15 17 192 0
-103 105 109 561 565 570 578 584 598 599 600 0
-51 -331 337 339 340 342 0
61 -18 -20 62 -331 398 411 0
374 -12 -14 52 57 58 59 -83 -84 -340 347 353 0
-63 62 386 387 398 399 403 404 0
104 5 -46 106 561 562 570 0
-489 101 -105 106 107 110 -480 603 0
52 -51 55 338 358 359 371 372 375 0
-188 16 17 18 167 177 183 -328 0
52 -51 55 56 59 337 365 375 0
-67 5 -46 -51 55 -61 0
67 62 63 68 -81 84 87 88 385 387 405 0
11 -7 -8 -104 -105 -109 167 191 -328 0
-63 -2 -6 -46 382 390 398 0
-109 5 -46 -104 106 -480 561 562 0
207 201 206 214 215 218 219 225 237 240 -328 0
-11 5 -8 -18 -51 54 339 345 0
-58 -18 -20 52 54 56 354 375 0
-56 5 -46 55 0
-25 -4 -6 -7 -8 -34 -105 -110 0
-27 -4 -7 -101 -105 -110 206 214 240 242 0
35 37 252 255 273 285 -328 0
34 36 37 38 254 255 261 268 276 0
103 5 -46 101 102 106 109 0
-53 59 60 -102 -104 -105 371 372 375 -480 0
20 11 14 -15 16 19 165 191 -328 0
-108 5 -26 28 -104 -105 201 -328 0
-19 11 15 178 184 191 192 195 0
34 -6 -25 -26 36 285 -328 -471 -480 0
-55 339 360 370 -480 -493 0
-486 55 -59 -146 364 -480 0
-63 -33 -39 -104 -110 382 390 403 404 0
-370 -46 101 -105 106 108 109 0
105 5 -46 106 561 562 0
233 -25 26 204 212 218 221 227 0
-105 5 -46 104 561 562 570 591 0
-81 1 -8 -85 -342 -488 0
-71 74 75 427 430 431 441 442 0
-432 -78 79 426 427 428 434 0
-76 4 -5 -72 -74 82 0
103 43 83 107 109 110 -473 -481 -498 594 0
-564 -473 476 480 496 -593 0
-57 51 -345 356 362 0
354 51 54 -55 -345 0
-249 23 -25 26 225 -246 0
-67 8 62 64 331 382 422 0
-72 -32 -33 74 -81 -83 438 441 460 469 0
-64 4 -5 -55 61 -62 63 82 -319 420 0
71 72 76 -319 447 457 0
-240 26 -27 28 207 -214 222 228 233 0
-103 562 570 578 579 598 599 602 0
-199 16 17 20 189 190 0
439 3 4 73 78 84 85 142 -319 426 429 435 438 440 0
-64 68 383 391 405 406 421 422 0
-483 -82 490 496 0
-34 -7 -14 -17 36 270 0
481 -84 85 86 491 492 0
-68 -58 -59 -319 383 395 402 0
22 23 24 28 -328 -331 0
204 22 28 225 -328 -331 480 0
35 34 255 -328 -331 0
31 34 255 -328 -331 0
-4 -34 -328 -331 0
-14 -15 -34 -328 -331 0
34 -21 -28 255 -328 -331 0
-63 -331 382 390 398 399 402 0
-328 42 43 -331 -345 0
38 31 34 255 276 -331 0
65 66 -319 -331 -345 387 0
-65 7 -319 -331 340 387 392 399 0
-11 15 161 162 163 164 0
34 31 252 255 276 278 282 -331 0
-400 4 -5 14 16 18 -331 336 0
65 62 66 70 383 391 420 421 423 0
16 6 159 162 165 180 183 -331 0
-319 56 57 -59 336 342 345 350 354 375 0
52 56 57 342 375 -488 -489 0
85 -84 86 88 497 0
480 -5 -7 -8 85 89 90 -387 497 0
-374 12 13 14 -16 17 18 35 37 38 -331 0
-336 51 -52 57 340 342 345 346 0
-56 12 13 14 17 18 51 345 346 353 374 0
-164 -21 25 72 73 78 206 237 450 461 0
-75 45 46 73 74 -182 426 0
17 11 15 -54 -55 193 194 -488 0
-59 8 -38 -40 55 0
353 52 55 59 340 375 377 379 0
-18 170 177 183 188 192 -331 0
-17 11 15 18 176 182 -331 0
-362 51 -54 -331 349 353 0
-16 12 14 160 175 0
-433 14 16 17 18 -21 25 26 27 165 0
-434 -11 16 18 -21 25 26 27 161 0
-58 -51 -54 62 -68 -488 0
18 15 160 165 181 -331 0
-15 14 17 167 174 188 -328 0
411 42 43 67 68 381 382 390 395 0
-85 63 67 68 -81 -411 480 488 0
-73 431 435 444 445 447 452 0
-105 104 564 572 579 591 594 604 0
-359 31 37 -40 280 284 -345 0
-64 62 383 398 405 406 420 0
-28 29 233 237 240 244 0
-74 72 75 -319 432 451 452 0
32 31 34 38 265 -331 0
64 62 65 66 -313 -331 0
-237 -8 -236 0
-386 62 63 65 67 68 -331 0
-73 74 -313 430 435 444 447 0
32 31 35 -38 271 -313 -331 0
31 34 35 255 276 282 -331 0
207 24 26 27 -28 29 -201 244 0
-58 -38 -40 54 350 357 0
-495 -34 38 42 43 45 46 276 0
-260 -52 -282 -331 347 0
-350 31 34 -38 -345 0
-473 52 55 -331 -345 372 0
-53 52 55 -331 -345 372 0
74 80 -313 430 431 432 433 435 441 442 0
-68 -313 387 395 405 406 420 0
20 4 12 -15 16 19 122 -141 142 180 195 336 0
18 7 11 14 -15 16 19 20 85 0
-74 -37 -38 428 450 451 454 455 498 0
-237 -240 -324 0
51 42 43 -45 -135 345 348 355 375 0
-62 -42 -46 61 181 393 420 0
-11 16 161 162 -324 0
-51 54 56 -331 339 342 0
-104 106 563 573 575 576 578 581 587 595 603 0
-480 -6 -8 34 -276 331 -471 0
11 -2 -7 -8 16 169 170 173 174 180 0
8 45 -146 0
-25 204 221 227 231 233 234 235 0
-74 4 7 -319 432 436 450 0
105 106 566 570 571 578 601 603 604 0
-136 101 103 -105 109 110 571 -591 0
-68 -6 -8 -87 -319 476 -480 0
-592 38 246 247 255 -331 -591 0
18 15 160 166 175 -331 0
-105 550 564 572 579 585 596 603 0
-5 1 -7 82 85 87 480 -488 -495 497 0
11 12 15 16 18 173 0
-62 67 68 389 390 393 396 405 0
8 9 -197 0
-25 204 212 218 233 234 235 0
-328 27 84 -324 0
-34 37 42 43 -45 -147 -495 0
8 151 -197 0
-40 42 43 254 262 269 585 0
77 73 76 78 79 80 450 0
35 36 39 40 285 0
-52 11 17 -18 -58 84 173 -328 483 0
62 -319 384 386 387 399 400 420 0
488 -1 -8 -84 162 313 0
77 72 74 78 -313 429 0
-40 -23 -30 -33 -34 42 43 579 0
-495 -55 -345 -471 -473 0
-374 -5 7 15 16 17 -192 0
-313 -135 -141 246 252 260 -331 0
53 51 54 55 -331 362 372 0
-28 -83 -84 207 215 233 237 240 267 0
-371 -45 -375 0
-59 8 -28 -30 -45 546 0
105 103 565 571 578 580 594 598 600 601 602 603 604 0
85 -84 86 88 497 0
-107 105 561 581 587 599 601 604 0
561 103 105 107 108 109 -146 599 0
476 -12 -13 43 -66 -81 88 -471 472 474 495 498 0
63 -7 8 62 65 68 383 386 391 422 0
-62 67 87 88 382 383 395 396 397 488 0
-61 -31 -36 62 130 382 388 411 422 424 0
-62 51 59 60 -82 389 391 394 395 396 411 0
-60 -45 374 377 379 591 0
84 56 57 58 -60 81 342 360 493 0
-58 -83 -86 233 -319 342 350 0
-51 8 55 60 338 342 345 371 0
457 -1 -7 73 161 -319 432 440 456 461 0
432 3 4 5 72 75 84 85 87 -319 461 481 0
71 -33 38 72 74 266 276 471 472 -480 488 0
-52 34 36 38 -51 -81 -83 247 277 0
375 42 51 55 81 345 371 372 0
-58 -28 -29 -33 -39 -319 342 350 0
-52 -17 -18 -22 -28 51 56 -319 345 0
-405 -34 35 38 42 43 281 0
447 -53 -57 71 72 232 -319 444 0
402 -51 -55 62 67 -81 82 -319 387 0
428 -52 -54 -74 -319 0
420 63 65 -72 -76 -81 -82 -319 0
437 -63 -68 -72 -82 -83 -319 426 461 0
388 62 63 -319 383 389 0
401 61 62 65 68 -319 0
399 -63 66 67 68 0
400 61 62 -319 399 420 0
492 -83 85 86 87 0
381 63 65 66 68 -319 0
412 61 63 68 -319 393 0
488 61 63 64 71 73 74 -319 471 0
472 73 -74 -319 480 0
437 71 73 78 -319 461 0
77 72 73 76 -319 432 0
77 72 73 75 76 -319 0
456 71 73 77 78 -319 0
77 73 75 78 -319 426 0
439 73 -319 429 432 438 440 461 0
469 71 72 74 -319 444 445 468 0
446 71 72 -319 444 447 0
448 71 72 -319 449 450 451 452 0
362 -54 -319 338 350 353 360 0
457 71 -255 -260 -319 438 445 0
462 -71 -319 426 427 429 431 0
86 85 87 88 472 0
85 -5 -6 -13 -15 -17 -84 471 0
236 23 24 -26 201 237 331 0
364 8 -59 339 351 378 0
12 13 14 16 -45 195 0
-61 34 35 36 38 -62 -81 0
12 5 13 14 -15 -16 331 0
147 -16 18 -146 0
165 11 14 17 18 -45 0
168 11 13 -16 181 0
175 11 14 -16 -165 0
159 13 -16 19 20 166 -186 188 0
60 -8 -37 -38 51 55 -57 59 0
372 51 55 56 57 -68 -313 387 0
5 -9 -35 -36 0
472 51 -53 -103 -104 -480 0
354 51 52 -55 360 0
82 51 52 -55 -85 0
355 -52 -82 350 351 352 356 -471 472 0
358 51 52 54 359 0
363 51 52 -58 -353 0
-43 51 52 56 58 353 360 0
372 51 53 55 57 346 0
372 51 54 55 57 345 0
-152 51 54 55 -60 345 0
352 51 55 58 351 353 371 0
43 51 -52 55 56 57 60 345 0
354 51 54 56 58 59 60 0
-262 51 53 54 84 472 0
-404 54 58 59 336 371 -399 0
-269 51 -60 -255 0
252 32 36 -38 270 285 -313 0
228 25 -28 -32 -38 -84 207 267 0
395 -37 -38 63 -68 282 387 405 480 495 0
371 51 53 55 58 -319 0
-71 -55 -73 -81 -82 -101 -105 0
-32 -23 -25 -31 -35 -54 -319 0
-102 -74 -83 -84 -103 -319 0
-81 52 -55 -73 -75 -83 -319 0
439 -51 -55 -72 -101 -102 -319 435 438 0
407 62 63 -64 -319 405 406 0
406 -61 62 -64 -319 382 386 405 0
342 52 53 55 57 -319 0
433 72 73 -319 430 434 450 453 0
431 72 -319 -427 432 444 445 0
274 -5 -6 -34 40 -75 -77 285 0
-279 -5 -6 -25 -107 -108 -109 0
122 -3 -5 -21 -25 -51 59 336 344 0
-1 -5 -63 -66 -73 74 -313 0
-85 -12 -14 -103 -104 0
-313 43 51 52 0
-28 233 237 240 243 244 0
214 25 28 -210 218 227 -328 0
406 -7 -8 -51 -58 62 -313 395 405 411 0
-21 -6 -7 -8 -11 -18 25 0
51 11 15 16 17 52 -55 59 60 0
31 34 35 36 -38 51 -58 285 0
-32 11 14 -18 -38 -480 488 0
16 11 14 15 17 195 215 260 0
74 -61 -67 72 76 146 -313 430 458 0
-74 426 443 450 453 454 455 461 0
72 6 73 74 -313 341 431 458 0
25 27 28 45 208 209 216 217 218 0
-61 -7 -8 -51 -58 62 384 385 0
-67 61 62 -313 -331 0
-313 45 46 61 62 -68 -411 413 0
-61 -62 63 -331 383 384 385 387 0
-63 -5 61 62 68 -313 401 0
75 7 72 78 80 135 428 433 0
73 80 -313 428 433 436 437 440 454 461 0
24 -2 -5 26 28 216 217 218 221 337 0
-24 26 28 -43 -53 -55 324 0
22 21 26 28 29 218 242 0
23 24 26 27 28 -261 488 0
-260 16 -18 32 36 -38 183 188 195 272 278 -480 0
-315 -319 324 0
-379 52 58 -60 342 353 372 375 0
393 -62 63 65 391 395 396 422 0
-105 46 -55 -60 109 324 570 585 592 0
104 105 109 561 570 578 580 584 598 599 600 0
-109 571 583 594 598 601 603 0
-62 90 390 391 392 394 395 397 420 488 0
-73 -313 430 435 443 444 447 0
-25 -7 -8 -35 -38 204 212 219 0
25 28 201 223 227 236 242 -328 0
-90 51 53 59 -84 346 359 0
25 28 201 221 229 236 238 239 242 0
-360 -35 -38 87 88 368 480 0
-67 62 383 385 401 406 412 420 0
-28 207 215 222 233 237 240 0
-104 105 563 586 589 590 600 0
-72 426 435 436 438 440 441 460 0
64 52 -60 62 67 -68 69 -313 344 352 377 382 596 0
393 -62 63 68 391 396 -411 422 0
-105 -55 -60 103 324 561 585 600 601 603 0
-24 -5 -7 -8 -34 -38 226 0
239 -30 209 212 225 242 244 0
-85 -12 -13 -55 -81 -82 -84 0
-62 381 391 393 394 395 399 0
105 5 -46 103 331 561 574 575 576 586 601 603 0
-73 -313 435 443 447 456 457 461 0
81 51 59 -60 -82 89 480 0
74 426 432 433 435 440 447 449 456 457 461 468 0
-62 -1 -6 -46 381 391 392 393 420 0
34 31 35 36 37 39 51 -60 0
453 72 73 433 434 451 452 456 0
-24 -43 -53 -55 236 237 240 -313 324 -354 0
-75 51 -55 72 -82 -84 -313 429 0
-62 386 387 390 391 392 396 397 0
75 72 73 78 434 454 461 468 0
-24 28 -43 46 -53 -55 -313 324 444 534 579 0
53 51 59 60 346 0
-24 28 -43 -46 -53 -55 324 0
-24 26 27 -43 -53 -55 -313 324 0
-252 15 16 -18 -82 -84 166 195 246 0
-26 24 -25 -82 85 201 237 331 480 0
-35 -8 -25 -27 -38 331 0
-61 -7 -8 -11 -18 62 383 385 399 406 0
43 42 51 58 -328 -331 0
-54 51 -55 58 361 362 364 365 0
22 -4 -8 -11 -18 23 26 27 28 0
383 69 70 -313 381 391 401 402 411 0
-218 26 27 28 87 201 480 498 0
56 -22 -25 42 43 51 57 58 167 0
78 -54 -57 73 76 277 426 436 454 455 457 0
-62 -57 -59 63 381 391 395 411 0
-61 -2 -21 -25 -63 205 0
26 -18 -19 25 -57 -59 244 0
-233 -25 26 28 243 244 -328 0
-68 -38 -40 381 383 391 402 424 0
72 7 -24 -25 74 -319 427 432 447 0
-13 -18 37 -38 -81 82 -84 270 271 0
-72 428 435 439 440 441 442 456 0
-28 -1 -8 -82 -89 233 237 240 244 0
86 5 22 25 -26 28 83 85 136 382 480 0
-75 -52 -55 -61 -62 73 450 0
-228 1 -8 11 15 16 17 195 0
-73 -313 428 430 435 444 447 451 0
351 51 56 -57 58 -59 62 63 68 354 358 410 411 0
-62 63 381 392 394 395 406 0
-1 5 83 -84 85 86 0
63 -61 62 64 68 388 399 404 406 415 422 0
-67 5 25 -27 63 381 383 391 422 0
-68 15 16 17 63 381 383 391 424 0
63 64 -319 381 385 387 392 393 412 420 0
-25 24 28 201 219 232 -328 0
-28 -32 -38 -84 207 228 233 267 0
-62 63 -261 381 391 471 488 0
-12 1 3 -5 -6 -8 17 135 150 0
-67 -18 -20 -37 -38 62 63 383 421 0
-59 -55 -57 63 68 70 381 383 391 0
-495 51 -55 -313 -481 0
56 51 58 -313 -331 346 0
-13 -18 34 -38 -81 82 -84 0
-62 382 383 394 395 396 397 411 0
-72 426 437 439 440 441 442 0
52 -16 -20 58 -331 338 -472 481 -488 494 499 0
-52 5 -32 -35 -46 -54 -55 103 561 591 0
22 -4 -8 -11 -18 23 25 28 -331 0
-150 -28 -38 40 -46 233 237 244 278 0
-62 65 -313 -331 381 391 395 0
61 -13 -14 -23 -25 62 64 68 -331 0
72 73 -84 85 86 285 433 434 450 451 0
-389 -21 52 53 58 205 207 232 342 360 371 0
21 22 24 26 28 29 218 224 0
-336 34 35 37 -38 -82 -328 480 0
-390 5 -46 105 -400 571 578 586 603 0
27 21 23 -25 26 28 216 230 0
66 -61 -62 64 65 68 384 387 401 421 422 0
67 61 64 65 68 -313 0
64 62 63 384 421 422 423 424 0
-398 62 63 -64 386 402 403 405 410 0
-214 25 26 28 216 217 -328 0
34 31 35 36 -38 246 259 -313 -328 0
-342 -51 336 337 338 378 379 0
-342 -51 336 338 357 378 379 0
439 -72 -313 426 436 440 444 456 0
74 5 72 -313 -416 429 432 0
-74 72 443 451 453 454 455 457 0
-67 5 25 -27 62 63 64 422 0
-61 -43 46 62 -313 -331 383 384 387 0
-62 2 -5 61 63 129 391 394 395 0
360 52 -55 57 58 -313 -328 0
-163 -21 52 53 58 205 207 232 342 360 371 0
23 24 -25 28 201 231 233 -331 0
-22 -18 -19 25 28 -32 -38 217 236 0
215 26 -28 31 35 -38 -84 207 228 233 282 -313 0
23 -8 22 25 26 -28 -82 201 240 313 480 0
-255 -32 33 34 35 36 247 268 269 0
-52 -51 -55 -72 -319 438 439 447 0
-255 31 33 34 36 37 -313 0
22 21 23 25 28 -328 0
-344 23 25 -30 236 237 240 -336 0
-62 65 -319 381 392 393 398 402 420 421 422 0
-282 -8 15 -18 -38 -46 0
-347 -14 15 16 -42 195 0
-61 7 340 384 386 387 0
35 34 36 37 43 -52 -53 -82 255 480 0
-389 -21 -51 53 54 55 205 207 232 371 372 375 0
-62 -313 -331 381 391 392 395 0
-52 -32 34 35 -51 -56 83 -331 0
-371 52 55 -56 58 -331 353 0
-62 -331 383 390 392 393 395 398 0
-471 55 -313 -331 372 -481 0
405 61 66 68 -331 381 398 399 0
66 61 -62 -319 -331 395 398 399 0
-405 -34 42 43 270 271 272 0
260 31 34 35 -38 247 265 -331 0
-313 51 55 58 -328 346 0
78 -6 71 73 74 76 -85 -313 426 429 482 0
64 15 16 17 63 70 381 386 394 411 0
-62 -13 -14 -23 -25 381 390 394 395 0
35 31 34 37 285 -313 -328 0
-371 53 55 56 58 -328 336 0
34 32 35 -38 251 282 -313 0
-59 -57 64 -67 381 401 0
-4 -5 -6 -319 426 427 432 435 440 447 461 0
-204 24 -25 28 201 202 206 -328 0
-104 4 5 -46 -84 85 103 106 109 481 490 563 0
24 22 25 28 202 -331 0
53 55 56 58 59 60 346 0
32 -27 -29 31 34 36 -53 -57 269 0
-246 35 -38 -51 -54 -59 251 -260 282 488 0
103 -6 -7 -328 561 565 573 576 585 586 600 601 603 604 0
52 -8 51 55 58 -319 -328 0
-32 21 25 26 27 -28 -38 -82 -84 0
32 34 247 251 266 278 -328 0
53 -51 55 56 58 338 351 352 0
68 2 -5 61 62 64 67 -82 -84 87 398 472 496 498 0
-217 51 54 359 471 -480 488 0
-62 -22 26 27 28 43 64 381 390 471 488 0
319 4 -8 -31 -38 -83 84 0
-61 -7 -8 -31 -38 -319 381 382 411 0
-62 61 68 -319 390 392 394 0
-65 42 43 -46 61 -181 390 0
-62 61 65 68 -319 390 394 0
-208 32 34 35 37 62 63 64 265 0
432 3 4 7 72 75 84 85 -319 0
77 -52 -55 -57 73 78 187 -319 322 0
346 -52 53 -72 74 76 78 336 429 435 471 488 0
-164 62 63 64 -71 426 429 430 432 443 0
-1 4 85 -393 -480 481 0
-20 -17 51 -57 58 345 360 371 374 0
-267 31 32 33 36 -38 268 269 270 0
63 -7 -8 -31 -38 62 68 -319 411 0
-13 7 -14 -84 -88 102 103 -105 109 331 602 0
381 -55 -56 -62 63 68 321 405 407 409 410 421 422 0
382 -2 -6 -46 62 -63 -319 390 405 406 420 0
63 -7 -8 -11 -18 62 -319 411 0
-63 3 4 51 -55 67 68 84 -319 -480 481 0
-360 -8 -34 37 42 43 150 0
-24 7 -25 73 78 -319 426 0
66 62 63 68 -319 381 412 0
-395 15 -18 -82 -83 -84 183 192 195 0
26 21 -25 28 46 211 219 -331 0
23 21 24 28 213 -331 0
23 21 24 27 28 30 216 0
-62 -87 192 381 392 407 409 410 421 422 -480 0
61 51 -55 62 -319 -331 402 -480 481 0
-381 62 63 64 396 397 0
-52 -55 -57 62 63 68 -319 -381 0
54 51 58 -313 -331 345 348 0
66 61 62 65 68 -319 412 0
-371 42 -46 52 -53 341 -356 0
-78 -37 -38 72 432 447 498 0
-72 -55 -81 85 87 195 -313 426 438 439 -480 483 488 0
-109 -7 46 -471 -480 594 598 601 603 0
-370 45 46 102 -105 106 109 578 581 587 594 0
62 -51 -56 63 141 -319 384 420 0
-52 54 56 58 59 345 349 352 0
-57 -37 -40 -51 54 349 356 0
-57 25 26 28 53 54 60 349 0
24 25 28 -31 -33 120 214 -328 0
-336 73 78 -319 -339 432 461 0
-360 -34 35 36 42 43 285 0
-218 -34 81 84 270 271 272 0
52 31 32 35 36 37 56 57 58 342 360 471 -480 488 0
61 -55 -56 63 67 68 -319 321 400 0
-72 432 435 437 438 441 442 452 0
439 5 73 78 -319 386 426 456 0
-63 68 386 390 398 403 404 411 0
-450 -34 42 43 270 271 272 0
436 -22 26 27 28 -72 81 84 426 0
-74 -5 -6 -23 -25 71 -319 435 450 0
432 -1 3 -5 7 84 86 240 -319 429 440 -480 491 0
439 -72 -319 429 435 438 440 0
62 61 -319 387 398 399 401 402 0
426 2 3 7 -72 73 78 -319 0
-72 -33 -38 75 84 -319 426 435 438 0
426 42 43 -46 -54 -55 73 76 78 -319 461 0
-62 -51 -54 -55 63 -81 -82 -313 381 393 420 0
-63 3 -5 67 68 -319 382 -480 0
-62 -331 384 390 391 393 395 0
62 3 -5 61 -65 67 68 -84 135 398 -480 0
67 61 62 65 68 400 0
-65 -4 -6 -42 -46 398 0
-388 15 16 17 72 73 78 -162 450 461 0
-24 -5 -7 -8 28 -34 -38 -328 0
-105 106 109 561 562 570 585 593 602 0
66 61 62 68 405 407 412 0
384 62 68 -331 398 400 406 0
491 -55 -61 -64 -81 -472 -480 483 488 492 0
-62 68 381 393 394 396 397 0
-471 5 -8 55 -319 -480 0
-1 -6 -46 -62 63 67 68 383 411 0
51 55 58 -319 -328 345 372 0
-471 42 43 -51 55 58 -328 -341 -480 0
-61 7 62 -319 340 382 386 387 0
-340 55 56 -319 -328 345 375 0
-1 -5 68 -82 -84 -85 -313 386 387 391 392 398 405 420 0
411 67 68 -349 -362 381 383 402 403 404 0
-358 -33 -34 35 36 37 471 -480 488 0
-62 -1 -6 -46 -51 -54 61 -313 390 0
-471 55 58 -319 -331 -480 0
51 42 55 57 58 -82 -83 -84 377 0
438 6 73 74 341 426 432 440 457 0
-78 -33 -38 -82 -83 -319 432 0
-495 -34 42 43 270 271 272 0
-71 -6 -7 -51 -57 73 78 142 429 0
76 72 77 78 -319 429 0
-72 74 426 435 437 439 440 0
354 -32 35 36 37 51 -52 -55 336 346 471 488 0
-71 5 72 73 386 432 438 450 451 456 0
-28 24 215 222 233 237 240 0
-52 -42 -46 -55 103 104 -105 109 597 0
-101 51 -55 58 -81 -83 -84 -105 -328 349 0
-102 42 51 -52 81 -82 84 -104 0
-103 42 51 -53 54 81 84 -104 0
62 -313 -331 385 387 405 406 420 0
-23 5 28 219 -313 -331 471 495 496 0
-61 -7 -8 -31 -38 62 -81 87 88 382 387 480 0
-61 -54 -55 62 -81 -85 -331 387 0
62 42 43 -51 -55 -56 -81 82 141 402 420 421 422 0
-58 -38 278 282 285 342 350 353 379 0
72 -6 -7 -61 62 -65 73 -81 82 -88 285 -313 -331 386 413 429 430 458 0
-424 16 17 -18 -38 162 177 180 278 282 285 0
-424 11 16 -18 -38 177 183 195 278 282 285 0
-85 51 -55 -61 -62 -81 82 0
67 42 -55 61 -62 66 68 -81 82 381 400 0
237 -8 -18 -38 324 0
-388 -21 35 -38 205 232 251 -252 282 0
-28 15 17 -46 233 -237 240 0
-65 -13 -14 -25 -66 201 231 232 233 0
-26 28 205 213 220 -328 0
62 61 68 -319 399 401 0
-71 -21 -61 205 207 232 381 382 383 426 427 428 0
331 -8 -18 -38 324 0
51 42 43 -328 -331 350 357 0
-243 15 16 17 -38 278 282 285 0
-244 -18 -38 188 192 195 278 282 285 0
34 -8 -18 -38 324 0
58 42 51 -328 -331 346 0
-18 -8 -38 324 0
-278 51 54 -58 -82 -83 -86 0
-106 11 -14 15 16 18 -83 -84 -86 -105 0
-57 25 26 28 51 -82 377 -488 0
-106 11 17 18 -103 -105 -328 0
-471 5 -46 105 106 -480 0
-106 105 573 580 586 601 603 0
-102 42 43 -52 53 56 57 58 -82 84 -104 471 0
-64 -51 -55 63 -101 -104 -319 393 420 0
101 5 -8 45 102 103 104 -105 331 0
101 5 45 -104 105 106 602 603 0
564 5 45 104 -105 106 -150 331 570 0
103 5 -46 101 102 106 601 603 0
55 52 53 56 57 -319 0
-489 84 85 86 131 -146 502 0
-61 -4 -6 68 295 385 386 0
11 3 5 13 -15 16 17 18 84 0
-56 -51 -52 63 -66 141 186 -319 384 420 0
-221 -84 86 102 105 -106 471 495 580 598 599 0
-59 34 36 37 -38 -58 -472 -480 0
-31 5 -8 -38 -83 84 319 481 490 0
101 -6 103 -105 106 331 571 600 601 602 603 604 0
-102 55 -84 -101 -328 375 -480 0
-12 -5 -6 -7 -15 81 -83 85 -319 0
109 -7 -26 -27 102 103 105 106 602 0
-471 -6 105 106 108 331 -480 601 602 0
-107 42 43 -46 51 -55 59 -105 345 0
-59 32 34 35 -37 -57 247 281 0
-102 -51 57 58 -82 -101 -319 -328 -480 0
101 7 104 106 108 331 570 0
-102 57 58 -82 -105 -319 -328 -339 -480 0
31 34 35 40 255 261 268 281 0
24 25 28 45 201 221 237 331 0
-489 57 58 -319 -328 -339 -480 0
-150 -5 7 -17 18 331 -480 0
-75 -55 -59 429 444 450 460 0
-72 -52 -55 -58 -101 -105 -319 437 461 -480 0
73 37 -38 84 -260 278 282 -319 426 429 432 442 450 461 472 0
17 18 -102 -106 186 189 -328 352 0
-72 -16 -17 394 437 438 440 0
-14 11 12 18 173 184 185 0
23 24 25 28 45 201 240 331 0
101 103 104 -105 106 -108 109 110 472 -480 490 0
-59 34 35 36 -38 -58 -471 -480 0
-15 -1 -5 167 173 187 188 -328 336 0
-17 -7 -108 -110 187 195 197 0
17 18 163 164 165 180 186 -328 0
17 18 -104 -106 180 186 189 -328 -488 0
102 101 103 104 106 602 603 0
15 7 18 191 -328 -480 0
53 51 57 58 -328 346 0
-101 51 -55 59 60 -81 -82 -84 -105 0
-496 -7 104 105 -106 331 -473 -481 -580 598 603 0
62 -54 -55 -101 -105 -313 384 385 405 406 420 0
562 5 -7 45 -46 105 106 571 603 0
5 45 103 104 -105 106 -150 331 561 0
-108 1 -7 -103 -104 -105 0
58 25 26 28 -46 55 336 353 371 377 0
-422 -7 15 16 18 25 -27 236 0
11 1 3 -7 15 16 18 176 0
-63 -51 -55 -101 -103 -313 400 420 0
-106 16 17 18 -103 -105 174 -328 0
-206 25 28 208 209 236 238 239 0
103 5 -46 102 106 564 571 601 603 0
-53 -43 -46 -55 102 103 -105 108 109 563 0
24 21 25 26 28 -32 -33 165 0
105 -7 101 102 104 -106 -147 331 0
-60 -46 -55 101 104 -105 324 570 603 0
54 -51 52 57 58 -313 -328 0
-3 4 -5 -15 -17 -81 -84 85 -141 488 0
-161 2 4 -8 -81 83 -285 0
103 7 25 28 101 102 -105 106 201 238 239 331 571 572 0
15 18 161 166 176 -328 0
-107 7 13 -15 18 -103 -105 161 331 0
108 7 103 106 331 -471 -481 563 602 0
54 -51 52 55 -313 -328 375 0
167 -15 18 174 180 186 188 189 197 0
-72 -82 -88 195 -319 426 435 438 439 0
-486 34 36 -39 -471 -480 0
24 23 26 27 28 209 216 0
24 23 26 27 28 208 217 0
5 -7 45 -46 101 103 105 571 603 0
-62 42 43 -102 -104 381 390 391 396 0
391 -11 -17 -62 -82 -88 390 396 415 422 424 0
-59 -25 27 28 -53 -103 -106 231 0
62 -51 -55 -101 -103 -319 385 400 420 0
-62 -51 -55 -81 -82 381 390 391 393 420 0
61 62 -83 84 -103 -104 -319 472 0
471 51 52 84 -103 -104 -480 0
17 18 -25 26 27 28 186 -328 345 -591 0
59 42 43 -46 51 -55 102 103 -105 106 108 109 339 345 360 0
-63 382 390 398 399 401 402 0
-106 -25 26 27 28 -104 -105 201 0
-101 62 63 -81 -84 -105 -106 383 406 420 0
-102 51 -55 81 -82 -83 -105 0
11 12 18 173 174 180 -328 0
62 -319 382 384 388 398 403 404 406 420 422 424 0
-17 16 18 161 166 176 196 197 0
15 18 169 176 182 -328 0
23 -11 -12 24 26 27 28 111 0
11 12 18 167 173 176 182 191 -328 0
-219 4 -5 -7 14 -15 18 168 -328 331 336 0
-107 3 7 84 -105 -108 482 0
107 52 53 54 -55 56 58 101 102 103 -105 106 109 0
-129 14 -15 24 -25 26 28 232 345 0
13 14 -15 17 18 23 -25 26 225 331 345 0
-106 21 -25 26 28 -104 -105 -108 0
13 14 -15 17 18 23 -25 26 27 28 186 345 0
-387 2 -8 -81 83 -85 162 0
24 -5 -6 -25 26 28 -84 85 201 232 -328 472 498 0
-498 103 104 106 107 -108 -473 -481 0
-495 7 103 -105 106 -473 -481 601 0
-24 -25 26 28 -103 -105 227 229 313 0
-107 -5 -6 23 -25 28 -105 -108 201 -328 0
375 55 -319 -328 336 337 471 -480 0
-56 7 -8 -37 -38 -46 55 331 0
15 4 -7 16 -17 124 169 182 195 426 0
-51 -46 55 336 338 341 357 0
15 18 161 176 182 -328 0
23 24 -25 27 28 204 -328 0
-591 3 -5 13 17 18 174 -328 336 0
-24 2 5 -7 -23 83 -84 86 0
-62 -51 -55 -101 -102 -313 391 393 420 0
-31 -7 -8 -38 -51 52 53 54 56 0
-593 1 -7 -11 15 18 -21 -23 -328 0
-110 -25 28 -46 -103 -106 232 233 359 0
582 -103 -108 0
103 5 45 102 -105 106 -150 331 561 563 601 0
11 17 18 -53 -55 -104 -105 -328 0
103 102 104 106 108 601 602 0
104 -7 -8 45 101 102 103 -105 -106 331 0
204 -25 28 -201 219 231 232 0
-52 336 346 351 352 355 356 357 0
12 13 15 16 18 158 195 0
-23 -5 -25 -84 85 -232 480 0
51 53 -84 346 374 377 379 -486 488 0
-52 53 -313 -328 336 346 349 350 0
480 7 -82 103 105 106 331 -471 0
-225 3 -5 16 17 18 174 336 0
-360 -1 7 83 -313 -339 436 -453 0
13 4 -15 17 18 129 -141 142 180 336 0
-3 7 -82 -84 85 -103 105 106 -108 -473 480 488 0
-51 -313 -328 336 341 342 360 0
108 7 103 104 -105 331 561 591 0
161 7 15 18 195 -328 471 -480 -481 -488 0
-53 -43 -46 -55 102 103 104 -105 106 109 0
-108 15 18 -103 -105 157 -328 0
-370 -46 102 104 -105 106 108 109 0
161 15 18 165 166 173 -328 0
-370 -46 103 104 -105 106 109 561 0
-101 -51 -104 -105 -201 -313 -328 375 0
-1 7 83 -313 429 432 440 480 -481 -585 0
-53 -43 -46 -55 102 103 -105 106 108 109 0
-1 7 83 -313 429 432 437 480 -481 -585 0
-23 7 -15 -17 -25 -84 85 488 0
-52 -22 53 -201 214 215 231 -313 336 346 488 0
-106 3 -5 -15 17 18 -103 -105 -328 336 0
174 3 -5 14 -15 17 18 -51 -55 180 186 336 0
32 34 -38 -51 278 282 -313 -328 336 360 0
-136 -46 63 64 66 381 420 0
53 51 56 -319 -336 341 342 0
-73 3 7 78 84 -319 427 0
15 18 161 169 173 -328 0
-342 34 35 -38 281 -313 -336 0
24 23 26 28 -103 -108 201 241 449 0
-13 -5 -6 -15 -25 -27 -82 -84 85 480 0
-24 7 -25 78 -319 426 427 435 0
-337 -46 -51 53 57 58 -336 359 0
-2 -8 24 25 26 27 -28 472 -480 0
-480 5 -7 -46 -84 105 106 571 603 0
461 -319 427 428 432 433 434 435 436 443 447 456 457 468 469 0
-110 -23 25 26 27 -33 36 -83 -84 -104 -142 -150 578 0
-261 51 -52 53 -82 471 480 0
-52 51 53 346 351 352 0
480 -23 -28 34 -38 -82 313 0
-21 -7 -8 -28 -46 -51 55 0
108 7 104 105 331 570 0
104 7 105 331 -480 -485 0
-3 7 105 331 -471 -480 -485 0
4 3 7 84 85 88 0
-275 -28 32 34 -46 -228 233 237 240 247 277 0
-104 4 7 85 -103 480 -582 0
105 -104 106 563 571 582 589 597 602 0
-57 25 26 28 51 54 345 377 0
-53 -25 -27 51 84 -86 -319 -328 445 0
-3 -6 -7 -104 -105 106 109 110 -471 0
105 5 45 -46 -104 -471 -480 -490 598 0
-110 -5 -7 -17 -25 -108 -176 195 -219 231 233 0
11 13 14 -15 18 187 195 -328 0
-53 -55 -82 -83 101 -105 106 108 109 602 0
-58 31 35 36 37 -38 -52 -82 -83 0
-103 42 43 -53 55 56 57 59 -104 350 0
23 -11 -12 24 25 26 28 111 0
22 23 24 26 28 206 0
-85 -43 -81 84 104 -105 109 0
-565 -5 -7 -8 -46 -51 55 0
-25 14 -15 17 18 24 26 28 232 -328 331 345 0
-57 25 26 28 53 54 349 377 0
13 3 4 -6 14 15 -16 18 19 20 -191 381 0
-604 12 13 14 16 25 26 28 162 -328 0
72 7 -13 -15 75 -313 429 432 0
-106 7 105 331 570 586 597 0
103 -16 -17 -46 105 106 107 109 561 0
-51 -5 -8 -319 336 337 340 341 475 0
-108 14 -15 16 -17 18 24 -25 26 28 -104 232 -328 345 0
-55 42 43 -46 59 -105 -107 339 345 0
-55 21 24 26 28 232 -319 339 345 354 360 471 488 0
-167 4 7 105 -106 108 331 -586 0
102 -7 104 105 -106 109 331 562 0
51 -64 -65 -82 -84 -313 -328 375 0
-51 -6 -7 -8 -31 -38 339 0
-344 -11 16 18 -21 161 205 207 232 0
-66 70 393 400 406 411 421 423 0
-341 24 25 28 -328 -336 0
-141 4 85 88 122 129 488 0
59 -51 53 60 -313 346 347 353 360 371 372 375 0
-104 4 5 -12 -15 -84 -103 -105 0
-72 429 430 432 435 436 441 442 0
-599 14 -15 26 27 28 159 165 188 191 0
-480 -15 -17 45 -84 331 0
-51 -7 -8 -31 -38 -46 339 0
-595 -24 25 26 28 -34 35 36 285 0
383 -2 -6 -46 62 65 66 420 0
-395 31 34 -38 -390 0
-40 -38 62 63 64 -68 0
279 32 34 36 37 -38 40 252 0
17 15 -36 -38 -46 0
392 -32 -37 -38 61 63 405 406 0
289 -38 253 261 268 278 282 285 0
498 -84 495 496 497 0
32 31 34 37 -313 0
423 62 63 64 -68 -313 424 0
409 62 63 66 67 68 389 0
407 61 62 66 68 -313 0
251 -11 16 17 -31 36 62 63 64 162 278 0
247 -33 34 255 -313 0
258 -36 250 276 281 282 -313 0
-71 -63 -72 -81 -83 -313 0
394 -63 -313 382 395 398 411 0
447 -73 -313 427 444 461 0
447 -73 75 -313 427 461 0
438 -73 -313 427 444 447 451 0
391 61 63 65 66 68 0
391 61 65 66 68 -313 0
65 61 64 67 68 -313 0
411 61 64 67 68 -313 0
427 -72 73 -313 -435 0
441 71 -72 73 78 442 452 456 0
456 73 429 430 432 436 439 440 450 451 452 0
458 72 74 -313 430 431 0
498 86 -313 471 495 497 0
18 -8 -15 -25 -34 -324 0
85 -3 7 -25 -27 -81 -84 0
565 -23 -25 -84 -87 -106 573 591 598 604 0
234 21 24 -25 28 30 232 480 495 0
358 52 54 56 57 58 359 0
212 24 -25 27 204 219 0
212 24 -25 26 204 219 0
433 7 -24 -25 73 74 78 80 0
213 21 -25 27 29 30 233 480 0
159 6 -15 82 -84 -88 180 0
82 -12 -15 61 62 -66 0
497 6 -13 -15 480 495 0
174 11 12 14 -15 0
159 12 13 -15 180 0
497 -84 86 88 495 0
43 -82 -84 -85 -105 -110 0
19 11 -17 18 20 -83 -84 -88 0
484 -82 -84 482 496 498 0
2 4 -64 -66 83 495 0
444 -61 -65 -75 -81 -82 -84 0
2 4 5 -76 -77 -82 83 85 0
86 4 5 -82 -83 -84 85 0
222 -10 39 -45 -83 -84 246 273 0
445 -53 -54 -73 432 444 446 0
456 71 -72 73 -84 -87 -102 -104 440 0
-221 -84 85 -236 496 0
483 -84 88 471 490 495 497 0
497 -84 88 495 496 0
-449 -33 -34 35 81 82 267 281 0
-595 -14 15 16 17 -34 276 277 281 0
215 -12 -18 -480 0
-65 -52 -55 -63 -480 0
282 34 35 281 285 -471 -480 0
267 -33 35 36 -63 382 398 471 -480 488 0
129 4 7 84 85 88 0
-219 -5 16 17 18 336 -411 0
430 -2 -5 72 -76 -83 -84 0
573 -3 -5 -84 -88 -106 580 591 0
4 -5 -10 -84 -104 -106 -480 0
420 4 -5 -52 -55 61 -64 -82 -83 -84 0
438 3 4 -5 71 -76 -82 -83 -84 0
-109 -4 -5 -24 25 -26 -106 0
-225 -5 16 17 18 -219 336 0
573 3 4 -5 -82 -83 -88 -106 580 586 591 0
129 4 -5 -82 -83 84 -88 -106 561 562 586 591 598 0
597 -5 84 85 -106 129 135 561 562 586 591 605 0
-220 -84 -236 -488 490 495 0
108 7 102 103 104 331 602 0
432 -1 2 7 -43 83 -313 429 436 437 450 0
341 -46 -51 -82 -84 -102 -105 -313 342 0
11 12 15 16 18 87 480 496 0
-55 51 59 346 354 370 0
21 23 24 26 28 30 216 0
51 -82 -84 -85 -313 -328 337 349 360 363 372 0
-106 -5 -102 -103 129 135 0
-480 4 7 14 15 18 19 20 193 471 -481 495 0
-88 14 15 16 -17 18 -84 -103 -104 0
-62 -82 -87 192 384 385 390 391 394 411 0
-103 4 -5 -6 14 15 -17 18 20 -84 85 -104 196 480 0
-480 4 7 14 15 18 19 20 193 -481 495 0
-107 -5 -6 14 -15 17 18 -103 -104 -328 0
105 101 102 103 -104 597 598 601 602 0
109 102 103 104 108 596 599 602 0
-106 102 104 105 596 597 598 599 0
-227 3 -7 15 16 -17 18 176 195 426 0
-26 -6 -7 -24 103 104 -105 561 598 599 0
-136 102 103 104 -105 -146 -147 599 0
-456 -43 -45 51 52 -55 0
-73 51 -55 -319 432 445 446 -480 481 0
-319 5 -55 -82 -83 339 386 426 432 435 438 440 443 445 446 456 457 0
53 42 43 -51 55 -319 336 340 375 0
26 -12 -13 24 25 28 -31 -33 120 201 255 -324 0
36 31 34 35 37 -38 -260 -313 0
23 -12 -20 24 26 28 216 232 570 0
74 72 -313 429 431 432 436 438 439 440 0
-72 -313 431 436 437 438 440 0
-110 15 16 -17 18 -24 25 26 -27 28 -105 0
-72 -319 426 435 438 440 457 0
411 -62 387 390 391 394 396 397 0
-55 3 4 -5 -73 84 -319 339 432 0
-439 -72 73 431 441 442 452 0
-66 2 -5 -82 -84 135 -313 385 393 0
-252 -51 55 -282 341 0
-65 -313 384 -481 -495 0
-106 78 -101 -105 -107 -319 427 435 447 0
-370 -60 339 347 354 360 0
13 11 14 15 18 -22 -27 435 0
13 12 14 15 18 163 195 197 0
252 34 36 37 -38 -246 278 0
-55 -2 -5 -45 -81 -82 -84 -101 -105 0
-52 51 55 60 345 346 375 0
-55 -82 -84 -85 -313 339 0
51 -7 -8 -16 -17 55 -319 345 0
51 -7 -26 -27 55 -319 345 375 0
313 -5 -7 -8 83 -84 85 -252 476 0
51 -8 -26 -27 55 -313 346 375 0
-63 -82 84 -101 -102 399 400 420 0
-411 63 -66 -319 384 392 420 0
56 -2 -5 -45 52 54 55 336 375 0
-337 -51 336 339 353 355 357 358 359 0
53 15 17 18 52 54 55 374 375 0
-55 42 43 -45 51 -135 345 0
57 52 53 55 -319 372 0
-23 -4 -5 -7 -24 -26 -313 471 488 0
-106 84 -85 -101 -102 -319 420 0
-27 -12 -17 24 25 28 221 236 435 0
-26 -12 -16 23 24 25 28 236 390 0
84 3 4 -7 85 86 -146 0
-11 -6 -7 -8 -18 -51 52 53 360 0
-11 5 -7 -8 -18 -51 339 0
-25 -5 -8 -16 -45 -150 232 331 0
-52 -22 25 26 28 53 336 346 471 488 0
-72 -1 -7 83 161 437 438 439 471 0
51 -7 -8 -16 -17 55 -313 346 0
-61 62 -82 -84 -101 -102 382 388 389 0
64 62 -313 384 388 389 400 420 0
-388 -11 15 35 -38 161 251 -252 282 0
-61 3 -5 -62 135 384 387 388 389 391 394 0
341 -51 -313 339 340 347 350 363 0
-2 -5 -7 -11 13 14 15 -16 -17 18 -43 -45 0
-14 -6 -7 -8 -16 -24 -324 0
-26 -12 -16 24 205 236 237 331 390 0
-18 -6 -7 -8 -11 -51 55 0
-106 -101 -103 -105 -319 426 432 439 440 443 446 0
-24 25 26 28 -103 -105 229 313 0
432 3 4 -5 84 -319 -426 429 438 439 444 446 0
73 6 -7 -8 72 -319 341 429 477 0
-55 -4 -5 42 43 -45 294 345 0
-63 3 4 -5 -82 -83 -319 382 390 399 420 0
73 72 -319 431 432 440 456 0
-73 240 -319 427 435 444 481 489 -581 0
62 -5 -8 -51 55 63 141 -319 384 420 0
-21 3 4 -5 -25 -26 -51 -319 337 339 375 0
31 33 34 35 37 258 0
21 -5 -8 -25 -26 -42 -45 -84 240 -324 0
-72 71 -81 -82 -101 -103 -107 436 437 438 0
-71 -4 -5 -7 -161 426 427 428 431 0
-55 -72 73 78 -101 -105 -319 354 461 0
-595 -14 15 -16 17 -34 -142 -150 192 0
-52 -1 -5 -45 336 348 354 360 375 0
-52 -1 -5 -45 337 346 347 348 350 0
57 15 16 -18 52 60 195 337 351 360 372 373 0
-72 -1 -7 73 86 161 436 438 440 488 0
-51 -7 -8 -31 -38 55 340 0
-55 -45 51 -135 345 360 0
-55 -45 51 53 346 546 591 0
51 -45 53 -313 346 372 375 377 546 591 0
-52 -1 -5 -32 -33 -45 -101 -103 -255 488 0
-440 34 35 -38 281 -313 -426 0
-30 24 26 28 217 224 232 0
-52 -1 -5 -45 53 57 346 348 350 0
-135 -43 -45 51 -55 346 0
-31 -7 -8 -36 -38 -51 55 0
-63 3 -5 135 -313 382 399 420 0
-344 -11 15 -16 -21 162 191 204 207 236 0
56 -51 55 -82 -101 -102 -313 375 0
-11 -7 -8 -16 -18 -51 55 0
-52 53 55 56 346 351 352 375 0
-105 -55 -81 -82 -84 -101 -103 0
-27 -8 -26 53 54 55 -56 336 0
-57 -25 -27 51 54 349 445 0
-75 51 54 -55 -72 73 81 84 -354 426 429 450 0
78 -5 -7 -72 73 -319 341 429 439 456 0
-85 11 15 -83 -104 -105 191 192 195 0
-106 -8 -25 -104 -105 201 -324 0
61 64 -319 390 397 404 471 487 488 0
51 -36 -39 42 43 55 59 -319 345 374 375 0
-21 25 206 207 208 209 0
56 -17 -20 52 53 54 58 360 0
21 -12 -14 23 27 28 29 30 300 0
-74 -38 -39 42 43 -319 428 450 461 0
53 -38 -40 42 43 52 54 55 374 0
-90 54 55 57 -60 -83 -344 372 0
-591 21 -25 27 28 215 216 217 -585 0
-33 -21 -25 -26 -31 -83 84 85 492 0
31 34 -45 255 281 282 285 0
-72 -52 -57 187 426 435 436 440 457 0
-586 62 -84 88 -101 -104 -313 391 420 497 0
341 -8 -43 -51 54 55 -313 348 350 372 375 0
87 -5 -7 83 85 -103 -104 135 0
-105 -55 -81 -82 -101 -104 0
73 78 -319 430 431 432 437 461 0
5 -8 51 55 -313 346 375 0
26 23 24 25 28 214 0
-40 -36 55 57 58 338 345 0
-270 -43 -45 51 -55 346 0
105 -23 25 102 -104 106 108 109 -147 -150 269 587 0
105 -25 -26 -45 102 -104 106 109 578 588 0
-3 -5 -8 -104 105 -107 110 561 562 0
-3 2 -5 -7 103 -104 -105 107 110 561 594 0
456 5 78 -319 386 426 427 435 439 446 447 0
-386 24 25 26 -27 28 -381 0
-165 102 -104 105 108 109 -168 599 0
78 -55 -73 76 77 -319 -480 0
13 3 4 -6 14 15 -16 17 18 381 0
13 3 -5 -7 11 15 -16 17 18 -480 0
440 73 -319 429 430 432 439 456 0
-24 -5 -7 -8 -16 25 -34 -38 84 0
-565 -5 6 -8 -51 55 56 0
52 -51 54 55 56 60 339 358 375 0
2 3 4 -5 -7 81 -101 -104 -105 -313 341 432 440 -481 488 0
-107 11 15 -16 17 18 -104 -105 -324 0
-354 51 53 -55 346 358 359 0
-103 -5 -7 -12 -16 83 -84 85 -104 135 0
-579 11 15 17 18 -585 0
-135 -45 -55 -81 -82 -101 -104 0
451 71 427 435 437 438 440 448 449 450 452 0
-471 34 35 36 37 81 -82 278 0
105 102 103 586 587 588 601 603 0
-53 -12 -15 -45 52 55 353 371 372 375 0
-24 28 226 227 -324 0
85 4 -7 14 -15 -16 18 19 20 -84 471 -480 487 -488 0
32 34 35 -38 250 285 -313 -324 0
-51 55 -82 -101 -102 -313 340 375 0
-63 -43 -105 -110 382 400 420 0
5 -8 -15 -16 34 -38 246 285 -313 0
26 -7 -8 23 25 -34 -38 201 0
11 13 14 15 16 169 0
51 -6 -17 -18 55 -319 337 345 372 0
11 13 15 16 17 166 0
-55 339 347 358 359 360 0
426 -72 73 78 -319 -429 461 0
427 -73 -319 -429 435 445 446 0
-71 78 79 427 428 429 434 461 0
-75 -84 -85 -101 -104 437 444 450 0
-108 11 -14 17 -83 -84 -88 -105 181 -324 0
432 4 7 -71 72 -82 -83 -84 -313 429 0
447 -1 7 72 -73 -82 -85 135 427 450 0
-71 -81 -88 150 -319 426 427 429 461 0
73 34 35 37 -72 247 282 426 436 471 488 0
75 71 -72 73 74 78 -313 461 0
-55 52 339 358 359 360 0
-55 -313 339 346 351 354 360 370 0
-73 72 -313 427 445 446 450 0
71 72 73 -313 436 450 461 468 469 0
-68 -18 -20 62 63 408 0
-73 3 4 7 -313 427 443 447 0
59 53 56 58 60 346 347 360 377 0
-55 -4 -5 -43 -45 294 346 0
26 24 25 28 206 214 215 0
-24 25 28 -43 227 534 579 0
176 11 15 16 -17 18 -34 36 -43 -45 183 187 0
26 25 28 201 206 216 217 221 0
74 72 -313 427 433 434 0
-72 432 436 437 438 439 441 449 0
-72 427 428 437 440 441 442 461 0
26 25 28 201 206 216 217 227 0
-442 -22 25 27 28 471 488 0
-52 53 346 348 349 350 351 352 0
169 16 18 24 25 26 28 182 -324 0
55 -6 -17 -18 51 -313 346 372 0
-72 3 4 7 427 429 436 440 441 442 0
2 3 4 7 -43 83 -84 -313 429 432 -481 498 0
-435 -72 -313 426 440 445 446 0
-73 3 7 71 -72 75 80 135 448 0
2 3 4 7 -102 103 104 109 110 567 -572 0
-106 -101 -104 -105 -313 390 391 394 395 420 0
-108 11 15 16 18 -104 -105 0
-587 25 -26 27 28 201 -585 0
87 -5 88 135 -313 381 384 394 395 405 420 -473 480 -481 488 495 498 0
-55 -14 -15 42 43 -45 302 337 360 0
-55 -14 -15 -45 302 337 338 353 0
27 21 24 28 210 234 235 331 0
29 25 28 30 206 214 226 231 232 0
-52 -1 -5 -45 51 345 346 0
-55 -45 59 339 345 360 591 0
-450 -34 35 37 42 43 -147 0
-72 73 78 426 436 437 461 0
4 3 7 -73 -82 -84 432 -480 492 0
-40 31 35 36 37 262 269 0
78 72 73 74 75 461 0
26 25 28 201 221 230 241 0
26 25 -27 28 203 216 217 221 0
26 25 28 201 203 216 217 221 237 0
2 3 4 7 -74 83 -84 88 -313 432 -481 0
108 7 102 103 104 331 0
26 25 28 209 217 227 241 -324 0
-25 201 219 227 231 233 -324 0
72 73 74 429 432 461 0
102 7 -16 -17 103 104 109 110 331 0
2 4 7 -74 75 78 -82 -84 0
81 84 -104 -105 275 488 0
1 3 4 7 -103 104 -105 108 109 110 561 0
-1 7 71 73 -74 75 -82 -84 0
55 -6 -8 -31 -37 -38 372 -480 -488 0
-55 -4 -5 -45 345 346 353 0
-3 -5 -6 103 -104 105 571 603 604 0
-55 -319 338 343 347 354 370 0
-61 -2 -5 -6 -11 -16 115 205 -319 340 384 420 0
11 14 15 -25 -45 165 192 195 231 233 0
-338 73 -74 -319 -336 0
26 23 24 25 28 30 216 0
78 2 3 7 73 -319 426 456 457 0
78 72 73 76 77 429 0
-52 53 55 346 348 351 352 375 0
75 71 72 73 78 461 0
-75 -55 -74 -82 -84 -101 -104 -313 0
-61 -52 -81 -83 351 352 382 383 389 411 421 423 0
-24 -6 -7 -26 -105 106 561 562 -564 585 0
-63 -7 8 -319 382 390 398 402 404 411 0
-23 -6 -7 -26 101 -104 105 106 0
-102 2 5 -6 103 -104 105 106 136 -146 561 0
-103 8 51 -52 55 -102 374 377 0
103 101 102 104 108 110 596 0
103 101 104 105 108 596 599 602 0
-52 8 -43 51 55 -102 -103 0
8 28 38 82 331 0
72 -2 -5 71 82 -313 430 450 452 0
55 -8 -26 -27 -51 336 337 338 375 0
107 -5 -7 46 101 104 105 108 598 599 603 0
-162 1 -5 -7 -8 -81 82 87 0
-1 4 -5 -7 -8 104 105 331 562 602 0
-1 -6 -7 -8 -102 103 104 105 -146 599 0
-11 -1 -7 -8 16 -324 426 471 0
-561 -1 -11 -15 -16 0
-561 -1 -7 -8 -11 16 -324 0
-78 -18 -20 82 -88 -150 432 0
55 -1 -5 -45 -51 54 56 337 375 0
104 -5 -7 -8 102 105 331 562 0
-5 -7 -8 102 105 331 562 563 578 602 0
-106 -8 -35 -36 102 103 105 596 599 0
-106 -8 -35 -36 103 104 105 107 599 0
-106 -6 -8 -15 -16 -46 -102 103 104 105 0
61 62 63 65 -81 -84 -101 -106 383 420 0
-63 -43 -46 -62 226 381 393 420 0
63 42 43 -46 66 -136 381 420 0
72 -18 -20 -21 -27 124 428 429 443 456 457 461 0
-61 -51 -56 62 141 384 386 388 389 398 0
-101 -5 -7 -8 -51 -105 -106 340 372 0
51 52 353 354 359 364 365 375 0
11 14 15 16 165 195 0
495 5 -7 14 -15 -16 82 331 0
110 104 106 107 108 109 562 0
-18 -8 -11 -14 -81 82 0
-18 -5 -7 -8 -11 42 82 87 0
-426 -32 -33 73 -81 -83 -319 427 428 430 432 457 0
340 -51 336 339 341 343 353 379 0
23 -11 -14 24 25 27 28 -102 -105 0
-52 51 -102 -103 347 349 372 0
52 -7 -36 -37 38 51 55 353 375 0
-107 -7 104 105 331 566 574 598 603 0
-602 25 27 28 35 37 38 233 -324 0
54 52 53 57 60 337 373 378 0
-101 -55 -81 -83 -105 -319 -561 0
-24 25 26 28 42 -104 -105 229 579 0
105 2 4 -5 -7 -8 101 -102 -104 578 602 0
106 104 105 110 570 600 601 603 0
-109 -7 -8 -14 16 -105 180 0
-4 -6 -7 -8 -14 189 190 0
-101 -81 82 -102 -105 -146 -319 337 345 372 375 0
106 -26 -27 -46 101 102 104 109 562 0
-86 11 15 16 82 -105 -106 195 0
-214 -52 55 56 -62 381 392 398 400 406 0
-13 15 16 -102 -104 178 195 262 0
86 4 5 -7 82 -102 -104 495 0
-495 11 -15 16 19 20 159 187 -488 0
-411 -319 381 382 385 390 393 400 420 0
-370 -46 103 -105 106 108 109 571 0
-599 -7 -15 17 18 -35 36 147 186 278 -328 0
-77 -81 -83 -101 -107 -319 439 0
-255 34 35 38 42 51 55 57 281 337 372 0
-85 42 82 -102 104 -105 107 597 598 603 0
-19 -16 -27 34 -36 -37 232 240 251 255 277 285 0
-51 -11 -16 42 43 55 -102 -107 337 353 360 375 0
-602 11 15 -16 35 37 38 165 181 195 0
-55 -1 -5 -45 -81 82 -101 -105 546 0
-55 -1 -5 -45 51 82 -103 -105 0
-602 15 17 18 35 37 38 -324 0
5 15 -16 -46 0
11 -7 -15 -16 20 82 192 193 0
101 7 104 105 108 331 599 0
-106 4 7 82 85 -102 -108 0
11 1 7 15 16 18 82 471 0
-604 11 12 15 16 35 36 -37 173 -195 0
-604 25 26 28 35 36 38 0
-242 -11 -16 25 26 28 34 -36 -37 162 186 189 255 285 0
-52 -18 -19 -42 336 347 348 351 352 0
-266 34 37 38 246 276 286 287 0
-57 -319 341 349 356 0
88 4 7 82 -102 -104 495 0
85 4 7 82 88 -102 -104 498 503 0
-59 15 16 17 -18 337 351 360 373 376 0
341 -51 54 55 337 351 352 372 0
-411 -45 -55 82 -101 -103 0
-61 7 -21 -26 62 123 340 386 388 389 405 0
104 7 102 105 -324 331 562 0
-60 17 -18 -21 -51 -58 165 188 192 -203 204 207 236 0
88 7 11 -15 17 18 82 0
33 34 35 36 38 246 0
495 1 7 -15 17 18 82 88 0
85 1 7 82 -495 498 0
-12 15 16 -102 -103 169 171 217 0
-63 -21 -26 62 123 398 403 404 0
-67 -37 -40 62 386 401 0
387 -12 -14 62 67 -68 82 400 406 0
-58 -18 -19 -42 51 353 379 0
57 51 55 60 -319 358 360 372 0
-14 -17 -20 -34 38 -108 -110 276 0
-604 15 16 18 25 26 28 0
108 101 105 107 109 110 561 0
-62 -1 -5 -8 -42 82 -86 381 0
57 -18 -19 -42 55 56 60 353 378 0
495 7 14 -15 16 -17 18 82 191 -324 0
-57 -35 -37 51 349 356 451 0
-72 -83 -88 240 -319 426 437 438 439 0
336 -18 54 57 188 192 195 -328 337 345 360 379 0
-109 3 -8 -102 -103 -105 0
-104 34 35 37 38 -39 -81 -84 -110 0
-104 4 7 82 88 -102 -105 0
102 7 103 106 108 331 563 0
72 -319 427 429 432 443 448 460 461 469 0
-15 7 11 16 17 82 -105 -108 188 0
-108 11 16 -17 18 -105 -106 165 0
-37 -23 -27 251 259 272 443 0
62 -81 82 -101 -105 -106 382 383 384 385 420 0
-88 1 4 -6 -16 -17 -81 82 0
-492 11 14 15 18 -488 0
52 -18 -20 51 53 55 -328 353 0
-45 7 -8 21 -25 28 -42 -84 233 0
-277 35 -37 38 279 280 0
-604 21 22 -27 -37 -46 218 233 236 277 285 0
-219 4 -15 17 18 -141 142 180 336 0
63 7 62 65 340 383 396 397 406 420 0
-110 6 -25 -107 331 0
-490 -6 11 -15 -488 -489 0
27 21 26 28 87 201 216 217 480 498 0
-188 15 -18 189 190 192 195 0
-62 -42 -46 181 381 393 420 0
-61 -6 -7 -8 65 385 431 476 0
-66 61 62 -81 82 -101 -106 0
180 11 -15 16 17 19 82 -104 -106 187 0
-189 -11 16 22 23 -25 26 27 159 195 228 0
-81 5 -8 -11 -18 82 475 0
383 -27 -30 62 68 382 398 411 0
-214 -32 38 -232 -328 0
34 38 -42 247 277 -328 0
-101 34 -102 -103 277 278 283 284 285 0
-46 5 -7 11 -16 82 192 0
11 15 16 18 82 86 87 0
-604 15 16 18 34 -37 246 247 255 285 0
-108 -5 7 82 85 -102 -104 135 0
-242 15 16 18 35 36 38 0
-599 26 27 28 34 36 38 251 255 276 0
24 26 27 28 -31 -33 120 216 217 232 0
-599 26 27 28 -35 37 38 276 0
62 15 16 18 68 382 383 386 398 411 422 0
46 -5 -25 -35 36 331 0
-51 -5 -7 -8 -46 339 -565 0
32 34 35 38 247 278 -328 0
-60 -33 36 37 38 -54 82 473 586 0
33 34 37 38 246 251 -328 0
-104 7 -23 -25 -105 -108 480 0
102 106 107 108 109 110 578 0
-51 -31 -37 -84 -88 337 339 341 351 352 372 0
104 -6 -7 -46 101 103 106 601 602 603 0
26 28 38 82 331 0
-16 -8 -25 -26 -34 82 0
-16 -8 -25 -26 28 331 0
331 28 38 82 0
-17 11 -14 15 16 82 87 -331 496 0
-108 11 -14 15 16 17 -84 -88 -105 485 0
-51 -101 -106 145 336 337 338 339 376 0
14 11 165 186 188 192 -331 0
-498 11 15 16 -18 19 20 181 -488 0
104 5 -7 45 103 -105 106 -150 561 602 0
-432 -319 426 427 428 434 435 456 457 461 468 0
457 -18 -20 72 74 76 -319 427 428 0
-104 4 5 -7 82 85 -102 -106 0
-395 62 64 -331 381 382 390 411 0
104 -6 -7 101 103 105 107 601 603 604 0
101 102 105 106 578 601 0
570 -7 101 -102 104 105 106 603 0
-72 -1 -7 45 46 426 438 439 440 0
-51 -32 -33 -81 82 337 338 344 373 376 378 0
-23 -5 -7 -24 -25 82 87 0
284 -8 -16 -18 37 38 -276 278 283 0
-34 -24 -25 38 -106 -107 -331 0
-34 -15 -16 -24 -25 38 -331 0
-6 -7 82 102 104 105 -331 0
37 34 38 39 252 254 269 276 0
35 38 -104 -107 281 283 -331 410 0
55 -16 -18 -20 51 60 -331 375 0
336 -18 -20 -51 53 54 60 -331 373 0
246 -8 -16 -18 34 38 277 282 285 -313 -331 0
56 -18 -20 53 55 57 -331 336 379 0
-34 -15 -16 -24 -25 38 -331 0
85 -7 11 14 -15 -16 82 0
-110 -5 -6 8 -25 26 27 28 -107 0
-110 -5 8 -23 -25 26 27 28 -104 0
102 104 106 107 109 562 604 0
-67 -331 381 391 401 -473 -488 0
-599 -5 8 26 27 28 0
101 104 105 106 108 110 583 0
-392 76 77 -319 -395 427 428 438 443 0
101 104 105 107 108 110 583 0
-107 7 8 38 -110 251 259 266 0
495 -5 7 11 14 -15 82 88 0
-599 7 11 14 16 17 143 165 0
109 104 105 108 110 562 563 596 0
105 107 108 109 110 -488 493 494 562 597 0
-495 11 17 19 20 188 -488 0
55 57 -319 336 337 345 353 372 0
55 8 -16 -18 -20 51 -331 372 375 0
-57 8 55 -331 341 375 0
-13 8 -16 18 -104 -110 176 0
246 -22 -23 34 38 165 247 276 -331 0
109 3 -5 104 107 108 110 561 562 578 596 0
102 -5 -6 -16 -17 -18 103 105 -106 107 110 0
-24 -25 26 28 227 229 235 0
103 -5 -6 -16 -17 -18 102 104 -106 107 110 0
52 8 60 342 378 379 -472 -488 0
52 51 -331 353 358 359 360 374 0
52 -24 -25 51 -264 -319 -331 355 0
63 61 66 -319 -331 408 423 424 0
-570 4 -5 -6 7 8 34 38 286 287 -473 -573 0
-88 -81 82 105 107 -108 -473 -561 0
-61 -7 -8 -11 -18 381 388 389 398 411 0
-34 38 42 43 46 270 -331 -495 0
-23 1 5 -24 82 496 0
-411 -45 51 -55 346 354 0
349 51 54 56 345 350 354 375 0
220 -25 27 29 30 201 226 233 0
498 -84 87 -105 -110 -480 496 0
205 23 24 -26 27 -201 0
222 21 22 24 -28 240 0
-136 -24 25 28 -146 0
208 22 24 25 27 28 209 0
241 22 -27 28 206 218 242 0
-397 -22 25 27 28 -32 37 278 0
217 25 26 -27 -214 215 216 0
244 21 25 26 29 -218 221 0
-147 23 25 -136 -146 201 240 0
243 21 24 25 27 201 217 220 0
229 21 25 -29 216 237 240 241 0
217 23 25 -30 -201 236 237 240 0
238 25 30 201 221 227 237 243 0
394 -18 -19 -42 -62 381 411 0
19 11 14 15 16 -18 20 -350 0
86 85 87 88 0
446 -18 -20 71 72 74 444 0
241 -26 27 28 -236 242 0
239 -26 45 -103 -107 -110 231 237 0
213 21 -26 220 226 237 0
-78 -63 -68 -72 -480 0
-433 -66 385 406 -426 -430 -480 488 0
492 -431 -457 -472 -480 490 0
423 62 64 65 421 422 424 -472 -488 0
-497 71 72 -77 -488 0
-499 42 -488 0
36 35 37 -58 -59 0
190 16 18 -35 -37 -106 -110 197 0
573 -35 -36 -106 580 586 591 0
573 -35 -36 -106 562 586 591 0
257 33 -35 249 270 0
176 11 12 -17 182 0
-19 -17 -37 -39 0
45 46 -56 -57 0
423 15 16 18 61 62 398 411 422 424 0
191 12 13 14 15 18 0
173 15 17 18 160 165 166 0
191 11 14 15 18 165 0
191 11 12 13 15 18 0
196 11 13 15 18 166 197 0
163 16 17 18 -159 164 0
167 13 14 16 18 161 0
190 16 18 187 189 196 197 0
189 13 16 18 164 166 187 196 0
-441 21 24 26 27 28 81 480 0
217 21 24 26 28 216 221 0
219 21 22 24 26 28 0
209 22 26 28 29 206 218 241 242 0
225 22 23 27 28 29 30 0
450 -51 -55 73 -75 -81 -82 0
438 -55 -58 -72 73 -82 -85 426 0
53 54 -55 -62 -65 -81 -82 0
-9 -106 -110 0
-26 -6 8 -25 0
5 8 -16 18 0
-283 -6 8 27 -28 -36 -38 233 -324 0
-70 -63 83 471 0
175 -6 12 14 -15 -16 331 0
4 -6 -11 -16 -61 -63 -64 0
199 -6 -9 -18 -36 -38 188 195 0
476 -6 -8 62 -68 -84 -87 403 404 0
11 -4 -6 -14 16 17 18 -83 -84 0
85 4 -6 -84 -107 -108 -480 0
215 -12 -18 -480 0
378 -6 -59 147 343 346 354 0
3 4 -6 -73 -77 -82 -83 0
86 -6 84 85 -104 -105 -106 -107 0
589 -6 -46 105 106 -109 561 603 0
10 -6 -61 -69 -81 -87 423 0
272 8 38 -46 246 247 255 270 0
373 -28 -30 35 36 38 51 52 60 353 0
-29 -14 -16 18 -27 -34 35 38 -324 0
275 -34 37 38 253 261 268 276 286 0
7 -24 -25 -34 -324 0
-109 16 -18 -103 -105 177 188 -331 0
-19 -11 -16 -25 33 34 38 -204 232 233 246 -276 0
-19 -11 -16 -25 34 -35 37 38 -204 232 233 257 278 -331 0
22 -5 -6 21 -23 24 -25 26 28 46 -84 0
-102 42 43 61 -62 69 -104 390 398 0
-101 -81 82 88 -105 -107 -472 475 0
18 16 17 -23 -25 -104 -110 187 190 197 0
-106 -35 103 -104 250 255 270 277 278 365 563 591 596 597 598 0
55 -32 -33 -319 345 348 355 371 372 375 -472 -488 0
27 16 17 18 26 28 -35 249 255 270 278 0
34 32 33 38 250 286 287 0
15 -16 17 18 19 82 -104 -105 -107 0
-60 -35 -40 57 336 359 370 372 586 0
17 26 28 38 82 0
106 -6 -17 -18 104 105 107 562 604 0
103 -6 -17 -18 101 104 106 107 604 0
106 -6 -17 -18 101 105 107 604 0
-35 -23 -25 34 249 257 353 0
103 102 104 106 107 603 604 0
-85 42 82 102 -105 596 603 0
-8 -6 7 -24 -25 102 104 562 604 0
-18 -6 -17 101 102 103 105 -109 596 0
105 -6 7 -17 -18 101 102 103 604 0
105 5 -6 -7 82 102 -331 586 603 0
104 5 -6 -7 82 102 -331 591 603 0
1 7 -16 -17 -81 82 135 495 0
-12 -16 -17 82 85 86 0
38 26 28 82 0
11 15 18 19 20 165 166 173 0
-345 51 -313 -331 372 -495 0
34 32 36 37 247 260 280 284 288 -331 0
350 7 8 82 -85 374 -472 0
-352 21 26 28 37 -38 218 232 -260 278 282 0
-336 51 90 -331 338 339 353 354 360 372 499 0
-43 -24 26 28 45 46 -489 0
-19 -15 -16 -24 -25 -34 227 228 231 281 282 285 0
252 34 -38 -247 260 0
-260 51 -52 56 -285 -495 0
-387 -6 -8 -11 -16 -81 82 138 395 0
56 52 53 337 338 339 354 360 375 0
-14 -8 -15 -16 -34 -38 0
8 26 28 82 331 0
-252 31 34 37 -38 247 250 -324 0
-85 -16 26 28 82 0
-72 -313 429 432 438 439 440 450 0
-12 -14 -18 51 -55 56 -58 363 -480 0
-28 215 222 228 -328 -331 0
74 73 84 90 -319 434 435 437 439 440 456 466 468 469 0
-74 85 -319 440 443 450 451 452 490 492 0
53 51 54 57 -328 350 0
55 51 52 54 57 374 0
-56 51 52 53 -328 0
33 31 32 38 -328 -331 0
56 -51 54 -313 -331 339 350 0
-313 -51 54 -328 -331 339 346 350 0
395 43 -62 -319 -331 384 385 390 411 0
65 -62 63 -319 -331 385 395 0
-73 3 4 -5 84 85 -319 432 444 0
-62 -319 -331 -336 -339 390 395 0
63 62 -319 -331 385 387 0
7 3 4 -34 -35 -62 -65 72 84 85 -319 432 0
-24 -25 -34 -328 -331 0
68 63 -319 -331 381 390 411 0
-63 3 4 -5 62 -319 -331 387 399 -480 0
-62 -319 -331 381 390 392 393 0
-342 23 26 27 -28 225 -336 0
66 61 -319 -331 387 390 400 413 0
354 -319 -328 -331 336 -339 342 345 0
102 104 106 109 562 600 602 604 0
-106 -5 -8 561 580 586 591 598 602 604 0
-313 62 -331 381 387 405 406 411 0
62 63 -319 -331 387 398 411 0
-31 -11 -35 -328 -331 0
16 -328 -331 -480 0
-328 -331 -480 0
-471 34 35 276 282 -331 -480 0
66 -62 64 -331 387 390 392 399 420 0
-247 62 -252 -319 -331 411 0
56 43 51 -319 -331 345 368 375 0
-109 -8 -15 -16 -106 -331 0
-579 -83 84 86 -593 -600 0
-35 -15 -16 279 280 -331 0
-108 -13 -15 -16 -104 0
-19 11 -15 -16 24 -25 -331 -480 0
-3 -15 -16 -23 -25 0
-23 25 220 222 223 224 0
-381 -62 68 384 385 394 0
-104 -7 46 563 571 578 585 586 600 0
342 5 8 55 -336 345 346 353 374 377 0
54 55 336 337 345 371 374 375 0
-106 101 103 105 107 573 599 603 0
19 12 13 14 15 20 195 0
25 21 28 30 216 229 236 0
-25 7 -16 -17 -20 0
58 -16 -17 -20 51 -319 345 360 0
58 -16 -17 -20 42 43 51 270 345 0
-494 51 53 59 61 62 69 -319 -480 0
84 51 -60 471 -480 493 0
-59 -16 -17 -20 42 51 58 351 0
57 51 54 56 58 -313 0
260 34 35 -38 250 251 281 -313 0
-319 63 -64 391 480 0
-31 38 250 251 -324 0
35 -16 -17 -20 38 39 0
-35 -16 -17 -20 0
-25 -16 -17 -20 0
28 25 29 -191 -197 0
-30 25 26 209 215 218 236 242 0
-33 -28 -29 -39 -58 -319 338 344 350 378 0
-60 344 352 359 374 377 379 0
-29 25 205 206 216 223 229 0
-51 336 337 340 341 342 343 344 0
244 21 25 26 27 -28 207 216 229 0
347 57 -58 60 -342 346 357 360 372 378 0
-51 340 341 342 343 344 345 360 0
-68 -11 13 14 15 -16 -17 -20 159 162 175 192 206 251 341 386 0
-229 -34 -243 270 281 284 287 0
-218 -34 35 42 43 281 282 285 0
-61 -11 -17 -82 -88 382 383 386 387 411 0
-81 3 4 -8 -82 -83 162 207 0
-55 42 43 -45 336 337 345 -411 0
-54 7 -58 -313 -331 340 -360 381 393 396 0
78 7 -34 -35 71 -72 73 74 -313 461 0
-25 204 215 219 225 232 238 239 0
-15 -5 10 -18 -19 0
359 51 54 -60 -345 0
-63 -33 -37 -84 -88 382 390 403 404 0
236 -6 8 25 28 35 37 38 -331 0
-62 -33 -38 43 -331 381 407 411 -480 0
-81 -84 105 106 107 603 604 605 0
-37 33 38 251 259 276 -331 0
51 53 56 57 59 352 360 0
-75 72 74 429 459 460 0
-427 -426 499 500 0
57 52 53 56 338 339 360 0
51 -43 52 56 -331 360 0
-75 -55 -74 -82 -84 -313 -428 0
429 72 74 78 -313 461 0
76 72 74 77 78 -313 0
-78 -28 -29 -43 80 432 436 0
-480 4 7 -84 85 492 0
-21 -5 -6 -9 -29 -31 38 -331 0
63 -62 82 -331 -390 400 402 405 0
23 25 -26 28 201 203 211 -331 0
-23 7 -13 18 -26 -331 0
-68 62 65 66 -319 -331 381 402 0
-84 58 59 60 -331 339 -480 0
-18 11 -15 165 166 173 -324 0
-28 -7 207 215 218 237 243 244 0
-38 -8 -56 -57 -68 -69 278 282 0
35 31 37 39 40 258 265 285 0
-35 8 31 -45 150 260 267 285 0
-231 -25 26 207 214 215 218 238 -328 331 0
53 -52 54 62 -68 -345 -495 0
-30 -7 -28 31 32 33 36 -37 -38 0
-488 -146 -240 -336 -495 0
-107 -8 -45 104 566 574 581 603 0
331 46 -107 -110 -141 0
-35 276 277 278 279 280 0
-24 226 229 230 232 233 236 240 241 0
-68 -53 -58 -319 387 -480 0
357 51 52 54 57 -319 -372 0
381 43 -62 -331 -387 390 407 411 0
11 7 15 -17 18 19 20 -480 -481 0
-167 1 -5 -6 130 -141 -166 0
250 -31 38 -276 -331 0
-313 -331 340 342 346 347 360 372 0
-72 -63 -65 -68 -82 -85 426 436 461 0
72 71 -319 444 445 447 0
-483 86 480 -481 495 506 507 0
-17 167 176 182 191 195 -331 0
51 58 -313 -331 346 347 360 0
461 -319 426 427 429 432 435 437 440 444 447 0
-34 42 43 45 46 -84 -85 276 0
38 34 247 255 258 261 262 276 277 -331 0
52 54 58 -331 337 339 354 481 -488 494 499 0
-85 -62 -63 -331 400 0
75 71 73 74 78 461 0
-30 209 217 218 239 242 244 0
-360 -34 38 42 43 45 46 276 0
-51 7 339 341 342 385 0
17 14 15 162 165 -328 0
461 -18 -20 72 427 428 443 456 457 0
-201 -21 205 207 216 217 232 0
54 -33 37 38 51 84 276 351 352 359 472 -480 0
-18 -68 -69 162 165 166 173 174 186 195 0
-38 36 -68 -69 278 285 0
-18 162 165 166 173 192 195 -324 0
-65 51 -55 -63 360 -480 0
-73 51 -55 -82 -319 427 447 461 -480 0
26 -17 -19 25 -37 -38 242 244 0
38 -16 -17 -20 35 -108 -110 286 0
-60 -5 8 -11 17 -51 162 -328 565 0
601 102 106 108 -109 110 562 563 570 578 0
-579 -83 86 88 480 -592 0
53 51 54 -313 -345 0
-102 105 107 561 570 571 597 599 0
-471 105 106 107 110 603 0
-24 25 26 30 227 229 0
51 8 55 -328 345 346 353 377 0
-342 -319 -337 426 435 440 456 457 461 0
-18 17 168 175 183 188 198 199 0
38 8 34 -46 249 255 286 287 0
105 103 106 563 570 574 587 603 604 605 0
-16 -7 85 160 175 181 191 192 -488 489 0
-342 -51 336 353 357 360 372 375 378 379 0
-21 -25 -26 -31 38 -331 0
-109 -7 46 561 583 589 598 601 603 0
-21 4 -8 -28 43 -81 125 0
-219 11 16 166 -233 -331 0
481 4 5 -12 -13 -82 86 -104 -105 0
18 11 16 174 180 -331 0
-563 -51 -146 336 337 345 372 375 -585 0
104 5 102 106 -331 562 581 582 0
15 1 -8 11 16 17 -165 -173 195 0
-225 -14 16 17 -233 0
-222 1 -8 11 15 -18 192 196 197 0
-233 -25 28 237 240 243 244 0
174 11 12 -15 16 183 -331 0
-68 62 387 398 400 406 413 420 0
-71 5 386 426 428 431 432 444 445 456 0
-14 17 20 180 181 184 0
-336 -51 52 341 348 350 353 0
33 -31 32 34 35 276 282 -331 0
107 101 106 109 570 571 578 604 0
-8 7 -11 -18 -31 38 -331 0
66 -102 -105 -319 -331 387 -480 0
-23 7 -13 18 219 222 -331 0
-129 -23 -141 -143 -331 0
-51 -6 -8 -21 -28 339 341 342 0
25 23 26 207 228 -331 0
215 11 15 16 173 192 -331 -480 488 0
-26 213 220 226 231 237 -331 0
-28 26 42 81 170 207 218 233 -319 -331 0
34 276 278 282 -331 -471 -480 0
-570 -11 -18 -82 313 -583 0
-388 -51 72 73 -319 336 337 338 428 0
430 72 73 -319 429 -461 0
18 16 101 -105 -138 -147 167 174 182 185 -331 0
563 5 102 103 107 109 -331 561 591 603 0
-273 -34 35 38 282 285 0
53 5 -11 -17 59 60 342 346 0
-53 -43 -45 225 -313 337 346 371 372 375 0
-2 -6 -7 102 -103 104 105 -150 599 0
-226 -7 8 -14 18 -26 -45 183 237 0
354 59 336 338 346 371 372 374 375 377 379 0
-106 5 105 331 561 580 586 601 603 0
-124 -103 104 106 109 110 -146 561 0
3 4 -7 104 -105 -106 109 110 -146 -480 -562 0
-25 8 16 17 -146 0
-51 5 -21 -27 -313 336 341 342 360 0
51 -12 -13 -15 -45 52 -313 346 353 0
338 -51 -146 -147 -313 336 -360 0
106 104 562 570 572 594 600 601 602 603 604 0
84 3 5 -12 -14 -105 -106 0
-471 42 -84 103 -104 105 109 110 0
-103 8 -38 -146 -147 0
-51 5 -11 -17 58 336 337 360 0
-58 35 36 37 350 357 360 372 375 379 0
104 -1 -6 -7 -45 103 370 564 572 598 0
-12 -18 25 26 27 -28 42 -83 218 471 480 0
-104 4 5 -84 85 103 490 563 585 589 599 0
-30 -7 8 -11 15 16 -21 -27 161 0
-106 -45 370 561 562 570 586 598 600 0
55 8 42 60 81 338 342 345 371 372 375 0
-130 103 -104 105 110 -146 561 598 0
55 42 81 340 341 342 345 371 372 375 0
-403 34 37 38 276 -336 -480 488 0
-404 32 34 35 38 -83 252 281 471 488 0
-3 5 24 25 -146 -147 201 0
-573 471 -480 491 492 -591 0
-173 -34 35 38 42 43 281 0
-106 565 573 580 585 587 594 599 603 0
-28 12 16 -18 25 -45 195 215 233 237 240 0
183 -18 162 177 188 192 195 0
-62 -52 -53 -81 -319 390 392 394 395 0
-54 59 336 353 360 365 371 372 375 0
-54 336 353 360 364 365 371 372 375 0
-59 8 25 -28 237 240 336 337 345 360 0
-591 12 16 17 19 20 -585 0
-51 8 336 337 338 342 374 376 377 0
-83 8 -146 -147 0
-59 8 83 90 358 378 0
51 56 57 58 -313 346 0
405 67 -313 382 387 395 396 397 406 411 420 0
62 8 68 -313 331 389 398 399 400 405 406 411 420 0
180 12 16 17 19 20 -173 0
-18 8 -146 -147 0
25 8 -146 -147 0
345 8 -52 336 346 -354 374 375 377 0
8 -146 -147 0
-62 -53 -54 381 396 397 407 408 411 0
21 -7 23 24 29 30 236 237 0
-38 32 252 270 282 285 -313 0
-207 23 25 28 -201 236 237 240 0
218 25 208 209 216 217 236 237 240 0
23 25 -147 -150 -201 208 217 236 0
220 21 22 25 -26 -218 0
32 33 34 250 277 278 -331 0
59 51 53 58 346 374 377 0
104 105 106 108 110 561 562 570 0
28 7 26 -104 -107 201 225 -331 0
-84 -480 489 496 497 498 0
-106 109 561 562 570 586 591 596 604 0
105 -7 106 -471 562 570 587 589 603 604 0
-594 -38 246 247 255 282 285 -591 0
-25 206 212 219 225 231 233 0
-135 5 -8 -138 -150 246 247 255 0
-162 -4 -6 -7 -8 -81 86 0
480 -6 -7 -23 -26 85 496 0
62 382 383 387 398 402 409 410 411 421 422 0
480 -6 -7 -13 -16 85 496 0
-72 -12 -17 214 426 436 437 438 439 0
-25 5 8 201 219 228 -324 0
-24 -7 8 -45 -105 -110 228 0
-286 8 -21 28 143 204 -251 0
82 -5 -6 -8 18 -26 -34 186 -331 0
324 23 24 25 28 -38 -252 -285 0
-18 11 183 192 195 215 260 -324 0
-51 336 337 338 340 341 342 0
457 73 85 87 195 -319 426 432 456 461 483 488 0
20 7 11 -16 18 19 -480 -481 0
-8 1 3 -81 -83 138 207 0
-16 8 25 -28 34 -35 -46 82 331 0
-15 -5 -7 16 18 82 85 87 180 0
-10 8 34 -38 39 252 255 -324 0
104 -6 -7 103 -324 561 592 593 598 0
-82 8 51 -328 377 -488 -495 0
-52 -51 55 341 348 350 0
56 51 57 58 -331 347 353 0
-38 -31 34 35 36 82 250 260 285 -358 0
-13 5 -15 -16 -84 471 495 0
31 34 -45 -56 -59 255 285 0
-18 -8 -15 -16 0
-78 55 56 57 60 72 -73 74 -342 346 0
-58 31 34 37 -38 -59 255 276 0
-72 429 430 435 436 439 440 456 0
25 15 17 27 29 -46 240 242 244 0
17 15 16 19 199 0
-62 43 -331 381 390 393 395 396 397 407 0
-88 -17 18 19 20 -51 -52 -82 -83 -84 0
73 42 43 45 46 78 -227 426 461 0
461 73 78 426 433 434 441 442 450 0
-73 433 434 435 443 445 446 447 0
13 11 16 166 189 190 195 0
81 89 90 -471 0
62 61 -313 -331 384 406 408 0
-28 22 -43 207 215 219 237 240 -399 0
-25 24 201 219 232 233 -328 0
-78 -53 -58 -82 -83 -319 432 0
101 -7 46 104 106 107 570 603 604 0
486 5 136 471 -480 494 495 496 0
-30 209 217 230 235 236 237 240 0
-73 -319 432 435 443 444 445 448 449 0
-104 105 106 563 589 600 602 604 0
-8 5 52 55 -472 -488 0
105 106 561 570 580 581 582 589 590 600 605 0
103 101 102 106 109 600 602 604 0
-8 1 -103 -105 -109 132 0
339 8 54 58 -331 338 345 346 353 364 374 0
78 2 4 7 72 73 75 -481 0
78 2 4 7 73 75 426 -481 0
28 24 25 206 214 -328 0
72 -319 426 429 432 445 446 447 461 0
103 7 46 101 102 331 588 0
-441 -22 25 27 28 81 84 0
7 3 4 -73 84 240 -319 427 432 446 490 0
31 34 36 37 -45 281 282 285 -313 0
-31 -35 -37 -51 -54 -84 -141 495 0
78 71 75 -319 426 435 461 0
-15 11 -34 -36 150 165 188 -331 0
-109 27 -28 -104 -105 204 215 -328 0
109 8 101 102 103 106 107 0
-602 -9 0
16 -6 15 -102 -109 -110 487 0
11 12 13 15 183 -331 0
-207 -11 16 -233 -331 0
-400 1 -5 -6 11 14 -15 136 0
54 52 55 83 -313 -331 372 473 0
-480 42 -102 -104 471 -487 0
-38 -6 36 -109 -110 278 289 0
25 -6 26 -109 -110 244 0
-32 21 24 26 29 -38 -40 232 0
213 23 24 25 -26 -201 0
51 42 81 -82 -83 84 -102 -104 -319 358 359 0
-31 -3 -6 38 249 -331 383 0
85 -3 -6 7 -27 28 -81 -84 87 -331 481 490 0
34 31 -82 -84 177 246 276 -313 -331 0
-25 -6 8 23 24 28 212 -331 0
25 23 24 28 45 205 207 241 -331 0
22 -6 8 23 24 28 241 -331 0
-247 34 38 -246 276 -331 0
40 7 -11 -16 34 37 39 255 276 0
-271 1 -5 7 12 15 18 123 -331 0
11 -5 -6 7 -9 15 18 101 108 -110 -331 598 603 0
21 -4 -7 23 26 -28 29 30 45 0
-104 -5 -7 -9 -23 28 -110 -328 0
-39 -9 288 0
-21 -5 -7 -11 -17 26 29 209 0
-38 6 15 16 -17 -25 -28 -30 39 -46 0
-23 219 221 222 -328 0
35 34 36 39 251 254 255 284 287 0
-244 15 16 -18 19 35 36 -38 39 0
31 34 -35 37 38 45 -82 277 -328 331 471 0
-13 15 16 176 178 179 0
219 -7 8 -25 26 -28 29 30 34 -35 225 240 -328 0
35 37 -46 -109 -110 289 0
18 4 -5 -7 -9 11 14 -15 16 -110 -142 -328 603 0
-23 4 -7 -9 -27 103 -110 124 0
-9 -109 -110 0
-62 -11 -19 -43 -82 -102 -103 -110 0
38 7 8 -10 34 251 253 255 0
-35 12 -15 16 -31 -38 174 -331 0
33 -6 8 32 34 37 39 280 284 0
-201 24 26 27 28 -29 -82 90 480 0
-143 4 117 125 129 -141 0
-25 28 46 204 211 219 231 -331 0
-472 62 69 81 82 397 478 480 0
55 52 -331 340 342 353 374 0
-73 -5 -6 -12 -15 -319 432 435 444 0
18 12 14 16 157 -331 0
-38 7 -10 34 -109 -110 252 255 0
-143 3 4 -5 117 125 -142 0
-150 -5 117 124 132 137 -142 0
24 -11 -19 23 25 26 27 -102 -110 0
56 52 58 83 -313 -331 346 360 0
-62 -313 -331 381 387 391 395 411 0
-15 -64 -66 -83 -84 174 180 186 188 -331 0
-78 73 -84 -88 285 426 468 469 0
-68 -81 -82 -84 -87 -372 403 404 0
73 71 75 -319 426 440 461 0
-106 -25 -30 105 359 573 586 601 603 0
-62 65 381 390 391 393 420 0
46 -5 -7 101 105 106 107 0
-23 27 219 222 -328 0
-33 -22 -24 -26 -32 -83 86 88 480 0
-495 51 56 57 -328 350 -472 -488 0
-51 8 -328 336 337 338 342 344 361 0
-56 8 -16 -18 -22 -28 340 353 374 0
-246 -82 -247 313 0
342 -24 -26 -28 -58 84 88 233 -319 350 0
13 -7 11 14 15 19 20 0
30 21 26 27 29 215 228 232 0
-73 -12 -13 72 -84 -87 427 444 445 0
-63 62 64 83 399 400 403 420 471 0
-189 15 18 -19 186 187 0
-24 26 27 -43 -83 -85 312 534 579 0
-7 -51 -58 -61 -67 151 152 0
-45 -4 -55 -142 347 353 0
-38 34 37 -62 -68 278 282 -480 0
25 -3 5 -43 143 -147 201 -489 0
225 22 -25 26 204 222 240 -331 0
-344 -11 15 22 23 24 27 191 192 195 205 0
-15 8 46 159 165 166 173 188 -331 0
-106 561 562 570 586 591 596 598 604 0
51 8 -255 -260 -319 360 371 374 377 0
-237 25 28 201 222 228 236 -331 0
-486 25 28 30 218 236 -471 0
-72 -1 -5 -7 45 46 129 135 161 436 437 446 0
81 43 -73 84 -103 -104 427 0
16 15 17 -78 -79 -331 0
68 61 64 65 -331 381 392 393 0
493 34 38 -82 84 90 276 -331 0
-471 -85 -319 -331 372 -480 0
-39 31 38 261 268 276 -331 0
-104 -63 -85 -103 -319 -331 387 392 393 0
-51 7 55 -331 342 345 362 385 0
51 42 55 -66 -68 -319 -331 345 506 0
-62 -63 -85 -331 393 0
596 101 102 104 105 -106 603 604 0
-5 -65 -66 -82 -84 -85 122 135 0
246 -6 34 -107 -109 247 255 276 -331 0
-25 201 205 213 219 225 232 233 -331 0
-71 -7 -8 427 429 430 431 477 0
-337 -55 -84 -85 -319 0
-74 -319 429 430 432 436 443 0
-566 -101 103 104 107 110 573 600 601 0
-72 73 74 75 437 438 439 442 468 0
81 51 89 90 -331 372 -488 -489 499 500 0
65 -62 63 64 68 -331 385 0
-52 336 345 346 351 352 0
-101 5 105 -331 561 562 563 0
-38 -5 6 -8 -15 16 -34 -331 0
35 37 38 -82 250 271 471 0
-25 17 38 82 231 233 0
-37 277 281 285 -331 0
-105 101 103 571 591 592 593 594 0
-106 101 102 105 596 597 598 599 0
488 103 106 108 109 313 480 592 601 604 0
58 15 17 18 51 53 54 -331 345 346 374 0
-82 -11 14 15 18 -21 -22 161 -488 0
-37 -23 -27 34 35 250 259 285 443 0
-488 -23 38 267 331 -473 0
-62 -319 384 386 387 390 392 393 420 0
-472 -480 490 491 -564 -593 0
-253 -11 15 -16 -21 162 191 207 232 0
432 3 4 7 84 87 240 -319 429 435 436 441 442 445 446 490 0
74 -72 78 -319 429 435 -436 461 0
-65 7 -63 -82 -83 -105 106 564 585 601 0
-161 -31 38 -191 -324 0
-62 -1 -6 -36 -37 392 393 395 0
28 23 24 26 206 -324 0
23 24 26 28 201 -324 0
13 12 14 16 18 -84 195 -480 0
-51 -6 -7 -8 -21 -28 339 342 0
439 73 -319 429 432 437 438 461 0
-328 27 46 84 -480 0
-34 6 -8 -105 -109 271 0
490 -105 106 107 110 -472 476 -480 492 603 0
-109 -8 -28 -105 -480 0
51 5 -7 -8 -102 -104 -105 -471 -480 0
-21 -6 -7 -8 -28 -51 52 53 54 0
-273 -34 38 278 282 285 0
16 17 18 -34 -35 -105 -110 190 0
34 38 -56 -59 246 247 255 285 -331 0
-28 -63 -68 -69 233 240 491 0
103 102 105 106 107 603 604 0
53 42 43 52 55 -328 361 365 375 0
-106 61 65 -66 -102 -319 420 -480 0
76 71 72 77 -319 458 0
-237 27 28 207 215 228 236 -324 0
213 25 -26 -201 218 236 237 0
-16 160 175 181 191 192 331 0
-16 8 191 192 -238 0
36 33 38 249 257 -331 0
-240 8 15 16 -38 -241 0
-62 59 60 -63 -81 -471 0
82 -81 -471 0
-422 -7 -27 -46 -195 0
-27 12 16 -18 -28 45 46 162 173 0
-51 7 -331 337 339 342 385 0
-347 -14 16 18 -42 187 0
-339 62 63 -331 -342 387 391 -405 411 0
-392 -14 16 18 -42 187 0
1 7 72 -73 75 130 136 432 443 0
-24 7 -14 -15 28 -331 0
68 62 -331 382 383 400 405 411 0
-35 7 8 16 17 -38 -39 0
-51 -331 336 337 338 340 378 379 0
-24 -42 -102 -105 -110 225 236 237 240 0
-594 3 -8 -570 -579 0
106 103 104 -105 109 110 561 600 0
45 5 25 -26 331 0
-480 -85 -105 106 109 110 -471 600 0
17 11 16 165 183 -324 0
18 11 16 17 165 166 173 0
83 5 86 -105 106 109 110 -471 0
101 102 103 106 109 110 600 0
-38 -83 -84 222 246 273 278 282 285 0
-207 21 26 -28 201 203 204 221 0
-105 564 572 579 585 591 594 600 0
-105 103 564 572 585 591 593 594 0
-105 103 564 585 591 592 594 604 0
-252 -51 55 -282 -331 353 0
-15 8 46 159 165 180 188 -331 0
11 15 18 165 166 173 -331 0
-12 7 -15 -17 -488 489 0
8 10 -18 -19 -25 -28 45 0
-104 4 -5 -10 -82 -84 105 -480 587 588 0
-104 105 561 578 586 587 589 604 0
106 -5 -7 46 101 104 105 -497 561 603 0
143 -5 -25 -26 -331 0
-16 -1 -6 168 175 181 381 0
-108 -5 -7 -24 -25 575 582 588 603 0
-58 -63 -68 -83 -84 342 350 357 0
-342 3 -8 -81 -82 -83 -85 0
433 72 73 434 450 452 462 0
-105 109 561 562 570 585 591 592 604 0
-28 25 207 215 222 226 240 0
27 25 28 201 220 226 0
-52 -43 55 -102 -103 336 376 0
-56 51 346 355 373 374 0
-103 105 106 562 570 578 601 0
-70 389 397 399 402 410 422 0
177 12 15 17 -173 -328 0
-173 -8 -34 37 42 43 150 0
-37 -8 -18 -27 -28 -29 -324 0
-59 35 37 38 51 58 345 364 376 0
-34 36 42 43 -218 277 278 285 0
-26 -4 -6 -7 -31 -34 85 236 237 480 496 0
-101 5 -331 561 562 563 564 0
-73 71 -313 435 444 446 447 0
36 38 39 46 -104 -106 -110 -331 365 0
-438 -72 430 436 442 445 463 0
36 37 38 270 -472 -480 0
104 -7 -8 46 105 561 562 570 601 602 603 604 0
82 4 -8 14 16 -18 42 195 -324 0
-26 7 14 16 18 -34 0
11 15 -16 18 165 181 -331 0
159 16 18 165 166 173 -331 0
-71 -7 -8 -61 -67 75 146 428 430 477 0
-17 11 15 -16 82 195 -331 490 0
-16 160 165 166 173 186 192 -331 0
-114 -104 105 107 -142 -571 589 590 0
-122 85 87 -142 481 0
-17 -7 -11 16 -21 -26 -331 0
-15 -8 11 -14 -16 -25 28 -331 -480 0
62 -28 -30 -331 384 387 398 400 406 0
105 5 -7 45 103 104 106 578 601 603 0
-343 -11 15 22 23 24 27 191 192 195 205 0
-574 5 -83 -84 85 481 490 -572 0
106 -7 103 105 561 563 571 603 604 0
-15 -7 -8 -25 -28 167 174 180 0
-109 -7 46 105 561 578 598 601 603 0
-63 62 -331 382 400 402 405 0
-345 52 -81 -85 -331 347 372 -471 0
-21 -8 -28 -81 -82 -85 313 480 0
-106 561 562 570 580 586 591 599 601 603 604 0
14 12 15 18 157 -331 0
-389 -11 15 -21 191 192 195 205 207 232 0
110 105 106 561 563 600 601 603 0
106 5 103 104 -331 561 592 0
107 105 106 109 -471 604 0
-123 -103 105 106 -147 -471 604 0
17 3 5 13 -15 16 18 19 84 164 0
-496 104 105 -106 107 -473 -481 -580 603 604 0
-104 -6 -7 -8 -23 -26 105 -471 590 0
-105 -6 -7 -331 561 572 579 585 591 0
-16 -6 15 17 129 131 175 192 -226 381 0
599 105 -106 108 109 -471 -480 587 0
-132 -106 -147 -150 -471 -480 591 599 600 0
-595 -24 25 -34 36 38 236 237 240 272 0
-15 5 -35 -38 189 190 -331 0
-2 -6 -7 104 105 109 110 561 571 0
-252 -6 -7 -8 -81 83 85 86 0
103 -6 -7 104 105 107 -331 561 601 0
110 3 5 -102 -103 -105 106 109 561 0
-55 51 -82 -84 -102 -105 354 0
3 5 -8 -102 -103 -105 106 110 561 0
-3 -6 -7 -8 -104 -105 106 110 -471 0
53 -51 54 58 -331 336 370 371 373 0
-101 -81 -104 -105 -146 372 375 -471 0
102 101 103 106 110 600 601 603 0
106 3 4 -6 -7 101 104 109 110 561 600 0
102 5 101 103 104 -331 596 0
-51 -6 -7 -8 -21 25 27 -28 336 337 342 360 0
-424 25 26 27 -71 426 427 428 -432 0
-68 25 26 27 62 387 400 405 420 424 0
-476 -103 104 105 -107 109 110 -473 0
-39 38 279 283 -331 0
-18 -24 -28 -34 -40 188 189 192 195 198 0
20 17 -18 171 178 183 188 189 192 195 0
-9 -234 0
40 7 -11 -16 -31 39 285 0
-426 -55 -61 -64 -71 -75 -313 0
-268 61 62 398 471 -480 488 0
261 33 34 35 36 37 262 0
246 33 34 35 36 39 40 0
271 31 32 33 35 37 0
253 35 36 40 261 268 285 0
258 -32 35 259 260 0
246 33 34 36 37 39 40 0
247 32 34 37 39 40 276 0
446 -62 -65 -66 -73 -82 -83 447 0
109 -51 -53 -82 -83 -101 104 105 0
445 -73 -82 -83 -102 -107 444 447 0
90 -69 81 -82 -471 480 0
481 52 56 57 58 61 62 64 360 0
421 -63 65 66 68 -403 0
70 62 65 66 69 383 391 420 0
423 62 63 -68 408 424 0
388 62 63 70 405 406 420 0
409 62 63 65 67 68 70 0
417 61 62 63 67 405 0
389 62 63 66 67 69 405 0
386 62 63 64 387 411 0
421 61 62 64 390 402 411 422 0
422 61 62 65 -67 68 69 406 0
87 -61 62 67 -81 88 382 387 480 0
395 -61 62 67 -381 398 411 0
388 -61 62 68 386 389 400 405 0
385 62 64 65 67 68 0
70 62 64 65 66 69 386 0
382 62 64 65 66 68 0
424 62 64 65 69 384 385 398 420 422 0
382 62 66 67 68 405 0
415 62 68 69 382 405 406 420 422 0
400 62 65 67 387 398 406 0
423 62 66 70 382 386 405 408 421 0
385 62 69 70 386 387 398 0
198 15 16 -57 -59 195 199 0
398 -51 -52 55 56 58 -59 -67 0
435 -51 -52 -59 -72 74 488 0
429 -58 -59 72 74 427 444 461 0
459 -58 -59 72 74 427 434 449 461 0
358 -59 343 346 347 360 378 0
-30 -27 52 53 56 -57 58 360 0
359 52 54 55 58 59 345 371 0
367 52 54 56 59 60 357 0
358 52 56 57 58 359 360 0
379 52 58 59 340 356 359 360 375 377 0
338 52 59 60 340 353 354 375 0
375 52 56 59 60 337 360 0
396 63 65 66 68 70 386 0
-352 -61 -62 63 67 384 395 406 488 0
394 -61 -62 384 385 387 0
-411 -62 67 68 393 0
403 64 66 67 68 384 404 0
221 24 25 26 28 35 36 38 83 240 0
392 35 36 38 -62 -63 66 -313 395 0
-389 15 16 18 -31 35 37 38 -161 0
-39 38 -105 -106 -110 -471 -480 0
-389 34 37 38 276 -382 -480 488 0
-216 31 34 38 84 -212 247 281 472 -480 0
284 35 38 45 -104 -107 -110 0
257 -35 38 -57 -59 249 270 0
-359 -33 35 36 38 472 481 0
-90 31 35 36 38 -40 -83 0
255 31 34 -37 38 54 56 58 60 336 337 345 0
257 -32 36 -37 38 -52 84 336 346 471 0
192 6 8 -16 0
6 8 -16 -109 -110 0
168 8 -16 -34 -38 -107 -109 175 0
374 8 52 54 57 61 62 64 66 67 0
45 -16 -17 -19 0
-181 -16 17 18 -24 27 -34 180 225 277 0
-90 -82 -102 -103 0
-90 -82 -102 -104 0
-90 -83 -103 -104 0
-587 4 -6 14 15 -16 17 18 129 -146 381 0
-34 7 -8 -24 -38 -331 0
-288 -5 8 25 26 27 -28 -35 -38 0
106 -17 -18 46 105 107 -471 604 0
43 -34 35 36 42 285 -405 0
-62 -1 2 3 -5 -6 129 160 -313 391 392 393 394 0
-68 61 395 398 423 424 0
-68 62 -64 383 398 423 424 0
260 -38 252 267 270 271 286 287 0
28 8 -46 -142 201 219 225 241 242 0
57 56 58 84 -489 0
-68 63 387 395 408 0
-240 24 25 26 30 105 106 -151 201 561 562 570 602 603 0
90 -29 38 -39 -46 81 84 -215 232 238 255 277 -319 471 0
-25 -15 -18 -34 -38 201 219 232 233 -328 0
-319 51 -328 375 -480 -489 0
-71 -12 -15 -16 73 -83 -85 -319 426 432 0
-74 -3 -7 45 46 72 73 428 0
587 -81 -85 -104 106 108 109 -480 596 599 0
61 43 51 -58 87 88 -319 -331 399 400 420 -480 488 0
-67 -5 -7 -61 -71 72 73 75 146 428 0
-386 -62 67 -381 390 395 407 411 421 422 0
-27 -8 -56 -58 232 240 -331 0
68 -12 -15 -61 62 -83 -85 -319 386 0
384 -56 -58 62 63 -319 386 420 506 0
-13 -7 -8 -15 -16 -23 25 0
-25 -15 -16 18 -324 0
23 -8 12 -15 -16 22 -26 27 237 -324 0
4 1 3 -5 -15 -16 -81 -83 84 85 0
-595 -24 25 26 28 -34 36 38 272 0
105 -7 46 106 -471 562 570 587 598 603 604 0
-13 -5 -8 -15 -16 -81 -480 0
-107 -7 101 106 574 581 587 603 604 0
-105 561 564 571 579 591 594 595 600 0
207 1 -8 25 26 -28 -81 -83 215 240 0
18 16 17 163 164 165 180 -331 0
-382 -61 62 63 -313 398 0
-73 -5 -12 -14 72 -74 -313 432 444 446 0
-72 -313 426 436 440 441 442 445 446 0
65 61 62 66 -313 -331 0
-61 42 -64 -72 -74 89 90 -472 0
-72 -63 -64 426 436 441 442 0
-496 4 -6 -7 14 15 -16 18 -23 -146 -147 381 0
-587 14 15 -16 17 18 -578 0
201 -7 -8 23 -34 -35 -38 0
-52 -22 -25 26 27 28 167 336 346 471 488 0
65 64 66 68 -331 401 0
62 -313 -331 383 385 405 406 413 420 0
319 42 -82 -331 340 342 347 360 372 471 0
-186 15 -16 167 174 180 0
21 23 24 25 27 236 237 0
25 22 23 24 237 -331 0
-63 62 83 398 401 402 411 471 0
-27 -8 -35 -38 -331 0
-104 103 571 585 586 587 603 604 0
-105 572 579 585 591 592 594 604 0
-74 436 450 451 452 453 0
72 5 -6 -7 74 -313 386 426 432 456 0
-360 54 56 58 -319 -331 345 0
28 -7 21 -34 -35 -38 -331 0
110 103 105 109 561 586 598 600 0
84 -7 -34 -35 -38 -331 0
-74 -52 -55 -82 -84 -313 432 436 451 452 0
43 -7 -34 -35 -38 -82 -331 0
-74 -6 -12 -15 -83 -84 136 428 443 450 453 0
-35 -7 -34 -38 -331 0
-1 -7 45 46 -72 73 74 161 0
-495 -6 -7 -8 -34 35 42 43 0
77 72 78 -319 427 456 0
-106 -496 565 580 591 599 601 603 0
105 -6 -7 82 104 -331 565 596 0
-76 14 -15 16 18 -74 -83 -84 -331 0
372 42 43 52 -331 340 342 345 354 0
78 74 79 80 427 429 444 461 0
432 72 75 -319 427 447 461 0
-75 -51 -55 72 -81 -84 -313 429 0
-73 72 443 444 447 448 449 461 0
-57 51 55 -331 375 0
-571 51 -313 -331 372 -585 0
-62 66 -319 -331 381 395 398 399 0
62 -319 -331 381 385 387 399 400 -473 -488 0
360 -43 51 56 -331 350 0
82 -7 -34 -38 -331 0
15 12 18 157 181 -331 0
-122 -5 -7 -8 105 -471 563 571 602 603 604 0
103 -5 -7 -8 105 561 563 571 602 603 0
-43 -12 -14 -34 35 37 282 0
62 63 67 385 387 398 405 408 0
-62 42 -82 -313 -331 385 391 392 395 0
-220 -5 -7 27 -34 -38 -331 -495 0
383 62 -64 -313 -331 -387 405 0
426 -72 74 75 78 -313 461 0
71 -72 74 75 78 -313 461 0
-25 24 201 219 231 232 233 0
56 -82 -84 -85 -313 -331 342 347 360 375 0
-231 24 -25 26 28 205 220 232 0
-62 7 -313 -331 340 391 392 395 0
62 -43 46 -313 -331 383 384 387 405 406 0
-25 -35 -38 46 204 212 225 0
-11 -5 -6 -21 -25 162 -331 0
-106 565 571 580 591 598 602 604 0
14 3 4 -7 13 15 16 -17 18 -324 426 0
336 -6 -7 8 -10 -12 -14 58 -488 0
-106 103 565 571 591 596 597 605 0
108 101 103 105 106 571 596 605 0
-67 8 -51 -54 -57 331 390 422 0
39 -6 -7 -10 -18 -20 0
55 -7 -10 -20 51 56 59 60 0
480 8 -39 -82 -319 331 0
-59 8 15 -18 192 195 369 0
-61 -5 -51 55 58 65 141 386 387 0
-73 74 -319 427 435 448 449 0
-61 383 384 385 386 388 395 424 0
-67 8 61 64 331 390 422 0
243 -29 208 -215 218 232 238 0
51 54 56 57 59 60 -360 0
-74 -319 428 450 453 461 0
382 -7 8 62 64 65 68 387 390 422 0
-70 62 -319 385 386 404 424 0
-62 42 43 67 381 390 395 396 397 405 420 0
-63 62 67 87 88 382 398 -411 481 0
-64 -51 -54 58 -63 360 364 365 371 0
54 -51 55 56 57 59 60 -319 0
-68 15 16 17 63 64 381 424 0
13 11 12 15 16 20 191 196 -324 0
71 73 77 -319 437 440 0
-472 -146 -319 372 375 -480 -489 0
-63 62 398 399 400 402 421 422 0
86 2 5 -6 -7 25 -26 83 85 205 237 480 0
56 43 51 57 -319 345 350 353 354 0
-58 -6 -7 8 35 51 -56 350 353 0
-28 207 222 225 237 240 243 244 0
51 55 60 345 346 353 375 0
37 31 34 36 38 255 0
277 31 34 36 38 255 0
346 55 57 58 59 344 345 353 371 0
177 16 -18 -165 183 188 196 197 0
-483 -5 -480 -481 -482 0
28 21 25 26 216 217 221 -324 0
-331 7 -8 -11 -18 34 38 255 0
-593 21 25 215 216 217 237 -585 0
-574 2 -6 -571 -572 0
-275 -40 271 272 273 280 0
-24 227 229 230 231 233 237 0
432 3 4 7 72 84 -319 437 444 446 457 492 0
-24 7 -8 28 -105 -109 227 0
26 23 24 25 207 209 216 244 -324 0
26 23 24 201 207 215 -324 0
104 7 101 103 108 331 570 599 0
-18 -81 -82 117 170 173 188 192 195 0
-68 31 -38 45 46 -62 -82 -83 270 271 0
62 61 -319 -331 387 400 -411 0
-18 -23 25 -28 -35 -36 -104 -110 -331 0
-249 -25 26 28 218 -246 -331 0
-34 -8 18 -25 -26 82 -331 0
-276 -5 -25 38 82 -331 0
28 22 25 205 218 237 -331 0
21 22 25 26 218 -331 0
18 7 -31 165 166 173 250 252 -331 0
-72 78 427 436 437 441 442 461 0
-72 426 435 436 437 440 461 0
-363 54 -58 338 346 353 0
-31 -3 -5 250 252 -331 338 0
-386 -62 67 -331 -381 383 390 395 411 0
65 -62 66 -313 -331 387 391 405 0
-26 205 213 220 226 237 0
58 -6 8 43 53 83 338 374 377 -471 -481 0
28 -7 8 10 30 -146 0
74 72 73 75 430 432 0
71 76 -87 -319 444 447 458 -480 0
107 103 106 -471 -473 603 604 605 0
-476 -8 -45 103 104 -107 -471 603 0
-87 -8 -81 -82 103 104 -107 110 603 0
105 -5 -7 -45 103 331 561 563 571 0
35 37 39 282 283 284 286 287 289 0
73 7 -24 -25 -319 426 432 440 0
-84 -5 -6 -23 -25 88 495 0
-176 -84 86 -182 -191 0
-27 206 221 227 240 -331 0
-225 -25 227 228 231 234 235 0
-6 -56 -58 -350 -352 0
-84 -4 -5 -23 -24 136 497 0
84 -12 -15 -16 -58 0
-19 15 16 -32 -39 -52 -58 196 0
1 3 -5 -7 -8 -103 104 -105 107 110 -142 570 0
104 103 107 110 561 570 597 598 603 0
399 61 -319 381 391 396 397 400 420 0
-16 17 -25 -26 -35 -39 192 194 0
16 18 -22 -25 159 174 -331 345 0
-25 -56 -58 -350 -352 0
-38 -7 -8 25 27 -56 -58 239 244 278 289 0
471 -34 -39 84 540 0
-191 16 -17 192 -328 0
-163 62 63 72 73 74 -319 383 0
-381 61 63 -319 384 385 420 0
-398 61 62 64 81 0
-61 69 381 386 387 389 398 411 0
-261 -62 63 84 386 391 395 411 471 0
-110 8 104 105 570 599 602 0
71 73 78 -319 439 456 0
28 27 -201 204 218 231 232 -328 0
-313 -328 336 341 342 349 350 360 375 0
270 -34 273 -277 -328 0
-73 86 240 -319 -354 427 432 435 445 461 471 0
-18 162 177 183 215 -480 0
-63 68 388 389 390 398 399 401 0
-74 -51 -55 -64 -65 -319 383 436 0
-55 51 71 -73 76 84 240 -319 490 0
-166 1 3 -8 11 15 16 17 0
-218 25 27 -84 86 88 201 222 233 237 240 0
105 -5 -7 -45 331 561 563 566 571 574 578 0
-105 -471 -481 579 592 593 594 599 0
34 31 35 37 -38 -82 177 283 284 0
34 35 36 37 -82 -101 -103 246 480 0
-26 24 205 220 233 238 239 240 0
71 74 426 436 438 439 440 448 449 0
53 -1 -5 -7 51 54 55 0
-105 -43 230 564 572 585 591 593 594 0
55 -313 336 338 346 353 371 372 375 0
33 34 246 276 277 281 282 288 289 0
74 6 72 -313 341 426 432 438 440 457 0
24 23 27 201 207 215 -328 0
24 6 21 22 25 -28 -328 331 -377 0
-68 -58 64 65 -81 -87 147 336 357 363 391 400 420 423 0
-81 -84 103 105 109 -481 602 604 0
-313 8 37 38 -46 -264 0
-15 3 -5 174 187 188 -328 336 -580 0
-592 8 -26 -46 -228 -591 0
-37 -7 32 34 -38 247 277 286 287 0
-62 8 331 382 383 392 393 395 398 422 0
-64 4 -5 -66 81 -83 -84 90 493 0
429 -71 74 427 430 441 442 -457 0
34 -5 -7 -18 25 26 31 37 -42 -46 82 0
-319 -8 -82 125 138 162 252 480 0
55 56 58 -331 356 0
-28 22 23 -37 -38 45 46 207 231 0
432 -62 -66 72 75 -82 -83 240 -319 -337 444 461 481 489 490 0
55 56 58 -331 362 0
-72 -51 -55 -62 -65 -319 435 437 440 461 0
-81 56 58 -82 -83 -319 -331 0
-313 52 56 58 -331 339 0
-58 -18 -19 -42 342 353 379 0
11 15 16 -64 -65 -83 -84 192 -331 0
-64 62 -331 383 -387 398 411 0
-23 -83 -84 219 220 267 -331 0
-14 -16 -18 -25 -28 -34 -331 0
-491 15 -16 162 181 -331 -488 0
-191 -16 169 176 181 192 -331 0
-58 -28 -30 51 337 347 360 372 375 0
58 8 51 -331 347 353 374 0
353 8 -28 -30 51 52 -331 347 374 0
-34 38 42 43 46 270 -331 -360 0
33 32 34 38 253 254 0
-60 -319 342 352 359 370 377 0
-424 25 26 27 36 -38 -142 -150 0
-430 62 63 -331 387 391 -406 411 -432 0
-24 25 27 -43 237 -354 0
439 71 -72 78 79 80 -461 0
-426 73 74 432 -435 445 446 448 0
102 -5 -7 -8 46 104 106 566 579 601 603 0
62 -5 61 68 -313 -331 405 0
76 71 73 75 78 -313 439 0
-104 -2 -5 -7 83 85 87 571 585 586 587 603 604 0
439 71 -72 73 74 78 -461 0
451 71 72 -313 450 -461 0
84 3 4 -8 -82 319 -432 0
62 61 -313 -331 405 408 0
61 -313 -331 391 392 395 405 408 0
81 42 319 481 0
-72 71 77 -313 427 436 437 440 0
62 64 65 68 -331 382 0
-391 -62 64 68 -313 -331 382 405 0
-106 105 561 578 580 586 596 597 598 0
61 64 65 -313 -331 391 395 0
73 51 52 53 71 72 -313 471 -481 488 0
78 72 74 76 77 -313 0
-67 -331 381 401 405 406 420 0
-37 251 259 266 272 0
20 15 -18 19 162 173 331 -488 -489 0
-39 -10 36 38 261 268 274 0
-78 73 426 453 468 469 0
-3 7 -31 38 -331 338 383 0
38 -3 7 34 252 255 -331 338 383 0
11 8 12 18 46 173 -331 0
-12 -5 -6 -15 -73 432 435 443 444 0
-84 -16 -17 -23 -26 495 496 0
66 -62 65 -319 -331 387 390 420 0
51 42 55 -62 -68 -319 -331 -480 0
46 -5 6 -7 -82 -87 -488 -495 0
-80 72 73 75 434 461 469 0
-88 12 15 16 -17 18 -23 -24 -84 0
-63 -72 -73 -313 382 0
23 24 27 29 30 201 226 233 0
-24 27 -43 226 232 233 -444 0
-85 4 -5 83 122 -135 -142 0
-377 -7 22 25 26 -28 150 207 218 0
-30 26 209 217 230 232 244 0
-13 -18 31 37 -38 39 40 82 276 481 0
58 -16 -20 51 57 354 360 0
57 51 58 354 360 373 374 0
10 -7 8 11 -19 165 166 173 189 -324 0
101 8 103 104 105 599 601 603 0
-27 11 -18 -28 45 46 165 166 173 188 0
-34 42 43 45 46 276 278 282 -495 0
-497 15 -16 162 -331 -488 -495 0
-20 -16 -18 51 54 57 345 354 360 0
-85 1 4 -5 -65 -66 -488 0
-59 22 27 -28 -58 207 218 231 0
-215 22 27 -28 207 216 217 218 231 0
-480 51 56 -84 360 375 -489 0
-105 -7 -45 370 572 579 585 594 600 602 604 0
468 7 72 427 428 429 432 443 444 450 469 0
-25 -5 8 -18 -20 -28 -29 0
42 8 -51 -52 58 60 -331 -488 -495 0
7 8 15 -18 -28 46 -488 -489 0
-215 51 -52 -240 354 360 373 374 0
-28 8 15 -18 46 -488 -489 0
-345 35 37 -38 252 282 -350 0
60 56 -58 59 346 375 -480 -488 -489 0
-7 8 15 -18 46 -488 -489 0
-370 54 55 57 -60 -344 347 354 372 0
68 7 62 -331 340 389 398 399 405 0
-194 -6 7 8 -26 28 35 38 147 0
-374 -6 7 15 -18 35 38 -56 -58 -331 -372 0
-26 28 -46 203 213 220 238 0
-60 6 8 -21 26 27 28 -51 565 0
18 6 8 15 -21 -25 165 166 173 0
-39 6 8 16 17 -35 -38 0
-104 -8 105 -324 563 571 578 0
56 53 54 55 336 375 0
34 38 -52 -53 -81 246 277 -328 0
34 31 38 259 -313 -328 0
51 58 -328 341 349 354 -488 -495 0
78 72 73 76 77 450 0
-2 -5 -7 -21 -27 -430 0
-24 15 17 18 -26 -34 -39 -230 0
34 246 281 282 285 -313 -324 0
-259 -52 55 56 -285 0
384 -1 -5 -82 -84 -313 386 387 420 -495 0
-16 18 186 -195 -328 0
-261 -71 72 73 83 -426 436 0
-35 7 -34 72 74 78 -313 0
-28 25 207 211 222 237 240 0
-396 -32 33 -34 35 36 38 81 83 0
43 -5 42 -64 68 83 401 0
42 -34 35 36 43 45 46 -173 0
-105 -55 -60 324 561 579 585 600 601 603 0
109 7 101 102 103 104 604 0
40 -26 -28 37 -109 -110 276 278 279 286 288 0
-237 25 28 239 240 243 -331 0
61 -313 391 392 393 405 406 420 0
-64 -34 -36 -54 -56 276 407 408 0
75 -319 426 427 432 435 440 447 461 0
-26 201 207 215 220 226 231 -331 0
-374 -6 35 37 -56 -58 -331 0
63 61 67 68 313 -319 -331 392 0
-114 -72 73 75 -141 -319 432 0
-247 72 77 -252 -319 456 0
13 8 11 -15 16 18 166 0
339 -51 -319 -331 336 342 345 -354 0
-420 -68 81 -331 387 390 -480 0
-602 25 27 28 34 246 247 255 278 285 -331 0
103 7 105 106 561 587 589 601 604 0
-104 -106 -108 -488 495 497 0
-15 -7 14 -16 82 85 159 -331 0
-17 -7 -16 34 -36 -331 -471 -480 0
-73 -24 -27 311 427 445 446 448 449 451 0
-73 -12 -17 45 46 72 427 443 0
-74 4 -5 7 -18 -20 72 135 428 450 452 0
456 -18 -20 72 74 427 428 450 457 461 0
71 4 -5 -18 -20 -74 75 77 82 0
-63 62 64 -331 382 399 405 -411 0
-387 62 63 386 405 406 423 424 0
78 -1 4 7 72 75 -82 -488 0
-51 -3 -5 249 -331 336 337 340 342 0
15 16 -22 -28 -82 183 -331 480 0
37 7 8 11 14 -15 16 17 -35 36 38 152 165 -188 0
-67 -331 382 383 394 398 0
-20 7 -15 -18 -23 25 -129 143 220 221 0
-469 15 16 17 25 26 27 0
-468 15 16 17 25 26 27 0
-3 8 15 16 17 -18 -23 25 26 27 -28 220 221 0
-85 -24 -28 62 -63 67 -83 87 382 398 481 0
51 52 83 -331 355 357 360 372 0
-28 90 125 214 215 218 233 237 240 481 493 0
-63 3 -5 67 -83 -353 382 390 402 0
34 36 246 247 255 278 285 -331 0
65 62 63 67 68 383 387 0
-497 4 7 -73 -76 -82 0
77 72 74 76 78 80 459 0
-384 7 -51 54 -331 342 411 0
382 -61 -331 381 384 387 406 0
-67 45 46 54 -58 -68 -471 -480 0
70 -5 61 62 69 135 382 399 420 0
70 61 62 67 69 406 413 0
-135 -34 -141 285 288 289 -331 0
29 26 27 30 201 219 225 240 0
-497 14 15 -16 18 -331 -488 0
64 -7 8 62 63 387 389 411 0
5 -81 84 85 -150 387 432 -472 490 0
21 11 16 17 22 25 -28 29 30 236 -324 0
-331 62 64 66 68 382 385 0
-15 -5 -52 -57 160 188 -324 438 480 481 0
-21 -7 -8 -51 -57 205 -324 0
-34 -8 37 42 43 150 -218 0
-331 -8 15 16 -38 0
-324 -5 -25 -35 278 0
-383 62 63 -319 407 408 411 0
-457 42 43 -46 61 -65 390 0
-16 5 -6 -8 -35 -38 -46 0
-73 72 75 -319 427 447 461 0
-360 -34 35 42 43 -46 285 0
-377 -7 8 -21 27 28 150 231 234 -341 0
-18 162 165 183 188 195 -328 0
-27 -3 -5 -7 -21 23 26 42 43 -45 201 225 240 0
162 8 17 -18 20 -45 165 183 193 195 0
161 16 162 165 166 169 173 177 183 192 -324 0
-24 5 8 -34 35 82 228 0
-18 162 170 177 183 0
-146 8 -150 0
-150 -7 8 153 -379 0
62 64 65 382 384 387 404 421 422 423 0
-63 68 69 70 382 399 401 0
76 72 77 -319 432 435 444 0
-77 -6 -7 -82 -83 -87 -319 386 0
11 7 14 -15 16 18 82 480 -488 495 0
11 -7 -8 -23 25 -35 -38 143 165 166 173 188 -328 0
18 -8 -24 -45 82 85 147 158 160 181 -488 -492 0
45 -5 -8 16 25 -26 28 -34 -38 186 321 0
-58 5 -8 -51 -81 85 143 0
-218 -34 42 43 -45 281 282 285 0
-26 -6 -7 -8 -34 35 201 220 236 331 0
-219 -7 23 -25 -130 -150 201 218 231 0
-360 -51 54 -339 346 354 364 365 0
-340 -51 -328 337 348 361 0
-63 51 52 -55 56 62 -319 345 382 400 0
-141 85 130 136 -142 481 488 0
-274 42 43 -105 561 562 570 592 593 598 0
-24 -7 -8 11 16 -25 -28 165 187 0
-71 -5 -7 -61 -67 72 146 -319 427 458 0
-85 54 -55 -472 495 0
-405 -34 38 42 43 45 46 276 0
66 62 63 -319 -331 413 0
-18 11 16 -26 -28 -46 165 183 -328 0
-480 51 58 -328 376 377 -488 0
346 51 55 345 353 374 375 0
11 12 15 16 -18 27 -28 195 201 233 237 0
-480 34 38 51 -56 277 -328 0
83 -23 -28 31 34 -38 0
25 8 21 22 23 238 239 241 242 331 0
-226 42 43 -46 61 -65 390 0
24 14 -15 16 17 21 -25 26 27 -28 29 235 244 345 0
-37 247 259 272 277 285 -331 0
-350 -52 336 346 357 378 379 0
-313 -63 -83 -381 0
432 72 74 75 -313 461 0
-54 51 -64 -66 276 -313 -331 346 363 0
-67 -7 -8 -31 -38 62 -331 398 0
-85 42 -55 -81 -83 -84 -336 0
-374 -6 8 -61 62 63 64 67 152 -340 521 0
-374 7 22 23 -26 147 205 225 236 0
-58 -6 15 -18 -26 -27 -56 -60 -331 0
-18 11 15 16 -22 -28 -82 195 480 0
-11 -6 -7 -51 -56 147 162 0
-237 25 26 -28 30 206 213 218 238 0
-36 250 258 271 282 283 284 0
-15 4 8 18 -74 -76 -84 180 -328 0
82 -74 76 77 -319 432 440 0
61 -36 -38 62 66 67 -313 497 0
-31 37 250 252 253 254 0
61 -55 -58 65 -82 -83 -84 -85 -331 385 390 391 398 407 0
-282 35 36 250 258 -313 -331 0
-28 21 22 26 -37 -38 45 46 228 0
-72 -42 426 436 440 444 461 0
-231 25 -26 201 219 225 237 0
-237 15 16 165 -205 -226 -331 0
-192 16 -18 160 165 181 -331 0
-424 -18 -42 -58 188 192 195 342 353 0
38 31 35 42 43 -173 255 281 -324 0
162 16 17 -18 19 20 88 -188 -324 -488 497 0
-73 -61 -65 -66 240 -319 -345 471 474 0
-28 -7 207 215 228 237 240 243 244 0
-65 -1 7 -66 71 73 -319 0
-15 -1 -5 -6 -75 -77 165 186 188 -331 336 0
-105 -81 82 -88 562 563 572 591 592 605 0
-592 25 28 201 240 -331 -585 0
106 -7 46 101 102 103 107 603 604 0
-25 38 -53 -58 82 231 490 0
106 -7 82 104 143 -331 572 0
106 -7 82 143 -331 563 571 572 585 0
-104 -7 82 143 -331 563 571 585 596 0
102 -6 -7 101 103 104 -331 592 0
-68 63 72 73 74 -78 391 424 0
-106 561 562 570 574 581 586 591 598 604 0
-277 38 246 247 255 271 272 -331 0
-35 38 46 -104 -106 -110 276 279 -331 365 0
-26 -35 -36 -106 -110 231 236 237 239 0
66 -6 -8 46 62 63 -313 -331 405 476 0
39 -8 35 36 40 -150 0
-104 -5 -7 46 571 578 585 587 598 603 604 0
39 34 38 40 -52 -53 -81 246 255 0
-72 -82 -88 195 -319 426 435 437 438 0
-37 34 38 259 266 281 -331 0
-27 -7 -36 -38 -331 0
-447 62 64 -331 411 -432 0
-57 -7 51 -81 -331 0
-64 62 66 -331 401 405 408 0
-346 -62 63 -331 -363 381 411 0
-480 -7 104 105 106 -471 603 0
-76 72 -313 430 451 0
-63 -54 -58 -62 66 -313 -331 382 398 405 0
-72 74 75 76 -313 426 440 0
-5 -7 82 85 -102 -106 -107 135 0
-76 73 430 436 442 449 455 463 0
71 73 79 436 442 449 455 0
-71 72 427 430 431 432 450 0
78 71 73 450 451 452 456 457 461 0
-259 -37 38 258 261 262 277 0
-33 -26 -29 -53 -56 267 269 277 0
495 86 88 -488 497 0
-25 7 27 46 -324 0
12 11 14 17 18 19 194 -331 0
-106 105 562 563 573 578 598 599 0
102 -7 105 106 562 563 578 603 604 0
108 105 106 107 110 561 563 0
106 -5 -6 -35 -37 105 109 -471 602 604 0
18 15 -26 -56 -59 -331 0
11 14 15 17 -56 -59 165 0
-231 25 -26 29 30 233 0
-14 18 180 181 -331 0
-104 103 106 563 571 585 589 0
-106 -81 -84 -481 580 591 598 602 604 0
-104 3 4 -7 -8 -23 -27 84 85 105 -471 -472 588 599 602 0
-108 3 4 -5 -82 -83 -106 488 489 0
104 -8 -45 101 102 103 331 599 0
-150 -5 46 105 146 331 -471 -480 587 0
-20 -16 51 52 54 -56 0
29 21 22 25 26 30 227 0
18 11 15 16 165 166 173 189 190 0
72 -28 -30 432 433 434 443 444 447 448 449 450 461 0
-28 23 -25 26 27 30 201 228 234 0
-23 -5 8 -13 -15 16 17 18 25 26 221 0
-27 -35 -36 232 -331 0
106 561 563 571 579 581 582 594 595 600 605 0
592 -7 46 -105 106 -471 -481 563 571 579 598 603 604 0
-195 15 17 -18 191 -331 0
37 7 -12 -15 38 39 -53 -60 147 276 -374 0
103 105 106 107 -471 -481 0
-104 11 -13 15 16 -53 -55 -105 195 0
-11 -5 -7 -8 -18 -31 38 283 284 0
-21 -5 -6 -8 -28 -31 38 -331 0
-72 -53 -55 -58 -82 -85 426 436 437 461 0
63 62 68 -81 87 88 -331 383 405 480 0
-85 51 52 54 56 -331 488 0
15 17 18 20 193 -331 0
60 51 57 58 59 345 360 0
-374 -6 8 15 -16 17 18 -331 0
26 38 82 201 228 233 267 -331 0
-424 -18 -28 162 166 175 188 195 233 237 240 0
-16 -74 -77 160 181 -488 0
18 16 163 164 165 180 187 -331 0
-215 7 31 -228 276 -313 -331 0
387 -313 -331 -381 392 393 405 406 0
-51 7 55 -313 -331 336 338 385 0
-191 15 -16 17 18 -331 0
-58 -35 -38 52 -313 342 496 0
-495 8 -84 -313 -331 340 -381 395 406 0
406 -5 -6 8 -313 -331 340 387 392 395 405 0
-68 -28 -29 -43 62 408 423 424 0
81 51 58 -64 -65 -313 319 -331 0
561 8 103 104 -105 106 109 600 602 0
102 103 105 106 109 600 602 604 0
35 38 39 281 284 -331 0
-108 14 15 -16 18 20 -103 -104 193 0
-581 1 4 7 -578 0
-395 24 25 -28 46 220 -331 -381 0
372 55 -101 -102 -319 -331 336 341 -480 0
-85 -34 -38 52 -82 -84 -101 -102 -313 337 344 371 376 0
-85 -34 -38 -84 -313 -331 340 342 350 -481 0
-104 103 105 571 578 586 589 600 602 604 0
-24 -4 -5 -23 82 -84 88 497 0
-36 34 250 255 276 281 283 284 0
-72 -319 427 428 434 435 440 441 456 457 461 0
40 31 35 36 37 261 268 0
-36 34 35 -38 250 261 262 265 285 0
-328 -42 303 0
-303 42 -328 0
-301 42 -319 0
-304 -42 331 0
-102 -14 -20 42 -105 0
-42 -351 0
-396 -42 0
-42 -216 0
-42 -261 0
-441 -42 0
-42 -486 0
302 -42 -324 0
-302 -42 324 0
-304 42 -331 0
-302 42 -324 0
-42 -487 0
-42 -352 0
-42 -262 0
-42 -397 0
-42 -217 0
-442 -42 0
-532 -42 0
68 -42 61 63 66 405 0
-42 21 25 26 218 240 0
-337 35 38 -40 -42 281 -344 0
-258 35 37 38 -42 0
71 -42 72 74 -435 0
71 -42 73 74 0
53 -42 51 54 0
-42 21 24 27 28 220 0
-52 -42 340 341 346 347 355 357 0
61 -42 63 405 406 420 0
-212 26 27 28 -42 0
-346 -42 51 52 53 0
-319 -42 472 0
-12 -14 -42 51 -55 82 0
58 -42 51 55 56 353 0
68 -5 -42 61 -62 63 67 82 0
-391 -42 61 62 63 0
-204 23 24 -25 -42 -302 0
-360 -42 61 63 87 88 420 480 0
-42 71 74 75 76 78 0
71 -42 -75 444 450 0
-42 -23 -25 -35 38 249 270 353 0
281 34 38 -42 247 -324 0
-42 23 24 25 28 201 205 240 0
-42 25 26 27 207 228 0
-42 -23 -25 -35 249 270 278 353 0
-42 23 24 25 26 206 0
-42 -11 -14 -17 -25 28 206 219 231 0
267 -38 -42 252 273 278 285 0
-358 31 35 36 -37 -42 81 82 285 0
-42 -51 337 340 341 342 360 0
337 -42 -51 338 340 341 342 0
-42 25 -28 207 222 237 240 0
-42 25 26 -28 207 221 228 0
-42 25 -28 207 221 228 237 0
-42 -28 207 218 233 237 240 0
-42 25 -28 207 228 237 240 0
28 25 -42 205 218 221 227 0
228 -8 23 -28 -42 207 0
23 21 24 28 -42 236 0
247 -38 -42 273 278 282 285 0
28 21 25 -42 221 226 0
-214 25 26 28 -42 0
266 31 34 35 36 -42 0
-75 -42 51 -55 -74 -83 -84 0
-426 -42 72 73 75 76 78 0
78 -42 -72 73 437 438 452 0
-27 -23 31 34 35 38 -42 443 0
-42 23 26 28 203 206 227 0
-42 21 23 25 26 227 0
-52 -42 58 336 345 348 360 0
-42 72 73 75 78 428 461 0
58 -42 51 55 336 353 371 0
267 -38 -42 249 273 282 285 0
-73 -42 51 -58 -78 -83 -84 0
71 -42 73 77 78 456 0
-42 33 34 35 37 250 285 0
-328 31 33 35 37 -42 0
267 -38 -42 252 271 278 285 0
-42 6 26 38 51 -84 -488 0
-54 42 43 -345 0
23 21 28 -42 226 227 236 0
-328 -42 51 55 353 375 0
-42 51 55 57 353 372 0
372 -42 51 55 353 371 375 0
-42 -62 381 393 398 399 405 420 0
-42 33 35 36 38 248 0
76 -42 73 -74 75 432 452 0
77 -42 -72 74 78 426 456 0
386 -42 -62 387 411 -480 -488 0
386 -42 -62 390 391 392 395 0
-42 -4 38 -488 0
-328 34 37 38 -42 247 0
-328 33 34 -35 38 -42 251 0
-64 -42 51 -55 -65 -83 -84 0
23 25 27 -42 207 226 0
-52 -42 51 -82 -488 0
-42 51 -55 -488 -495 0
-42 21 25 26 27 -33 -34 308 0
-247 -23 -28 252 -488 0
63 -42 -62 381 391 0
-328 -42 51 353 354 360 375 0
84 -488 0
67 -42 -62 394 395 411 -472 -488 0
-52 -42 83 -101 -103 0
65 -42 64 66 67 398 402 0
372 -42 51 57 -488 -495 0
-328 -42 -51 54 57 58 337 0
-42 83 473 0
-497 -42 71 -77 -488 0
-42 25 26 207 218 221 227 0
228 -8 -28 -42 222 233 237 240 0
-42 25 26 206 218 222 228 0
-14 -18 -42 -82 -85 0
-328 31 34 35 37 -42 0
71 -42 73 75 76 453 0
356 -42 51 55 353 362 372 0
68 -42 63 64 67 411 0
213 21 23 28 -42 227 238 239 0
-42 71 74 75 445 447 0
67 61 62 382 398 402 408 411 0
357 -42 51 -58 363 0
357 -42 51 57 353 355 360 372 0
-42 63 83 411 421 422 423 424 0
-33 -36 -42 -46 -62 83 0
-42 26 27 28 219 225 0
-259 35 36 38 -42 0
259 35 -38 -42 -260 282 0
-59 8 -42 343 353 373 378 0
71 8 28 -42 -77 0
-42 25 -26 206 220 226 237 0
-52 -42 336 346 348 354 357 0
-472 -42 -84 488 0
-494 42 -84 471 0
-42 23 24 25 26 236 240 0
-25 23 24 26 27 -42 207 331 0
-52 -42 51 -83 -102 -103 0
-42 56 57 58 -83 -84 -103 -105 357 0
76 -42 73 74 78 457 0
-55 -42 51 -83 -84 -103 -105 0
-42 31 34 35 36 255 286 287 0
-42 33 35 37 248 250 271 285 0
-42 -25 204 219 225 236 237 240 0
-42 21 -25 26 219 225 240 0
-328 -42 51 -74 -75 -83 -84 353 375 0
430 -42 73 74 429 433 434 440 0
213 25 -28 -42 -215 240 0
-52 -33 -36 -42 -56 -62 381 391 0
-52 -42 -83 -102 -103 336 0
33 34 36 38 -42 249 0
-42 71 -72 77 436 440 445 0
61 -42 63 64 0
61 -42 64 399 400 420 0
61 -42 -62 393 399 405 420 0
-42 -72 -83 -84 -102 -103 426 0
-32 35 36 37 -42 0
-42 471 488 0
302 -42 303 331 0
-42 21 25 -26 206 220 227 237 0
-64 42 62 67 68 383 405 0
375 -8 42 -43 -51 52 54 55 56 57 0
-74 -12 -15 -42 82 432 450 452 0
-42 63 64 386 387 411 0
-42 21 24 25 28 221 227 0
-328 34 38 -42 -255 277 0
-42 73 74 432 456 457 461 0
-77 8 28 -42 431 0
-328 38 -42 247 251 266 270 0
62 42 61 63 65 66 420 0
206 24 -26 28 -42 220 231 0
-285 31 34 35 36 -42 -282 0
62 -42 63 64 67 72 73 74 77 381 383 0
-222 24 -42 206 207 218 231 233 237 240 0
-308 42 471 0
-328 34 38 -42 249 251 277 0
-14 -12 -42 56 57 58 -83 -84 354 357 0
394 -42 -62 381 392 393 0
89 42 81 -102 -103 480 0
-53 -42 -55 -74 82 432 451 452 0
71 -42 73 78 452 456 0
446 -42 -73 427 443 444 445 0
74 5 -42 73 386 430 432 0
-53 -42 -51 -62 -82 480 0
-328 34 37 -42 247 278 0
-74 -42 -63 -66 82 432 450 452 0
437 -18 -19 -42 -72 426 461 0
-215 21 22 24 25 26 -28 -42 0
-67 42 45 46 311 386 390 0
-42 -75 429 444 450 0
-42 53 54 56 57 58 0
-61 -42 -63 -72 488 0
-63 -21 -24 -31 -33 -42 382 398 400 402 0
-102 -14 15 16 17 42 -105 184 0
-46 -42 62 63 67 68 406 411 547 592 0
439 -42 -72 426 438 444 450 0
236 21 24 26 28 -42 237 240 -324 0
65 -5 -42 -62 63 67 68 82 135 0
-328 34 35 -42 247 277 285 0
86 85 87 88 0
-42 73 74 429 432 461 0
-42 -8 -18 138 162 183 188 192 195 0
-42 73 74 75 77 432 0
-302 -28 -42 207 228 237 240 0
-328 25 -42 206 207 218 240 0
-426 -42 -71 72 74 435 0
-426 -42 72 73 74 0
-328 27 28 -42 204 225 0
-328 21 24 25 28 -42 0
-328 31 37 38 -42 270 0
-25 7 -42 206 218 328 331 0
23 24 26 28 -42 206 0
-328 31 34 38 -42 277 0
-32 35 38 -42 258 0
-42 63 381 388 389 405 406 420 0
-52 -42 336 347 371 372 375 0
65 -42 61 63 67 406 0
65 -5 -42 61 -62 63 135 420 480 0
-53 -42 -55 73 -83 -84 429 432 451 452 461 0
-52 -31 -33 -42 488 0
202 24 26 28 -42 206 221 0
53 -42 51 56 360 375 0
-42 24 -25 26 -28 -31 -38 -81 -84 225 0
-42 21 25 28 -84 -88 -105 -108 0
339 -42 -51 54 56 337 371 372 375 0
473 42 82 0
71 -42 74 77 447 456 0
-64 -42 62 68 405 406 421 422 0
341 -42 73 74 -142 146 432 457 0
-42 21 23 27 28 219 225 232 233 0
-68 -42 387 402 408 0
-443 8 -31 -33 -42 0
-443 -42 51 -58 -453 0
-42 71 73 76 440 450 452 0
-55 42 59 82 347 370 0
67 -42 62 -342 -363 386 398 399 400 411 0
66 42 62 65 386 387 420 0
28 25 26 -42 86 87 206 480 0
-42 25 26 -104 -105 -109 206 0
264 31 -35 38 -42 -270 -324 0
-42 -313 0
-86 -1 -5 -8 -42 -72 82 426 0
-42 51 58 82 -103 -105 342 371 0
-488 -4 -8 -34 -42 0
-328 34 -42 247 277 278 285 0
-42 -75 -84 -85 -101 -104 444 450 0
386 -42 63 384 387 405 406 420 0
-42 51 353 354 360 371 372 375 0
-63 3 -5 -42 61 -62 67 402 0
224 25 -42 212 223 229 230 236 237 240 0
-270 -42 -45 51 353 371 372 375 0
-328 -12 -14 -42 51 82 353 375 0
33 -7 31 34 -38 -42 331 0
-391 -42 62 63 -64 381 0
-42 21 23 26 -28 228 0
487 42 -90 0
-324 21 -42 218 236 237 240 0
-328 -12 -14 -42 -51 82 341 342 347 0
87 -5 -7 -8 42 -83 85 -252 480 0
-46 3 -5 -42 -62 135 181 381 382 392 395 421 422 480 0
62 42 -52 -55 84 -319 384 386 387 400 420 0
-42 23 25 26 207 221 227 0
-53 -42 57 337 353 354 357 0
-497 -42 -77 -87 -101 -104 -488 0
-72 -1 -7 -42 161 435 440 450 0
388 -1 -6 -42 63 64 160 389 0
78 -42 71 73 456 457 461 0
428 -42 -74 77 443 453 456 0
266 35 36 38 -42 251 0
-19 -18 -42 61 -62 65 67 0
-8 -5 -42 -51 337 340 341 360 475 0
62 -1 -5 42 84 -319 384 386 387 399 420 0
446 -42 -73 432 443 444 445 0
-77 -42 431 -488 -497 0
449 -42 -73 427 429 439 443 445 447 448 0
593 42 -105 106 107 109 110 -488 570 0
-46 -5 -7 -18 25 26 34 -42 82 247 285 0
-42 26 -28 207 222 228 0
-328 34 -42 260 277 -337 -342 0
-17 -5 -7 8 -11 34 38 -42 0
-328 35 37 -38 -42 -260 262 0
-495 -6 -7 -8 -31 -38 -42 -488 0
-252 -328 -331 0
-247 34 35 38 -42 250 -281 0
-42 55 349 371 372 375 -472 -488 0
-328 -42 -51 341 342 -488 -489 0
-328 -42 -51 337 341 342 353 360 0
-74 4 -5 -42 -83 432 443 450 452 471 -480 0
-46 -33 -36 -42 -62 381 391 0
-65 -42 -382 -488 -495 0
87 4 -5 -7 -42 -393 -488 495 0
-328 31 33 37 -42 270 0
68 42 61 62 -319 -331 390 400 0
-42 21 26 -28 -218 228 0
-38 -7 -42 252 267 273 331 0
-328 33 38 -42 247 251 255 270 0
-319 8 -42 -51 55 342 0
-52 -42 345 346 347 371 372 375 0
-115 -42 -82 85 86 -146 0
-72 -31 -33 -42 -81 -82 0
-42 21 25 26 -33 -34 207 232 240 308 0
-62 -31 -33 -42 -84 488 0
266 34 -37 38 -42 251 0
-328 -42 247 251 252 266 267 270 285 0
-390 -42 61 62 -63 0
-63 -42 64 386 387 399 400 420 0
68 -42 43 63 67 383 411 0
21 23 26 -28 -42 225 227 232 331 0
21 23 26 27 -28 -42 225 232 331 0
-328 8 25 27 -42 207 218 0
-57 -8 21 -42 -56 218 237 -324 0
-57 -42 341 356 362 0
446 -42 -72 426 440 445 447 450 451 452 0
76 -42 -74 75 78 428 443 0
386 -42 -62 391 392 395 400 411 0
-26 -5 18 -25 -34 -38 -42 0
-328 -12 -14 -42 82 341 342 353 375 0
-347 -42 52 -55 336 345 0
-319 -42 81 0
65 4 -5 -42 61 63 420 -480 -488 0
-495 -42 -328 375 -473 -488 0
-328 -42 57 341 342 372 -488 -495 0
-435 -42 72 -73 426 0
394 -42 -62 383 392 393 402 420 0
-46 -42 -62 181 382 383 393 420 0
-54 3 -5 -42 -51 -52 -62 67 402 0
-42 81 488 0
25 -7 -8 26 -28 -38 -42 -82 480 0
68 62 -313 -331 384 406 0
-67 42 45 46 64 311 381 382 390 0
68 -42 61 64 66 67 0
74 -42 73 -142 146 341 429 432 456 0
401 42 62 -319 384 386 387 400 402 0
-358 31 32 34 37 -42 82 255 265 276 472 0
-87 -42 -68 -84 237 282 387 481 489 490 492 0
-66 -42 -81 -84 -101 -106 399 400 420 0
-344 26 28 35 -38 -42 218 232 251 -252 282 0
-343 -25 35 -38 -42 218 231 232 233 251 -252 282 0
184 -14 15 17 18 42 -102 -105 0
36 24 25 26 34 35 -37 38 -42 -488 0
-57 -35 -37 -42 51 356 451 0
-62 -1 -6 -42 160 393 399 405 420 0
-62 -1 -6 -42 160 392 393 420 0
-42 -11 -14 -17 25 28 220 0
-14 -12 -42 51 82 371 372 375 0
370 42 -45 -55 82 347 546 0
347 8 42 -55 82 104 -105 106 -110 0
-74 -42 51 -55 428 451 452 -488 0
-88 42 -83 -102 104 105 106 107 -108 0
591 -42 -45 51 180 353 371 372 375 546 0
-495 -6 -17 -18 -42 51 372 -488 0
-143 -42 51 55 82 -86 371 0
-42 82 -101 -103 -105 340 371 372 375 0
359 54 55 56 336 358 375 0
-46 34 35 38 -42 251 0
-495 5 -8 -11 -18 -42 336 375 -488 0
65 -1 -5 -82 -84 -313 384 386 387 392 420 0
65 -42 63 67 381 383 388 389 406 0
-51 7 -8 -42 341 354 360 -565 0
339 -42 -51 82 -101 -103 341 372 0
269 -34 -42 248 268 270 273 281 0
-18 -6 -17 -42 51 55 353 372 0
-85 8 42 51 82 -102 -103 -331 336 372 0
-66 -42 385 400 406 0
-57 -42 56 341 356 360 375 0
-74 -42 73 82 -101 -103 -107 450 451 0
-72 42 -43 81 -102 -103 426 435 436 480 0
184 -14 15 16 18 42 -102 -105 0
227 -8 26 28 -42 221 -324 0
105 -7 -8 42 82 102 -324 331 0
-201 23 25 -42 -147 -150 0
-328 37 38 -42 249 270 276 0
-404 34 37 38 -42 82 276 0
-42 31 33 34 36 38 0
424 42 62 82 87 88 387 415 421 423 495 0
-205 -7 -8 -11 -42 -51 159 342 -488 -495 0
-64 -42 -55 -65 82 -101 -104 0
-65 -42 51 57 -64 -83 -84 372 0
-572 -14 -19 -42 -585 0
102 7 -8 42 82 105 106 331 0
-162 8 17 18 -42 -488 0
89 -6 42 81 101 -102 105 106 107 0
-42 25 26 28 206 471 496 497 0
-328 -38 -42 252 273 278 285 0
-328 21 23 25 26 -42 240 0
-4 5 21 23 -24 -25 -42 45 0
-64 42 62 68 383 405 407 0
-61 62 67 -381 387 398 411 0
-53 -42 -51 -55 -65 399 0
-42 -35 249 264 270 278 0
56 -42 51 55 57 353 0
-105 -5 -7 -14 -20 42 43 46 579 592 0
65 -42 61 66 398 420 0
-61 -42 382 383 386 387 411 0
476 -6 -8 -42 -68 -87 237 282 -488 0
75 -12 -15 -42 77 82 432 443 444 446 450 452 0
446 -42 429 432 443 445 447 450 451 452 461 0
452 -42 -74 432 443 450 451 0
457 -42 -73 427 443 447 456 461 0
429 -42 -73 432 443 445 446 447 450 0
-42 74 427 432 443 447 456 457 461 0
-247 -38 -42 252 270 282 285 0
-63 42 62 386 387 399 403 404 406 420 0
452 5 -42 73 386 430 432 450 451 0
-247 24 25 -28 -42 236 237 240 -488 0
203 23 27 -28 -42 233 237 0
357 -35 -38 -42 -58 342 496 0
-337 -38 -42 270 282 285 -342 0
440 -42 -72 73 426 452 456 0
71 6 8 28 37 -42 74 331 -488 0
267 -7 21 26 -28 -38 -42 82 252 331 0
8 -7 -25 -26 -28 -42 143 195 247 285 0
-45 8 34 38 -42 0
-42 8 28 -78 432 447 450 451 0
-328 37 38 -42 247 270 0
385 -42 63 64 67 387 0
-42 71 74 76 77 78 0
-42 71 74 76 77 444 450 0
64 -24 -28 -42 -68 -83 88 237 387 481 490 0
-57 -42 -54 73 -142 146 341 432 450 452 457 0
61 -42 63 65 66 68 386 0
66 -42 -55 61 339 360 399 400 420 -488 0
337 -51 336 338 340 342 376 377 0
-61 42 -66 -72 -76 89 90 -471 0
65 -42 61 64 67 68 0
56 -42 51 353 354 360 375 0
59 42 52 60 82 0
-56 38 -42 51 52 54 0
-66 7 -42 340 400 406 0
-46 -7 21 23 25 -26 -28 -42 0
-324 34 36 -38 -42 247 285 0
-328 -7 -38 -42 222 252 273 -488 0
-328 -5 -7 -24 -25 -34 -42 -260 270 0
-495 -42 -328 341 342 375 -488 0
-324 31 33 34 35 -42 0
466 72 74 -313 427 432 434 456 0
275 -34 37 270 271 274 0
565 -74 -76 -82 -84 -106 580 591 0
286 32 33 34 35 36 40 0
243 21 22 24 26 27 30 0
222 26 29 30 -142 215 228 0
338 -51 55 336 337 341 342 0
430 6 -51 55 58 336 337 338 0
371 -51 53 -54 55 58 71 72 73 83 0
337 54 55 56 58 336 345 0
352 53 54 55 57 58 59 0
351 53 54 55 56 58 60 0
-70 61 -83 -90 0
-587 7 84 85 88 135 0
491 -83 86 88 489 0
588 7 101 102 103 106 331 0
572 -105 106 563 579 592 593 605 0
167 11 14 16 17 165 174 0
-433 -11 16 17 -31 162 250 251 0
379 -51 53 54 56 336 337 339 376 0
339 56 57 58 345 360 0
366 57 58 336 337 345 353 364 365 0
565 103 105 -106 573 586 0
109 102 103 104 105 -106 0
599 105 -106 561 562 570 586 598 0
565 -106 571 580 591 596 597 605 0
596 -106 561 563 571 580 591 597 605 0
565 -106 573 580 586 594 599 0
403 -63 390 398 399 401 402 404 0
-404 71 72 -73 81 82 0
-359 71 72 74 472 481 0
445 -73 75 446 447 0
492 -73 -390 -399 427 447 481 0
448 -73 427 438 443 444 447 449 0
445 -73 444 446 447 0
445 -73 444 446 447 0
-71 -52 -53 -72 -81 471 0
-262 -52 54 84 336 472 0
352 -52 59 342 345 346 347 349 0
-391 43 61 63 64 0
396 61 65 67 68 397 398 0
421 61 63 64 65 66 422 0
409 61 63 68 394 410 411 0
381 63 64 65 67 68 0
70 63 68 69 385 386 405 406 0
392 63 66 67 68 405 0
394 63 69 70 383 395 411 0
452 -74 78 450 451 0
453 -74 428 450 451 452 0
454 -74 428 436 443 455 0
547 -46 61 -65 67 68 411 592 0
421 61 64 65 66 68 422 0
421 61 64 66 68 399 422 0
400 61 65 67 68 406 0
70 61 67 68 69 392 398 0
70 61 65 68 69 393 398 0
-352 -72 81 84 426 436 0
439 -72 76 78 437 0
76 71 -72 75 78 -426 0
441 -72 78 427 429 436 442 444 461 0
433 -72 435 436 440 442 456 457 461 0
590 -104 105 106 563 587 588 0
587 -104 106 563 571 578 585 0
582 7 101 102 105 106 331 0
597 7 101 102 104 105 331 0
77 72 73 75 76 432 0
430 72 73 75 77 78 0
457 72 73 74 76 432 0
453 71 72 73 450 451 0
453 72 73 428 429 432 450 461 0
469 72 73 76 432 434 436 441 454 457 0
431 72 73 76 428 429 450 451 452 0
466 73 74 -77 438 -461 464 0
457 71 73 74 440 456 461 0
-436 71 73 -426 429 432 461 0
79 73 76 78 80 426 451 452 0
601 101 102 104 106 110 -146 603 0
-114 85 -142 -146 488 0
483 -115 -146 482 488 0
576 -102 105 561 573 574 575 0
110 101 105 106 107 109 0
563 105 106 107 108 561 605 0
566 104 105 106 561 570 575 582 605 0
566 103 104 105 106 574 575 0
-143 102 103 104 105 -142 0
598 101 103 104 105 107 604 0
599 101 103 104 105 107 571 597 0
596 105 108 110 561 578 597 598 601 0
79 72 75 78 80 427 461 0
444 -75 -473 -481 -495 0
400 67 68 390 399 405 406 411 -471 0
562 5 -46 102 104 106 0
547 -46 -61 64 67 68 382 385 389 0
311 -43 45 46 0
206 23 25 28 -42 -46 0
247 34 -42 -45 281 282 285 0
32 31 34 36 37 -45 0
-254 -11 15 -16 -21 161 162 207 232 0
-75 51 -55 -74 -82 -83 -84 0
546 -45 51 -55 -83 -85 591 0
-372 7 331 0
364 51 56 58 345 365 -384 -386 0
492 7 -8 -31 -38 84 -313 0
285 -3 -8 35 36 -38 -82 -83 -84 0
-278 6 -15 16 18 35 37 -38 282 0
-288 -17 -20 25 26 -37 -38 0
192 -18 -35 -38 -106 -110 195 0
165 14 16 -18 -35 -38 -45 0
173 11 12 15 -37 -38 45 46 0
-473 -480 -488 0
273 -38 -51 -52 -58 -480 0
439 31 34 -38 -72 76 84 437 0
251 34 -37 -38 -57 -59 255 0
-598 6 16 26 -37 -38 -57 -60 0
289 -38 39 85 87 88 282 285 363 480 0
212 7 -8 -11 -18 -25 218 232 0
-86 -8 -13 -14 -25 -82 -84 201 -324 0
215 -2 -8 -28 30 -83 -89 218 237 472 0
90 -1 -8 34 35 -39 84 281 471 0
563 -8 -101 105 331 561 562 0
212 -25 26 29 30 206 219 233 0
387 -23 -25 -30 62 63 67 -105 -106 0
-54 55 58 59 -102 -104 361 365 -480 0
109 8 101 103 104 106 107 0
71 73 78 84 85 -319 437 456 492 0
102 5 -46 103 106 564 601 603 0
102 5 -8 45 103 104 331 564 0
-493 31 34 38 40 -480 0
-10 3 4 -7 -87 -107 -108 -480 0
102 101 103 104 106 108 602 0
-36 -8 -35 -46 102 103 -104 105 -106 0
107 8 102 103 105 106 603 0
102 6 8 -16 101 103 106 108 601 602 0
-429 -5 -7 -51 -328 342 361 456 0
-109 15 17 -18 -103 -104 183 -328 0
-63 -83 -103 -104 382 472 0
-109 15 17 -18 -103 -104 -328 -579 0
-107 14 15 17 19 20 -103 -104 0
-60 -7 8 -11 15 16 17 -51 -57 0
105 -7 101 102 104 331 597 601 0
-110 8 101 102 104 109 599 602 0
-61 -51 -56 141 -319 381 382 384 387 0
105 -7 -8 101 -103 104 331 570 602 0
105 -7 -8 101 -103 104 331 570 601 0
-52 -55 -57 71 -72 73 74 78 187 0
-4 -5 -7 102 103 104 -105 107 0
-109 12 15 17 -104 -105 -328 0
-217 -72 84 -426 435 436 440 456 457 461 0
55 51 57 -319 -328 345 360 0
-37 -8 -35 102 103 104 -106 107 110 0
-3 -6 -7 -8 102 103 -104 105 599 0
-63 3 -5 -353 382 401 402 -480 0
-114 -5 71 73 74 437 482 488 0
-86 -55 84 -101 -103 -105 -319 420 -480 0
-52 51 54 -55 71 -72 73 74 81 84 345 360 471 0
105 8 101 103 104 570 597 598 601 0
108 102 103 105 106 601 602 0
102 -5 -7 -35 -38 103 104 105 602 0
102 -5 -7 -35 -38 101 103 -104 105 597 602 0
105 101 102 104 -278 331 602 0
-102 -72 84 -101 -104 471 -480 0
-51 8 -46 55 338 340 342 345 377 0
72 73 -319 429 431 432 0
217 -30 207 218 219 230 233 239 242 0
-71 73 429 430 431 432 0
102 6 8 -16 101 103 105 597 601 602 0
102 8 -16 45 101 103 104 -105 331 601 0
341 -51 58 -102 -105 -319 -328 -480 0
78 71 73 74 84 85 -319 437 492 0
-106 1 -5 -103 -104 -105 0
106 6 8 -16 101 105 108 570 601 602 0
106 6 8 -16 101 102 104 108 570 601 602 0
102 103 104 105 565 600 0
-63 -52 -54 382 390 403 404 0
-130 -23 25 -146 223 244 0
105 -7 101 102 104 331 601 603 0
106 102 103 105 108 110 600 601 0
54 8 51 55 60 345 0
-39 -7 15 16 -18 -37 -38 0
72 -5 -7 73 74 341 432 457 0
-341 -61 68 -367 381 382 383 0
-68 -33 -38 -319 387 -480 0
-63 -319 382 390 399 401 402 0
-102 -51 54 56 57 58 -101 -480 0
34 33 35 36 -38 252 261 262 0
-564 72 73 -319 432 -591 0
72 -6 -7 73 74 -319 386 432 456 0
-64 -52 -54 -319 383 0
-360 -34 35 37 42 43 -46 0
55 42 43 -46 52 -267 -285 361 365 0
-21 -51 -53 122 206 207 -328 0
-52 -51 -55 61 63 68 -319 -341 0
77 61 -62 63 68 71 -72 73 74 78 -319 0
-55 -51 -62 68 -71 -72 191 -319 390 440 0
-52 -55 -61 -62 67 68 72 73 74 432 0
67 -55 -56 61 63 68 -319 321 382 390 0
-78 -38 -40 73 74 432 0
-360 31 32 33 -34 35 37 42 43 84 471 0
32 31 33 35 37 283 284 0
-26 -8 -16 -18 236 -328 0
26 21 25 216 217 218 240 0
-57 31 35 -37 38 51 54 84 281 471 -480 0
-411 -61 62 67 68 72 73 -319 432 0
65 62 63 67 -319 387 0
-72 78 437 438 439 0
-72 -62 63 64 67 68 74 411 426 435 471 488 0
72 -61 62 63 73 74 -319 420 432 457 461 0
-34 35 42 43 -64 -65 285 316 0
-63 4 -5 62 -64 69 387 401 405 410 0
37 35 38 39 284 0
-63 4 -5 -64 65 68 401 0
-336 51 -52 54 343 344 345 0
391 51 -52 61 -62 84 346 471 -480 0
-2 -5 -45 52 54 55 57 58 0
-31 -7 -8 -11 -18 35 38 250 0
37 31 33 35 38 261 262 0
37 -5 -6 -8 -11 -18 32 33 38 -141 -143 0
-360 -34 35 38 42 43 -46 0
-22 213 214 216 217 233 0
-360 -6 -7 -8 -34 35 42 43 0
-237 -8 25 -26 28 233 243 244 -324 0
-28 -13 -18 -82 165 207 228 240 0
-28 21 24 25 170 237 240 -480 0
-64 -54 -56 63 68 276 405 407 0
-64 61 63 68 -319 405 407 0
55 -8 -37 -38 51 59 60 372 0
-28 25 84 170 207 218 237 240 0
-54 55 58 59 346 353 361 365 0
-495 -34 38 42 43 -46 277 0
-64 -5 -84 -87 135 282 -319 405 -480 0
63 -7 8 -46 62 64 -181 381 387 422 0
-340 27 28 29 30 -51 54 218 -313 -328 0
377 8 25 26 27 51 53 -328 346 379 0
-19 -5 8 -11 -21 -25 26 28 -142 149 0
439 -5 -7 -72 73 74 78 341 429 456 0
-68 -84 387 423 424 -480 0
55 8 -46 -51 52 340 342 353 377 0
23 21 25 -26 28 45 211 241 -328 0
-52 -51 -55 -72 73 78 436 461 0
426 -55 -57 -72 73 74 78 -142 439 0
77 73 74 78 79 442 456 468 469 0
-579 7 103 -105 331 570 578 582 0
-104 1 4 -5 -7 -84 -105 -107 -488 0
-75 73 -82 -85 -101 -102 437 450 0
-75 73 -83 -85 -101 -103 437 450 0
-107 -5 -8 105 -480 -491 587 603 0
43 -34 35 38 42 281 540 585 0
-107 105 -480 -491 587 601 602 0
55 8 -46 -82 341 342 377 -488 0
-104 106 108 110 571 578 587 594 0
110 106 108 109 570 571 574 578 581 587 594 602 0
377 53 56 58 59 345 346 347 360 0
-102 -84 -101 -105 -328 375 -480 0
109 104 105 107 110 570 597 0
-107 4 -5 -84 -87 105 -480 603 0
219 21 24 -25 27 28 232 238 239 0
21 24 -25 26 27 28 210 218 237 331 0
-104 106 108 110 571 578 587 589 0
-599 6 8 31 -35 36 37 -142 255 270 -328 0
26 -7 -8 21 25 28 -34 -38 221 0
-28 15 -18 34 -38 -45 188 192 237 252 255 278 282 0
55 8 51 345 346 353 371 372 377 0
-225 -45 51 -55 345 346 353 0
62 -7 8 -313 384 387 391 398 400 405 406 421 422 0
-62 384 387 390 391 392 393 394 0
-71 73 78 429 431 438 451 0
71 73 74 78 438 451 457 0
-78 -17 -18 73 74 432 485 0
-78 73 74 432 440 0
53 42 43 52 55 58 371 0
-25 5 8 207 219 228 0
271 25 -28 31 -34 35 37 -38 -84 207 -313 0
-28 25 -26 31 -34 35 37 -38 -84 207 -313 0
-63 -313 384 387 390 398 400 0
-63 68 390 398 399 400 403 404 405 0
-59 8 -38 51 56 278 282 285 -481 -488 0
-60 -46 -55 103 -105 108 109 324 571 0
-225 -45 -55 56 57 58 345 346 353 0
-58 -25 -28 -319 342 350 490 0
62 63 -71 -77 146 -319 387 411 0
55 8 54 56 58 -328 345 377 0
72 6 73 75 -319 341 432 0
-76 4 -5 -74 -84 -480 0
78 71 72 73 -74 76 -84 496 498 0
68 61 383 390 391 392 399 405 406 421 422 0
-214 34 35 36 -37 38 -57 -319 341 0
-450 -34 35 38 42 43 -46 0
-61 381 382 383 386 387 411 0
-319 -5 -6 73 -74 -84 432 461 -480 0
105 5 45 331 563 565 570 586 0
72 73 75 76 -319 432 0
101 -5 -7 8 -35 -38 103 104 105 570 597 602 0
587 -5 -7 8 -35 -38 103 -104 105 106 571 0
107 -5 -7 -35 -38 102 103 105 106 110 0
-34 -8 35 42 43 -74 -75 -147 -315 322 0
-103 -2 -5 -6 71 -74 75 -104 -319 0
-62 381 390 391 392 393 395 0
-591 102 103 104 -105 106 597 598 599 0
-62 381 390 391 396 397 0
107 -5 -7 -45 101 102 103 331 0
34 31 35 38 270 287 -480 -493 0
56 54 57 60 84 342 345 471 494 0
106 -7 -45 101 102 103 105 0
51 5 -8 -319 -480 -489 0
105 -7 -8 -45 101 331 570 571 578 0
104 7 -45 101 105 331 570 0
-54 55 56 -319 345 346 353 375 0
-31 -5 -6 -8 -11 -18 38 251 0
51 55 -313 346 349 353 372 376 377 0
386 63 -319 387 390 391 392 396 397 411 0
-55 42 43 -105 -110 339 345 369 370 0
-33 34 35 252 255 268 269 281 0
-103 -7 104 105 331 562 570 601 603 0
103 101 102 -105 108 109 331 587 599 0
103 -45 101 102 104 109 0
-24 -5 -7 -34 -37 228 -328 0
-63 51 -55 68 -319 400 401 -480 481 0
-68 -16 -18 -319 387 402 484 0
-64 68 -319 383 390 405 406 0
28 24 201 219 221 227 232 238 -328 0
-17 -7 14 15 -18 19 197 -488 -492 0
236 21 23 25 201 216 217 237 240 0
-411 42 43 -45 51 -55 345 0
-399 3 4 -5 -73 -83 84 -319 432 0
-71 72 74 77 430 432 433 434 0
-443 72 -73 74 -319 448 450 451 453 0
62 3 4 -5 61 64 -319 399 420 -480 0
-457 -73 76 88 -319 432 -480 481 490 0
-269 -73 74 76 432 457 471 -480 488 0
-74 -54 55 57 58 59 60 -73 0
76 72 74 -319 432 433 434 447 457 0
-313 -5 -51 55 58 62 64 141 386 387 398 0
-360 -34 35 38 42 43 281 0
-54 -51 55 59 -73 -74 -319 342 371 0
53 -32 35 51 54 84 260 281 336 471 472 0
-65 -55 -57 59 60 -63 -64 -480 0
-65 -55 56 57 58 -63 -319 -480 0
-411 42 43 -45 -55 56 57 58 345 0
-75 -55 56 57 58 -73 -319 -480 0
-51 42 43 55 336 337 342 371 0
-33 -34 38 268 269 272 276 0
-268 -71 -73 74 76 432 435 457 481 0
-74 -6 42 72 -73 76 136 432 450 0
26 25 201 206 207 215 216 217 221 228 0
393 -62 63 64 65 69 395 420 422 0
-26 8 15 17 25 -46 0
67 62 64 68 69 -319 404 411 0
-262 53 56 57 58 84 342 360 471 -480 0
17 6 16 -18 31 32 33 -35 -38 39 0
-52 3 4 -5 -51 -55 -73 84 -319 432 -480 0
-360 -51 52 54 -55 -319 353 0
68 -5 61 62 -63 69 70 -270 386 412 0
-16 15 17 168 175 181 -328 0
-74 -54 56 57 58 59 60 -73 0
-26 8 207 213 220 225 238 -328 331 0
-61 -7 -8 -11 -18 62 384 385 0
3 4 -5 -6 -73 74 75 429 432 -480 0
57 51 55 345 346 353 372 0
-52 -56 -57 -62 65 186 395 0
-340 -51 56 57 342 345 353 360 373 374 0
-313 72 74 432 456 457 461 0
37 31 38 -135 -141 -143 255 0
-67 -37 -40 61 63 407 0
-52 -15 -18 -55 -58 -62 67 68 0
-180 42 43 -45 51 -55 345 0
52 -33 34 35 51 54 84 252 281 353 472 -480 0
67 -61 62 68 72 73 -319 382 432 0
-217 33 34 35 36 38 84 -246 281 0
-33 -31 34 35 -73 74 84 252 281 471 -480 0
-54 51 -84 -319 -480 0
-28 21 -88 170 222 225 226 447 -480 0
-216 -62 63 65 67 68 406 471 488 0
72 -61 -67 73 78 146 -319 456 0
-36 -34 -35 73 78 -319 426 432 450 453 0
-386 62 63 -319 383 421 422 0
-28 -13 -18 24 -82 165 207 240 0
-28 25 42 170 207 218 237 241 242 472 -480 0
-26 5 -35 -37 45 331 0
-62 -52 -56 186 392 394 395 0
-240 26 28 207 215 218 236 -324 0
62 63 -319 387 407 411 421 422 0
-27 -22 -28 -33 -38 51 -55 -57 360 0
-13 -15 -18 21 24 25 27 -28 42 43 -45 240 0
-63 -319 382 390 399 400 401 0
-27 26 -28 201 221 227 233 241 242 0
73 -6 -7 72 -319 386 429 432 0
-218 5 25 26 28 84 201 489 490 0
62 -12 -15 63 -83 -85 -319 386 387 0
341 33 35 -36 38 -51 -52 55 272 342 0
77 -55 76 78 -319 426 -480 0
-62 42 43 67 68 381 390 393 0
-20 -7 -18 34 35 -37 -38 246 247 255 0
-20 -4 -18 31 -34 -38 -46 255 270 272 0
-21 -6 -7 -27 -51 55 342 0
64 -22 25 27 28 61 63 81 84 471 0
-61 2 4 -6 -7 24 25 28 -62 160 240 0
-495 -34 35 38 42 43 281 0
-25 26 204 212 218 232 233 0
-73 -55 -319 445 446 447 -480 0
-589 31 37 -38 -84 270 271 -480 0
-272 1 -7 21 25 28 124 236 -328 0
-130 -84 86 -136 -146 471 0
51 8 58 -328 345 346 353 377 0
-106 104 565 570 591 598 599 0
-52 -11 -15 -51 -55 -480 491 492 0
219 21 -25 26 28 31 -34 35 36 -37 38 319 0
219 -25 26 28 31 -35 38 204 225 236 237 240 319 -328 0
-62 2 -5 129 -313 381 391 394 395 0
51 -6 -7 8 35 55 346 371 375 -480 -488 0
-18 -11 331 471 -480 0
-63 -5 65 68 69 70 -270 386 390 0
68 62 -63 66 384 386 401 405 409 410 0
63 62 65 -319 385 405 420 0
-73 444 446 447 448 449 451 461 -480 0
-73 51 -55 72 76 -319 432 443 446 -480 0
-72 426 435 436 437 439 440 0
-65 -34 -36 -43 -46 62 316 0
63 62 69 -319 386 387 405 415 0
-58 -5 -7 -8 -51 -61 62 384 0
12 13 15 18 182 -328 0
-64 4 -5 51 -55 61 -84 420 -480 0
12 -11 13 14 15 18 195 -328 0
413 62 63 66 67 -319 0
-31 38 249 251 -328 0
-72 51 -58 73 -319 426 439 456 -480 0
67 42 -55 -61 62 -63 66 68 398 -480 0
-273 -34 38 278 285 -328 0
77 25 26 27 74 75 76 80 440 0
-51 56 -319 336 337 341 342 345 0
-74 4 -5 -7 51 -55 432 -480 -488 0
72 73 74 -313 433 434 0
72 73 -319 432 433 434 450 451 0
-21 -7 -8 25 26 -31 -37 206 0
55 42 43 52 53 56 -319 375 0
-51 -7 -8 -21 -28 55 340 0
-51 -1 -5 -8 -45 55 337 338 340 375 0
-105 572 579 585 591 593 601 602 0
-105 564 572 585 591 592 593 594 0
-353 52 54 55 57 -319 -337 372 0
104 -7 63 105 106 -319 -480 601 0
-105 -5 -7 42 43 46 275 572 579 592 0
24 21 23 25 26 206 240 0
-12 6 -15 -16 56 57 84 0
-319 81 -104 -105 275 0
-343 25 26 30 218 240 -336 0
-343 -11 15 -31 35 38 161 162 250 0
-63 -54 84 -319 338 382 390 403 404 0
-110 13 15 17 18 20 -103 -105 0
-102 -51 55 -101 -319 341 372 -480 0
-64 -54 55 59 60 -63 340 375 0
59 -51 54 55 56 60 -319 345 375 0
-61 -62 63 68 69 383 384 386 389 0
-21 25 26 206 207 0
-338 -51 54 55 56 345 360 364 365 375 0
-338 -51 54 55 56 57 -319 0
-108 12 15 16 18 -104 -105 0
-208 15 16 18 -51 52 53 -161 338 364 0
54 51 59 345 352 359 0
22 21 24 28 206 221 331 0
-590 -13 15 17 18 -23 25 28 220 0
-90 -8 -45 101 -104 105 -480 603 0
-30 3 4 -8 -28 -90 -480 0
-31 -7 -8 -38 -46 -51 55 0
-73 -21 -27 76 124 -319 435 444 446 0
-39 15 -16 -38 42 43 51 52 -56 -58 191 0
-565 73 78 -319 432 437 -566 0
-585 104 -105 106 107 109 579 588 590 0
-159 -11 15 162 187 189 190 0
-78 34 35 36 -38 -72 -252 285 -480 0
-489 54 -55 58 59 60 -319 371 -480 0
-78 34 35 -38 73 250 285 -319 432 -480 0
-104 105 563 586 588 589 602 0
107 101 104 108 109 570 599 0
-63 3 4 -5 399 401 402 -480 0
53 42 43 52 55 58 -328 361 365 0
562 106 109 561 570 585 588 593 602 604 0
-207 -46 -51 55 -240 0
-30 -5 8 -15 17 -28 -35 -38 -328 0
-350 33 -38 270 271 272 -336 0
78 -42 71 76 77 443 0
-54 58 346 353 360 361 364 365 0
393 -62 67 68 -319 384 390 0
-32 24 25 26 -28 -38 -84 206 255 0
-33 -38 51 54 -58 -480 0
-42 73 74 427 432 433 434 439 447 456 0
432 -42 74 429 443 445 446 447 450 461 0
-344 -11 15 16 72 73 195 -319 428 0
-21 8 -26 -28 -46 -51 55 345 346 353 377 0
-114 81 87 89 90 -135 -142 -481 0
58 55 56 59 345 346 353 375 377 0
-59 35 36 37 55 56 376 0
59 55 56 60 345 346 353 375 0
-344 -11 15 16 35 -38 195 251 -252 282 0
411 386 387 388 389 390 391 398 421 422 423 424 0
-434 16 17 18 -21 26 -28 -159 233 240 0
-3 -6 -8 -21 25 26 27 -28 42 43 -46 0
-56 7 -27 -28 -46 55 331 0
-336 -72 73 -319 -339 -342 461 0
-344 16 17 18 -31 -159 281 282 285 0
-336 -51 52 -328 345 349 350 360 0
-52 -46 55 349 350 0
-74 72 73 75 -319 451 452 0
-78 -55 -58 -72 -82 87 195 483 488 0
-456 -45 52 53 54 -55 0
-2 -8 25 26 27 -28 84 218 472 0
-36 12 13 14 16 -17 18 -37 -46 0
426 73 76 78 -319 457 461 0
-371 25 -26 205 218 237 -349 0
-371 23 25 28 205 206 -349 0
-63 -33 -36 220 382 390 403 404 0
-62 42 43 51 -58 67 -319 381 393 -480 0
-180 -45 52 53 54 -55 0
74 432 433 434 435 440 445 448 449 456 457 461 0
62 42 43 -46 63 -226 -319 386 387 0
-67 -37 -39 42 43 70 381 401 0
-63 51 -55 -319 382 400 401 -480 481 0
73 -319 429 430 432 434 436 441 460 461 469 0
-377 25 26 28 35 36 38 -328 0
495 7 -15 -17 18 -84 163 182 190 471 -488 0
-495 -34 35 38 42 43 -46 0
-495 7 -84 -105 108 331 -480 0
342 -46 -51 55 -375 0
101 7 103 108 331 571 599 602 0
-593 25 28 201 -328 -585 0
-590 26 28 -29 216 232 -585 0
-589 34 35 36 -38 -84 285 -480 0
53 -38 -40 52 54 57 -328 0
-53 7 -55 -105 106 -480 564 585 601 0
-54 42 43 -46 -55 -83 101 -105 108 109 0
-3 -6 -8 22 24 25 -28 42 43 -46 0
-218 -8 -34 35 37 42 43 -147 0
-39 12 13 14 16 -17 18 25 26 -37 -38 0
107 -90 105 106 -480 603 604 0
-3 -8 34 -38 -84 -480 0
-396 21 26 28 81 84 218 232 0
58 -21 -27 -51 52 54 56 86 -319 -480 491 0
-343 -11 15 -21 25 26 28 161 162 0
-351 21 26 28 81 84 218 232 0
-344 -11 15 -16 -31 35 38 162 191 0
-61 7 -319 340 381 382 386 387 0
34 7 -11 -16 -17 35 38 255 0
-339 51 54 -55 56 341 342 345 0
447 3 7 -73 84 -319 -432 0
-207 7 -51 -240 -319 336 354 385 0
-54 7 -45 -51 105 331 -480 -488 0
-57 -55 341 345 360 371 376 377 0
-27 26 -28 206 221 227 233 241 242 0
-110 31 34 -39 -84 -104 -480 0
101 7 -16 102 103 105 331 600 0
-40 -37 51 54 -57 345 0
-344 -11 15 35 -38 161 162 251 -252 282 0
-285 105 106 107 -288 570 571 578 0
-28 25 26 -27 207 217 222 227 243 0
-381 34 36 37 55 58 59 60 255 278 371 0
-55 -45 51 59 345 360 591 0
54 42 -43 -51 52 55 56 345 375 0
-3 -8 36 37 -38 -82 -84 270 473 -488 0
-2 -8 24 25 26 -28 221 472 -480 0
-101 34 35 -38 -84 -102 -105 282 -328 -480 0
25 -5 -11 331 471 -480 0
-53 55 57 355 357 0
421 -62 63 -336 -342 391 411 422 0
268 35 36 40 251 261 267 270 273 0
415 -61 382 383 385 386 387 396 411 0
-467 84 -457 -487 490 492 0
602 102 104 106 108 109 562 0
564 103 104 106 107 570 575 605 0
564 103 104 106 574 575 600 605 0
572 103 104 106 575 593 601 602 603 0
571 101 103 106 109 600 602 604 0
593 106 561 563 571 579 581 582 592 600 605 0
348 59 60 336 337 338 347 350 353 0
457 74 426 432 440 444 445 446 456 461 0
89 81 87 90 -114 -142 495 0
254 -31 39 251 252 276 0
2 4 6 83 85 87 -481 0
485 85 87 488 490 496 0
233 21 22 29 30 218 236 0
459 -71 426 428 431 434 444 445 447 461 468 0
594 103 107 108 110 561 586 0
424 65 66 -70 422 0
410 -70 389 393 394 404 424 0
349 -7 -21 -28 -57 -331 353 0
175 15 18 160 181 -331 0
175 18 160 167 174 180 181 186 -331 0
398 61 62 -67 -331 0
402 61 62 64 -331 411 0
43 -32 -33 42 68 -81 -83 -331 411 0
402 61 64 66 -331 392 398 0
-81 -480 -488 0
338 -42 -51 -328 337 341 342 0
324 34 35 38 -42 247 0
356 -42 -46 51 58 353 360 0
324 -42 51 55 331 353 375 0
87 -21 -25 -27 -31 -33 -83 85 0
218 21 25 28 -42 45 0
248 -34 -42 81 82 270 273 281 -359 0
-364 -64 81 82 383 391 0
-363 -42 -74 76 81 86 88 -342 0
-437 -14 15 16 17 -42 0
341 -42 -46 58 353 354 360 0
-17 -7 -15 -35 -38 0
87 -5 -7 -8 -81 85 -162 0
107 -5 -7 46 101 102 104 106 0
193 -5 -7 -14 -34 -37 183 194 0
173 -5 18 -31 -35 -36 165 166 0
-472 25 27 28 34 35 37 -146 -480 0
267 25 26 27 -83 -84 207 215 0
23 -12 -18 25 26 27 -28 42 -83 480 0
12 11 15 16 17 -18 21 25 -28 237 240 0
373 25 26 28 -59 339 346 358 378 0
236 -13 -14 -20 25 -105 -110 201 237 240 0
24 25 -28 -81 -82 -83 -103 -104 -109 0
234 -24 25 26 -225 233 235 0
579 22 25 26 27 -30 -43 -103 -104 0
-471 -84 -480 0
-471 -84 -480 0
90 -11 -19 -102 -110 -480 481 486 0
-602 34 35 37 -146 -472 -480 0
485 3 4 7 84 -135 -480 0
3 4 7 -146 471 -480 489 0
498 4 7 -480 -481 495 0
-404 71 74 84 -400 -438 471 -480 0
-491 103 104 106 109 110 -472 -480 0
-492 16 18 -45 176 182 0
316 -34 -36 62 63 66 69 70 420 0
-130 -84 88 -141 495 0
386 5 -52 -55 -61 -62 72 74 -313 0
391 -56 -57 61 63 65 68 461 0
-53 -82 -83 -102 -104 -313 0
423 61 62 88 -313 398 421 480 -481 -487 497 0
341 -46 -51 52 -313 342 360 0
-382 -61 63 64 67 387 411 0
445 -72 73 -313 -426 -435 437 447 0
391 45 46 -64 65 -313 383 406 0
-440 11 14 -18 -82 -83 -84 0
241 7 28 -84 -87 -135 201 240 242 0
258 -11 -13 -17 -32 -82 -84 162 -324 0
-52 21 26 28 51 54 84 218 232 471 -480 0
-15 6 8 16 18 -25 26 28 187 -328 0
62 42 -319 386 387 399 403 404 406 411 420 0
71 -55 -57 73 77 78 -319 322 0
-434 -11 16 18 34 35 38 161 255 281 0
-135 -15 17 -25 26 -143 204 232 -328 345 0
-129 -15 17 18 21 -25 26 28 186 232 345 0
-74 71 73 -319 451 452 458 0
-61 -319 381 384 386 387 400 0
67 -22 26 27 28 -62 63 68 405 406 411 471 488 0
84 -5 -7 -11 331 471 -480 0
-85 -55 57 58 -84 -328 -480 0
-52 -55 -58 -313 -426 436 438 439 443 451 452 0
-36 21 26 -28 -38 -46 219 225 240 0
-377 15 16 18 35 36 38 0
-57 35 36 38 51 349 353 377 0
73 -14 -17 304 -319 429 430 432 438 439 0
259 34 36 38 247 -324 0
23 21 24 25 26 217 241 0
-353 11 15 16 18 51 52 -55 0
103 7 105 331 571 575 588 0
13 11 15 18 -25 -45 -141 166 0
346 51 55 58 -313 371 0
168 11 13 15 -16 -166 0
106 101 108 109 110 561 571 581 0
-377 15 16 18 -37 251 255 272 285 0
-63 -53 -54 -313 382 398 0
32 34 37 38 268 269 276 0
252 34 35 -38 -246 281 -313 0
101 7 46 103 108 331 570 571 588 0
-31 -6 -8 -37 -38 -51 55 0
-342 -51 55 58 372 375 0
-443 -74 75 -313 432 445 446 0
-207 -5 -8 -81 88 150 480 495 0
-268 15 16 -17 25 26 -37 -38 -266 -267 0
-63 -1 -5 -8 -42 -83 -86 382 398 403 404 0
-63 382 390 398 399 400 402 0
-252 -28 -42 -83 -84 233 237 240 247 0
68 -12 -14 62 66 82 386 400 406 0
-36 34 35 -42 250 265 -324 0
32 34 35 -37 38 250 277 -313 0
54 55 56 58 336 358 359 0
-56 34 -36 -51 -52 282 -313 0
-199 -21 25 26 -31 35 36 -195 0
35 32 34 36 -37 38 268 269 0
-73 3 7 -72 135 444 447 0
-399 -24 25 -43 236 237 240 0
-62 -52 -56 186 -313 381 391 394 395 0
-72 -1 7 -8 82 85 88 426 440 0
68 61 -319 393 399 401 402 412 0
23 24 25 26 206 209 214 216 0
-252 24 25 26 27 -28 -83 -84 247 0
-20 -17 55 -57 58 336 353 371 374 0
35 34 38 246 -313 -328 0
52 55 58 -328 358 359 -472 -488 0
57 51 54 58 -313 -328 0
25 26 28 -43 -166 201 221 225 237 238 239 0
53 25 26 27 -52 -215 336 346 471 488 0
-579 -105 564 572 578 580 581 582 594 0
585 7 -105 331 564 572 580 581 583 593 0
-336 -51 52 58 -84 -313 -328 349 0
-104 -12 -14 -17 86 -103 480 497 0
54 52 55 58 -328 336 355 358 359 0
25 26 28 206 214 221 238 239 0
14 11 15 18 165 -328 0
13 11 14 15 18 166 -328 0
25 26 28 -46 -103 -108 -110 449 0
-217 -32 34 37 38 250 255 471 488 0
-105 -46 -55 -60 324 -370 561 579 585 594 0
-59 22 25 26 -27 -57 206 227 0
27 23 25 26 207 216 217 -328 0
61 390 391 396 399 401 403 406 409 411 422 424 0
27 21 25 26 216 217 218 0
-40 -38 72 73 428 429 450 461 0
-65 -52 -55 -82 -84 384 399 0
-604 16 -17 18 25 26 28 161 166 176 -328 0
-72 -12 -17 214 426 436 441 442 0
-36 13 16 -17 18 -37 -46 161 166 0
386 2 4 -61 62 68 83 -84 -313 405 411 495 0
-340 -51 56 -328 -338 341 342 347 355 0
28 25 26 51 52 53 -57 81 -82 206 218 480 0
-64 42 62 383 405 407 408 0
64 7 62 -313 340 384 420 0
-22 -26 -27 33 34 35 38 0
61 -54 -56 62 63 276 -313 410 421 423 0
-62 -313 381 391 392 394 395 0
-14 -13 -24 -27 -82 -84 86 87 488 0
-222 1 -8 11 15 16 17 -324 0
-338 62 63 -64 -84 -344 471 488 0
-324 11 13 -15 16 42 -52 -55 0
-105 7 46 331 564 572 579 593 0
-38 32 34 37 278 282 -313 0
-342 -51 52 58 354 360 372 375 0
21 -16 -17 24 25 -26 28 -84 86 495 0
-73 -21 -24 -31 -33 -42 82 -88 240 427 461 0
-37 -8 -38 52 55 337 338 353 372 0
-60 -1 -8 15 16 17 -18 -58 -82 162 -324 488 0
-38 34 37 252 278 282 -313 0
-441 -22 25 27 28 83 473 0
72 -1 7 -82 83 -84 -313 429 432 453 0
-74 2 4 7 72 -82 -84 -313 428 453 458 0
-72 3 4 7 -313 429 430 436 440 441 442 445 446 0
-51 -1 7 -55 -58 -82 83 -84 -313 0
72 -4 7 -51 -54 -58 -313 0
57 -51 52 54 55 56 -313 354 372 0
-78 72 -313 432 453 0
-78 52 54 56 57 -58 73 354 432 436 441 454 0
62 -5 61 -313 383 387 407 408 411 0
61 -36 -37 62 -313 408 411 452 471 0
-62 -1 -6 63 160 382 391 396 397 0
-441 -22 26 27 28 83 473 0
-442 -22 26 27 28 471 488 0
-21 7 -8 -28 -31 37 38 0
-105 7 46 331 564 571 579 588 593 0
103 7 101 108 110 331 571 602 0
-107 105 561 563 596 600 601 602 0
13 11 15 16 17 166 0
-344 -21 -31 35 37 38 204 207 236 0
-344 -21 -35 37 236 -249 250 -342 0
21 7 22 -25 26 27 28 -84 88 0
354 -25 -43 -45 51 -54 201 264 346 0
277 34 36 -37 38 247 254 261 268 269 0
-86 51 52 -58 -83 -84 233 278 0
-39 -38 51 53 -58 81 -82 353 480 544 0
-40 -37 -38 52 55 -58 340 353 0
-67 -37 -38 -42 -54 -58 386 401 0
428 72 73 -313 433 442 454 460 461 469 0
72 73 74 432 450 451 452 456 460 461 466 0
-74 83 -88 285 428 443 450 461 0
-54 -55 -58 -84 278 471 497 498 0
24 23 25 27 28 207 208 217 243 0
-72 51 -58 -82 -84 -313 437 438 439 0
62 -5 61 -313 383 387 405 406 408 411 0
61 2 4 62 83 -84 -313 407 408 495 0
32 34 37 38 276 -313 0
72 -5 -313 341 429 432 436 451 452 458 0
-86 51 -58 -82 -84 188 278 -313 0
-58 -35 -38 51 -313 350 496 0
-36 24 25 28 -31 -32 -331 0
-166 -24 25 28 -43 45 46 0
-281 -31 37 38 -250 -331 0
-260 -14 -17 -18 -82 86 87 0
-396 -31 34 35 37 38 -246 247 488 0
-375 51 57 -58 -331 340 346 356 0
62 7 -43 46 -313 -331 340 383 384 405 406 0
-354 -24 25 28 -43 45 46 0
-63 -22 -25 -32 -33 399 401 402 0
-61 7 -62 64 -331 340 384 387 401 0
-75 45 46 73 -182 426 450 0
340 -51 55 -331 356 -372 0
-433 -25 -61 63 216 217 218 231 232 233 381 383 0
23 21 25 28 211 -331 0
58 8 52 55 57 353 374 0
-62 -16 -18 -331 381 393 398 399 405 484 0
-73 3 7 135 427 444 447 0
-1 7 -16 -18 61 -62 63 -331 405 0
68 -55 -56 61 63 -319 321 -331 0
32 34 38 247 276 -331 0
55 8 -52 53 54 58 -331 374 0
-31 2 -5 -35 -51 -52 -55 338 0
-43 31 32 34 45 46 0
-62 -16 -17 392 393 395 439 0
62 46 65 -331 381 382 -473 -488 -496 0
395 -62 -331 382 383 392 393 398 0
-62 -16 -18 67 -313 381 391 392 484 0
-64 51 -56 62 276 -313 -331 348 405 408 0
63 -18 -20 -55 -56 62 64 321 -331 0
56 52 54 -55 58 -313 -331 0
18 1 7 11 13 -15 17 130 -331 0
8 -6 15 18 25 -26 27 28 191 -331 0
-63 3 4 -5 61 -62 -313 399 401 0
-389 -31 -35 37 -51 53 129 250 252 336 0
72 -51 -55 -81 -83 -319 427 428 443 461 468 469 0
130 7 73 123 135 -319 429 432 458 0
72 -18 -20 73 -319 428 429 461 0
72 75 -319 427 428 443 448 458 460 461 468 469 0
68 -55 -56 62 64 67 321 -331 382 383 398 0
-21 7 -26 -31 38 -331 0
66 61 -62 65 68 421 422 0
68 42 51 -52 -55 58 61 -62 186 -331 398 0
345 51 54 55 56 -331 0
-61 -32 34 38 -62 -81 -83 276 -331 0
405 62 -313 -331 383 387 -406 408 0
384 -43 46 62 -313 -331 383 387 406 408 0
392 -62 -313 -331 -384 391 395 0
56 52 54 58 -313 -331 0
-395 34 276 -313 -331 -381 0
68 -55 -56 61 -62 67 -313 321 -331 391 0
61 45 46 -54 -56 62 276 -313 405 0
78 7 -24 -25 -72 74 -313 426 456 0
-21 7 -25 -51 -55 115 130 337 0
-23 28 207 215 -222 223 228 244 0
-54 52 -319 338 353 0
66 42 -51 -55 -62 68 -81 82 -331 347 0
-143 34 -141 246 -313 -331 0
68 61 -62 64 -313 -331 411 0
-72 -51 -55 -62 -65 -313 436 437 438 440 0
61 7 -43 51 -54 62 -313 -331 350 408 0
-348 24 25 28 -331 -336 0
-72 3 7 135 426 436 437 440 0
406 42 46 -52 -55 62 -82 -84 -313 -331 384 387 0
-260 51 -52 -282 -313 -331 346 0
13 11 15 17 166 168 181 195 0
62 7 -313 -331 340 383 387 405 408 0
25 28 205 213 220 -331 0
-58 -15 -18 -52 -55 -62 -331 381 0
447 -52 -53 74 -81 -319 427 429 432 435 437 440 443 444 461 0
-71 -319 426 427 429 432 461 0
-340 23 25 28 -331 -336 0
-35 7 8 15 16 17 -18 33 37 -38 246 273 0
58 -51 52 53 54 -331 373 374 0
-37 11 14 15 17 -18 -38 45 46 165 0
-52 -6 51 -56 -58 345 346 0
-72 -14 -17 304 -313 426 436 440 461 0
-24 -43 45 46 231 233 237 -354 0
-237 26 -28 201 220 226 231 241 242 0
-62 -55 -56 67 -313 321 -331 381 391 395 405 0
-26 15 17 -18 -27 -28 -331 0
354 51 -55 58 -331 360 362 373 374 0
72 -31 -61 63 73 74 250 251 278 381 383 450 451 452 0
-60 -6 8 -21 25 27 -51 -56 0
-215 51 -52 -237 -313 -331 360 0
-267 -68 72 -78 -319 395 0
-260 51 55 -267 -319 371 0
74 -313 426 429 432 437 440 461 0
-19 -5 8 -18 26 -28 -35 -38 45 46 233 0
-72 -32 -33 74 -81 -83 -319 435 437 440 461 0
207 -25 26 -28 -43 45 46 -166 215 222 0
-22 -16 -18 -25 -28 -32 38 -331 0
-260 -32 33 34 38 278 281 282 285 0
-29 -5 16 17 -18 -25 -28 0
-30 -6 8 -18 -28 -36 -38 188 195 0
-260 -32 38 51 -52 278 -313 -331 346 0
-29 -5 11 14 15 17 -18 -25 -28 165 0
-27 11 14 15 17 -18 -28 45 46 165 0
-73 -12 -17 45 46 214 427 443 0
-60 -6 8 -31 -38 -51 -56 249 251 0
63 -31 38 -62 -246 250 277 391 471 488 0
207 7 -14 -15 22 23 25 -28 218 241 242 0
-260 -62 -252 -331 391 399 400 411 0
-54 -51 -55 73 -74 76 285 -313 436 480 496 0
-240 22 27 -28 207 218 231 241 242 0
348 51 -52 -62 -313 -331 346 381 391 0
-63 61 -313 391 399 400 420 0
54 8 46 51 55 -313 -331 348 0
-22 -15 -18 -26 -28 -32 286 287 0
-8 7 -14 -15 22 26 -28 45 46 -51 -56 0
215 21 24 25 -26 -28 29 30 -84 -331 -488 490 495 0
-46 52 54 57 58 -319 337 353 0
32 34 35 37 247 279 283 284 -331 0
24 7 -25 26 -28 29 -84 207 215 235 495 0
-252 22 25 26 -28 -83 -84 247 -331 0
-19 -6 8 -18 25 26 -28 -36 -38 45 46 0
-22 -26 -28 51 59 60 349 353 0
63 7 62 67 69 340 408 410 413 0
-63 -54 -313 337 346 -353 399 401 402 0
-388 15 16 18 -21 25 -161 237 0
-73 -12 -17 214 -313 432 444 445 446 0
-434 -11 15 16 -21 25 195 206 237 0
-262 54 57 58 340 354 471 488 0
-213 25 -26 28 214 216 217 233 -324 0
-433 15 16 18 -21 25 -161 237 0
-62 385 390 391 394 395 396 397 0
63 -37 -38 -54 -58 62 383 386 387 411 0
61 4 -5 -62 63 67 68 82 390 405 411 0
-390 -62 63 -313 381 0
-213 22 -26 205 216 217 218 237 0
-32 -37 -38 61 -62 64 -313 411 0
-411 -43 -45 52 54 -55 0
-63 4 -5 61 -64 65 83 391 403 420 471 0
-54 -55 -56 62 63 -64 276 383 420 0
-209 15 16 18 35 -38 -161 251 -252 282 0
440 3 7 71 -72 74 135 427 436 437 0
72 -319 427 428 432 443 447 456 457 461 0
-30 16 -17 18 -25 -27 34 -35 36 187 252 255 277 0
387 62 63 386 400 405 409 410 411 420 0
102 7 105 108 331 578 0
-45 21 23 -25 26 28 42 51 -55 313 338 0
32 34 35 36 37 247 0
61 53 -54 55 56 57 62 63 83 471 -481 488 0
-344 15 16 18 -21 -161 205 207 232 0
-343 15 16 18 -21 -161 205 207 232 0
-209 15 16 18 -51 52 -161 337 338 0
-204 26 27 28 208 209 0
-74 -23 -25 73 -84 -88 -141 146 285 450 0
-72 -12 -17 -32 214 258 259 260 426 471 480 488 0
-354 -51 52 53 -313 -339 360 0
-64 -55 62 67 68 -82 -84 -313 386 406 0
-252 7 -8 -81 82 85 88 0
56 1 3 -5 -45 51 54 57 58 0
-105 7 46 331 563 572 579 593 0
-4 7 -23 -24 82 -84 88 0
398 62 67 -313 386 387 388 389 408 411 0
-72 7 -74 -84 135 437 440 0
72 -51 -55 -81 -83 -319 427 432 447 461 0
440 3 7 -72 -83 -84 135 426 437 0
429 -72 74 78 -313 432 438 439 457 0
21 2 -6 22 25 26 28 -82 86 480 0
-63 -28 -29 -43 399 400 401 0
-389 15 16 18 -21 26 -28 -161 233 0
62 -313 386 387 388 389 398 399 405 406 407 0
-67 386 401 407 421 422 0
386 -55 -61 62 63 66 68 -82 -84 -313 0
74 72 -313 433 442 445 446 454 455 458 460 461 469 0
61 51 -52 -62 63 64 83 345 346 471 0
-22 -16 -19 25 26 27 -32 -36 217 0
67 -55 -56 61 62 68 321 382 383 398 0
-251 -11 15 18 -281 0
63 -52 -56 61 186 -319 392 420 0
68 7 -54 -56 62 63 67 340 405 407 0
-255 -32 38 251 259 276 -313 0
-164 -35 37 62 63 -249 250 252 405 406 420 0
-66 7 -54 -56 62 -313 340 0
52 -8 -27 -28 51 55 353 372 0
-433 15 16 18 -35 37 -161 -249 250 252 0
-252 25 26 27 -83 -84 215 247 0
345 -8 -27 -28 51 55 -319 337 372 0
-434 15 16 18 -35 37 -161 -249 250 252 0
-72 -313 426 432 438 439 440 450 0
-22 -27 -28 51 -52 348 -495 0
-73 72 -313 432 445 446 450 0
-72 -54 -58 -82 -84 -313 426 436 437 461 0
-344 15 16 18 -35 37 -161 -249 250 252 0
72 -319 427 428 433 434 443 448 460 461 469 0
-389 -11 16 18 25 28 161 -206 236 238 239 0
-388 -11 16 18 25 28 161 -206 236 238 239 0
-591 -105 561 580 585 596 597 598 599 0
411 62 63 67 68 409 410 0
63 -22 26 27 28 -62 83 386 387 405 411 471 0
-411 3 7 13 -15 18 20 46 336 0
-64 62 383 398 407 408 411 0
-261 25 26 27 83 -215 473 0
64 62 68 -313 386 411 0
-262 -72 73 78 83 429 461 471 0
-344 -11 16 18 -21 25 26 161 206 0
-343 -11 16 18 -21 25 26 27 161 0
28 21 22 25 26 86 87 480 0
-26 7 -14 -15 201 221 222 240 -328 0
74 72 -313 430 432 444 457 461 0
-22 13 -15 16 18 -25 -52 -55 161 345 0
-24 3 7 13 -15 18 20 -26 46 336 0
246 34 37 276 278 282 -313 0
-495 52 -55 -472 -488 0
-105 561 562 570 585 591 592 594 604 0
411 -28 -30 383 394 395 396 397 421 422 -472 -488 0
4 1 7 -15 -17 -81 -83 -84 481 489 0
-252 -51 52 -285 -328 337 360 0
-342 4 -5 -8 -11 -15 -81 -83 -84 350 0
31 34 35 36 37 51 55 257 -328 353 375 0
-43 21 -24 26 28 214 219 534 579 0
-432 1 -8 -81 -83 -84 -85 0
-478 -11 16 18 -21 25 26 27 161 0
386 62 69 -83 -90 387 388 389 398 411 0
-433 -11 15 -21 25 26 27 161 162 0
68 7 62 67 340 382 386 387 398 399 405 0
-63 62 382 398 403 404 0
-446 1 7 -16 161 192 -226 0
55 -6 -37 -38 -42 51 353 372 0
267 34 35 -38 -42 -247 282 0
-45 -42 51 -55 -135 353 0
-64 405 406 407 408 0
-64 -12 -15 -83 -84 405 407 408 0
-388 -15 16 -21 25 26 27 167 174 180 192 195 0
-21 -31 -33 -83 -88 205 207 -324 0
-495 -8 25 26 -28 -42 51 207 372 -488 0
21 25 28 -42 218 220 226 0
-382 -61 399 400 401 402 0
-340 53 55 56 58 -328 -341 348 0
-63 -42 61 398 400 401 402 0
-63 65 400 401 402 0
-63 3 -5 -42 61 393 398 401 402 411 0
-389 15 16 18 -21 25 -161 237 0
-73 -24 -25 -27 74 311 356 446 447 0
-62 -42 61 392 393 420 0
360 -33 -37 -38 -42 51 -55 56 353 0
-63 34 35 36 37 62 81 82 382 398 0
-63 -5 61 62 67 -313 402 0
-25 8 24 28 201 219 231 -331 0
-411 -5 16 17 18 26 29 30 204 240 336 0
-73 87 240 427 435 443 444 461 481 489 490 0
-26 -63 -68 205 221 226 231 238 239 491 0
402 1 3 -5 62 -63 67 382 398 0
-73 7 -12 -15 429 432 435 443 445 458 0
73 42 43 -68 -69 72 428 433 460 461 0
-74 51 52 -55 78 82 -319 428 461 0
64 -56 -60 61 63 69 415 420 596 0
-23 7 -13 -15 17 18 -28 219 221 -331 0
66 62 63 -331 401 405 408 413 0
-216 -62 -72 73 381 390 391 429 430 432 436 0
-25 23 -53 -58 201 225 231 -331 490 0
-73 7 -12 -15 74 78 444 0
88 1 7 -16 82 -84 86 -331 489 495 0
-73 7 -52 -55 -63 -65 135 427 444 447 0
-72 -52 -53 73 -81 -83 -319 437 440 461 0
25 28 205 213 218 -331 0
-26 28 30 -43 45 -53 -56 231 0
69 -55 -56 63 64 67 68 70 321 0
72 82 -313 428 429 432 455 459 461 468 0
4 1 3 7 72 73 -74 75 82 -84 432 0
-313 61 62 -68 -72 -73 74 75 426 461 0
55 51 54 56 57 358 359 0
75 4 7 -72 73 78 82 -84 -313 426 440 0
-20 -1 7 8 -11 -31 37 38 252 561 0
19 15 16 20 180 182 -488 -492 0
-455 62 -64 383 398 471 472 480 0
-19 -5 8 -11 -31 -35 37 38 -331 0
-26 205 213 218 231 237 -331 0
55 51 57 58 59 336 359 365 372 377 0
432 7 72 -313 428 429 450 453 0
-261 -72 73 78 429 436 461 471 488 0
-253 -61 63 72 73 78 381 383 450 461 0
267 31 34 37 -38 252 257 258 0
-432 72 73 78 450 461 468 469 0
16 14 18 -64 -66 -83 -84 162 -331 0
-9 7 31 34 37 -39 40 255 0
-31 7 -11 -35 -38 0
-39 -11 -31 -38 45 -141 160 187 197 -282 0
32 31 34 36 37 39 269 0
28 26 -130 -141 201 225 -331 0
72 -11 16 17 18 -21 25 73 74 162 206 237 0
-411 4 -5 -15 16 18 21 -25 26 212 -331 336 0
-143 34 -38 -141 252 255 -331 0
68 7 62 65 -313 -331 340 0
-72 -11 -16 -51 -52 437 438 440 0
68 62 65 67 -331 382 383 398 0
61 62 65 68 -331 398 0
-17 14 15 18 82 85 86 196 197 480 0
78 -42 -53 -55 427 428 429 432 444 447 461 -488 0
18 7 34 471 480 0
-61 4 -5 -62 69 70 -83 -84 382 384 387 394 0
480 7 34 471 0
420 61 62 65 66 -319 0
-26 25 -63 -67 237 -328 446 0
-66 -5 11 -15 17 18 -63 188 -328 -480 0
-68 15 16 17 61 395 398 424 0
27 21 23 26 28 216 217 0
-104 81 84 109 275 563 586 587 604 0
-73 -31 -33 34 35 84 252 281 443 471 -480 0
-269 -51 53 54 55 56 58 84 -247 471 0
-21 -5 -8 25 -31 -35 206 -328 0
-54 4 -5 -51 -55 -58 62 -63 -64 421 422 0
-36 -8 25 -37 -46 201 222 228 237 0
-254 3 4 -8 73 74 -78 -246 471 -480 488 0
-17 7 187 191 195 -480 0
-3 -6 -8 11 17 166 192 -324 0
-21 -6 -8 25 -31 -36 205 206 0
-166 11 13 15 -16 84 -191 490 0
21 25 213 216 217 218 220 226 237 240 0
35 34 36 -37 38 246 268 269 0
251 33 34 -37 -246 0
53 42 43 55 58 348 349 365 371 0
-4 -5 22 -25 26 27 28 -51 -55 0
-105 -2 -5 -65 -66 572 585 591 593 601 602 0
-251 -51 55 58 -281 0
57 52 53 56 58 -319 0
206 1 7 11 15 -25 -27 28 -45 214 240 0
-16 3 7 11 13 -17 18 -46 -480 481 0
-68 55 56 57 -58 -62 -319 -480 0
-22 -16 -17 -27 -52 55 -240 0
-15 -11 -17 34 38 255 -328 0
52 57 58 59 60 351 355 356 360 373 0
-251 -51 58 -281 -319 347 354 0
225 21 23 -25 28 216 217 231 0
-36 -25 26 -27 -37 -46 206 212 219 228 233 0
55 -51 -319 337 341 348 350 372 0
-58 53 54 -68 -70 350 0
27 21 26 28 216 217 218 0
433 73 434 436 437 440 450 451 452 461 0
21 -12 -14 23 26 27 28 300 0
21 11 -15 -25 26 28 -129 232 345 0
-281 36 -37 38 45 0
40 36 38 276 277 279 286 0
-254 -51 -246 337 338 -339 -482 488 0
-63 61 390 399 403 404 406 420 0
122 -5 -7 -65 -66 -82 83 87 0
114 -5 -7 -65 -66 82 -85 0
24 -5 -7 -11 -17 23 -25 28 0
475 -5 -7 -71 72 -81 88 341 427 432 480 0
-4 8 -34 -35 38 0
-14 -6 -7 -16 -34 -324 0
-13 -6 -7 8 18 -23 28 0
-422 -7 8 -17 18 0
374 8 51 53 58 346 377 0
222 -7 8 25 26 207 215 -377 0
173 -7 8 11 -46 165 166 188 195 0
147 -6 -7 -15 -17 0
-20 -6 -10 -36 -38 -324 0
364 51 55 -56 -59 345 0
29 -8 30 -35 -38 0
-40 -7 25 -37 -38 -56 -58 0
228 -7 -8 -13 -17 -28 207 233 237 0
87 4 6 -7 -480 -488 495 0
87 4 6 -7 -84 85 -480 0
-422 -7 21 22 23 25 -27 -28 0
-377 -7 25 -28 -57 -58 237 0
40 -7 -9 -19 -45 0
197 -7 -9 18 -45 0
343 -7 55 -59 351 353 0
-377 -7 -27 150 240 0
122 -2 -61 -63 205 0
114 5 122 129 135 -142 0
101 -7 102 104 105 106 0
1 3 4 -7 82 85 -446 0
341 -51 52 56 58 -319 354 0
347 -51 56 58 -319 341 354 0
-353 42 51 55 -328 375 0
-267 51 52 54 -285 -328 0
375 51 52 55 -328 -488 0
233 -28 34 35 37 -38 240 -313 -328 0
24 21 23 25 27 -328 0
22 21 25 218 240 -328 0
176 -13 -32 -35 -82 -84 260 -328 0
-32 -13 -35 -37 -82 -84 -328 0
169 17 -18 176 182 187 -195 -328 0
6 -11 18 -31 -35 -328 0
165 11 14 17 18 -328 0
158 15 18 169 176 -328 0
159 18 161 165 180 182 187 -328 0
176 11 16 18 166 174 187 -328 0
348 -56 -328 337 338 353 0
170 11 15 17 173 -328 0
350 54 55 57 -328 337 0
130 4 5 -6 85 86 -480 0
429 -75 -85 -319 -480 0
385 62 63 68 -319 386 0
440 -32 -33 73 -81 -83 -319 -426 429 461 0
-251 72 73 74 75 78 -319 0
459 71 73 74 -319 438 440 442 0
399 -65 -473 -481 -495 0
281 -1 -5 38 39 -52 -57 -60 276 0
167 -5 -6 -15 -34 -36 161 174 188 0
159 -5 -6 -15 -34 167 -324 0
204 -5 -6 23 -25 -34 -36 219 227 233 0
-14 -5 -8 -15 -16 -34 0
147 -5 -8 -61 -68 -81 85 0
141 -5 6 -8 -51 -61 -66 336 337 360 0
196 -5 -9 -19 -25 -28 0
386 -1 -5 62 68 -82 -84 -85 -313 0
-66 -5 -65 -82 -83 -84 -85 0
562 -4 -5 -34 -36 -39 -106 561 0
353 -4 -5 -45 52 -55 0
599 -1 -5 -82 -87 -106 561 562 570 586 598 0
-2 -5 -45 52 56 57 58 360 0
-102 -55 -75 -82 -83 -84 -105 0
-101 42 -61 -64 -84 -102 0
65 61 62 67 -83 -84 -103 -106 0
580 -64 -66 -82 -84 101 -106 591 0
108 -82 -83 -84 -87 105 106 -107 0
495 4 -82 -83 -84 -141 -142 0
-495 42 56 57 58 -84 0
430 -76 -84 -86 -102 -104 0
-374 -26 27 31 32 33 -36 37 231 270 0
443 -18 -20 72 75 427 428 432 461 0
421 -18 -20 64 70 381 382 390 411 0
-500 42 -488 0
-270 -45 52 371 372 375 -472 -488 0
591 -45 52 59 374 375 -472 -488 0
341 -51 56 58 59 60 -101 -103 -488 0
593 -106 -108 -473 -488 -498 573 0
-566 102 105 -107 108 109 -473 -488 0
217 21 28 216 218 221 227 231 0
164 14 -17 18 -45 -108 -110 165 191 0
-195 46 -142 0
391 -28 -30 61 63 -68 0
170 -12 -17 -22 26 -82 -83 -324 0
436 -13 -17 34 -37 -247 251 0
45 -141 -324 0
158 15 17 18 168 175 0
171 11 15 16 165 173 185 195 0
185 11 15 16 165 184 195 0
-399 11 16 17 -324 -398 0
175 16 17 162 181 -192 -324 0
101 102 104 105 106 -324 0
32 31 33 36 37 -324 0
-81 34 35 36 37 -62 -63 -82 0
11 15 16 18 -103 -105 -108 0
-274 -14 15 16 18 -24 225 237 0
-434 16 17 18 62 63 64 -159 0
283 35 36 252 260 267 278 -281 284 0
486 31 35 -40 84 281 282 285 471 0
383 -56 -59 62 -66 -106 -107 382 398 0
170 15 16 17 -158 162 0
377 52 54 55 58 -62 -63 -81 -82 0
63 61 -319 393 412 413 420 0
-4 8 -34 252 260 -313 -328 0
-336 -313 -338 0
-59 8 11 14 16 -18 55 165 -328 0
215 25 27 -201 218 232 -328 0
-29 -7 8 -17 18 -28 -67 -68 0
-27 -12 -17 21 24 26 232 241 242 435 0
-58 8 25 28 -38 -40 -57 -328 0
66 65 67 69 382 386 388 389 391 397 403 404 0
-25 -5 -7 -8 -34 201 219 233 -328 0
14 11 16 165 187 188 195 -328 0
-26 18 25 -34 45 84 331 0
62 -38 -40 61 63 405 421 422 0
-38 252 260 270 285 -313 -328 0
-18 162 166 177 188 192 196 197 0
11 7 18 -46 165 180 182 331 -488 495 0
105 7 106 107 331 -471 -481 582 0
-359 62 64 72 74 -82 -83 -101 -102 -253 383 472 481 0
-23 -6 -8 -13 -16 25 221 0
23 22 -25 26 28 34 38 225 255 -328 0
204 -12 -13 -17 24 -25 26 28 221 -328 -480 0
57 51 55 56 59 345 365 0
28 21 25 -33 -37 214 -328 443 0
-106 7 331 573 580 591 597 598 0
-22 25 26 27 -28 -32 34 38 84 246 471 0
-585 7 103 104 -105 331 571 588 0
-413 -55 56 -331 345 346 353 -387 0
429 3 4 7 -42 74 432 444 450 -480 0
11 12 13 15 18 45 0
-67 45 46 51 -58 -68 -84 -480 0
-368 7 -61 -331 -339 372 394 398 0
55 8 51 52 -331 353 379 0
-74 4 7 432 443 450 -480 -481 0
14 1 4 -5 -7 11 15 16 -17 18 -328 0
-55 -319 339 347 354 0
-4 -5 -13 -14 -25 201 231 232 233 0
-481 101 -102 105 109 110 -498 580 0
-25 -5 -7 83 85 87 201 225 231 -331 0
56 51 -313 -331 346 368 375 0
39 34 40 246 266 276 278 282 0
267 34 35 -38 -42 251 282 0
-105 7 331 564 572 579 588 591 0
-331 34 -37 38 246 247 255 0
-74 -319 428 436 447 451 457 0
78 2 3 7 73 -319 426 429 461 0
-350 -68 -319 -345 387 0
-61 67 381 383 385 387 399 406 0
-183 23 25 -195 201 -328 331 0
-21 -7 -9 -28 -29 -46 -51 55 0
-24 25 29 226 227 230 0
-34 42 43 -46 273 277 405 540 585 0
-57 6 -51 -61 63 -319 384 395 0
336 53 55 58 -319 371 0
-62 51 -54 63 64 -84 -319 395 411 421 422 0
-72 -1 -7 73 86 161 438 439 440 450 488 0
-33 266 267 268 269 276 0
58 -51 52 -313 -328 341 360 0
-5 -8 114 122 132 138 0
-28 207 215 222 228 240 0
-143 -138 -150 246 -313 -328 0
38 34 246 251 259 -313 -328 0
-38 34 -82 -84 177 252 265 277 -313 0
-63 3 -5 82 135 -313 392 420 0
23 12 13 15 -18 22 25 26 -28 -328 0
-38 -13 -18 -81 82 273 0
-72 -17 -18 -313 426 436 437 461 485 0
-18 11 -83 -85 -440 -481 0
56 58 -313 -331 338 339 346 0
440 74 -313 -426 429 436 438 439 0
-440 35 36 267 278 -331 -426 0
-63 3 -5 61 68 -313 401 0
-21 -11 15 17 18 62 63 191 192 195 205 207 232 405 406 420 0
-101 59 60 -83 -102 -481 0
-59 -5 143 343 376 378 471 -481 0
4 -5 85 -106 -108 -481 -488 0
-490 68 -331 384 391 395 -480 -488 0
64 -18 -20 62 63 -331 384 0
61 -18 -20 62 65 -331 398 0
-192 16 -18 160 175 181 186 -331 0
-16 162 168 175 181 186 -331 0
-389 -55 84 360 -381 -384 0
-61 62 66 -81 -83 -85 -331 382 408 0
-123 -42 -73 -141 432 443 444 0
74 73 78 426 459 460 461 0
-454 -64 81 383 391 481 -488 0
16 11 15 20 165 166 173 196 0
-73 427 432 435 443 444 446 462 0
160 -5 -7 18 -24 -28 82 85 87 165 181 -331 0
-13 -5 -6 -15 -42 73 -74 75 432 0
-233 7 16 17 18 25 -28 237 240 0
453 72 73 -74 75 -432 461 0
453 -42 73 -74 76 -432 457 0
453 -3 7 -42 -74 -432 443 0
-72 -42 78 -114 -141 426 0
162 14 16 167 174 180 186 -331 -488 -492 0
-167 82 -187 489 497 0
-472 -61 -331 381 387 411 -488 0
-384 7 -51 58 -331 337 411 0
-313 5 31 32 -38 -331 0
360 -43 51 52 57 -331 372 0
-174 13 16 18 165 173 -331 0
104 -6 103 105 -331 -461 561 601 0
-4 -5 -7 -8 102 103 104 -105 -107 110 0
-74 428 436 443 450 451 452 0
-27 -7 25 142 151 152 241 242 0
-58 -54 61 -68 -83 -481 0
-488 -43 45 46 -461 -481 -495 0
-74 -313 428 436 450 451 452 0
439 -72 74 -313 432 437 -461 0
-488 6 -7 -8 46 105 -481 -497 597 598 603 604 0
430 -71 72 427 432 450 -461 0
51 42 55 -319 -331 345 350 357 0
486 31 34 36 37 39 -40 84 471 0
-25 -8 -35 -38 234 235 0
-399 11 15 17 18 -405 0
-38 -51 -52 -58 270 282 285 -480 0
72 42 43 73 78 429 461 0
-34 42 43 -64 -65 277 278 285 316 -405 0
-73 4 -6 130 -319 427 444 445 -480 0
31 -4 5 34 38 280 -480 -493 0
-72 73 74 78 437 439 441 442 0
74 76 78 79 80 426 457 0
16 6 -8 -34 -38 -331 0
-488 15 18 -85 160 -331 471 0
175 11 14 15 -16 170 -331 0
-394 -62 -331 386 390 407 0
-75 45 46 -182 426 444 450 0
-342 34 36 277 -313 -336 0
106 5 -46 105 561 563 0
-393 -7 104 105 -106 109 331 -381 0
68 -51 -56 63 65 67 141 384 391 0
-72 51 -58 76 -82 -84 -313 426 436 437 0
-20 -18 72 73 75 428 429 461 0
105 5 45 103 104 573 578 580 586 601 603 0
74 72 76 77 -313 433 434 444 0
34 246 247 255 278 283 284 285 -331 0
-395 11 -18 -82 -84 -85 -480 0
104 5 -8 45 103 331 561 564 572 0
-84 -15 -18 -150 -381 -495 0
-66 -5 -6 -319 340 -480 -490 0
77 76 -319 426 435 444 447 458 0
-72 51 -58 -82 -83 -319 426 435 437 461 0
-231 34 38 -205 255 -331 0
68 62 -319 -331 382 384 399 0
-65 384 392 399 405 0
40 34 38 39 246 247 255 0
20 3 4 -5 -15 16 17 19 174 180 336 0
-25 201 219 225 232 233 -328 0
28 -15 -20 25 26 -35 -37 234 236 238 241 0
42 -34 43 -46 277 278 285 -495 0
-252 -46 -51 52 -285 -313 360 0
-252 -42 -285 -328 -488 -495 0
-377 8 -15 16 -18 -46 159 165 166 173 -375 0
375 -54 55 -319 -328 336 337 345 0
22 23 24 27 29 30 207 0
-58 342 350 353 378 379 0
66 -7 8 62 64 65 68 422 0
63 62 64 -319 388 389 0
17 11 16 165 166 173 188 0
22 21 24 26 28 -36 -37 -46 0
51 -319 -328 345 347 354 375 0
110 101 104 107 109 570 597 0
-34 -6 -7 -8 42 43 -54 -55 315 540 585 0
-55 339 345 360 370 373 376 378 0
-54 -37 -39 42 43 -319 338 360 372 0
-244 8 34 35 36 -233 246 247 255 0
-110 8 -16 105 106 -328 -471 0
-215 21 22 25 26 -28 -42 218 0
73 -38 -40 -42 426 428 429 436 450 461 0
83 6 8 35 38 -42 0
-591 -106 561 562 570 585 595 596 597 598 0
-105 -42 51 -55 -81 -82 106 108 109 480 602 0
27 11 17 -18 21 25 26 -28 -42 -82 -83 0
-285 -46 -267 -328 346 -471 -473 -495 0
-73 75 77 439 445 447 0
-25 8 -15 28 -42 -328 480 0
-37 -5 -7 22 25 28 -33 -34 228 -328 443 0
-73 -24 -27 77 311 439 445 447 0
-76 -42 73 -142 146 341 451 0
-382 62 63 64 67 399 400 0
-76 -42 -142 146 341 445 451 0
-76 -1 -5 73 83 -114 -142 146 341 437 482 495 0
18 4 -5 -7 13 14 -15 16 17 131 -328 336 0
-36 11 13 14 16 17 -18 -38 -46 0
28 8 -15 -42 -328 480 0
-220 21 -23 25 26 213 218 -221 238 239 0
55 -42 -328 336 337 338 353 375 0
108 -36 -38 -46 105 106 -471 -480 0
14 3 4 -7 13 15 16 -17 18 426 0
14 3 4 -7 13 15 16 -17 19 20 426 0
109 104 108 561 562 570 596 599 602 0
-593 -7 15 18 131 -328 426 -585 0
-129 14 -15 17 18 24 -25 27 204 331 345 0
-489 -105 106 107 108 -481 -488 0
87 -5 6 -7 -13 -14 -84 85 -480 0
-233 6 16 17 18 25 26 -28 -328 0
55 56 59 60 336 337 375 0
-340 -51 -328 336 337 361 0
183 11 13 15 -18 -166 0
-446 85 -461 481 492 0
-18 -85 162 177 -395 -480 0
-15 -1 -5 167 174 187 188 -328 336 0
-489 101 104 -105 108 331 -480 594 0
-20 -15 -17 -34 38 -46 150 274 -328 0
38 270 272 277 -328 -471 -480 0
489 42 43 -46 -62 -136 381 420 -480 491 492 0
-39 35 36 -38 251 261 268 273 0
-106 -3 7 -23 -27 331 573 580 586 0
-104 11 15 18 -103 -105 187 -328 0
-578 11 15 18 187 195 -328 -579 0
-13 -8 -15 -17 -104 -109 0
-38 3 4 -8 -89 150 285 289 -480 0
-38 34 261 268 278 282 285 289 0
110 84 -88 104 -105 107 109 490 564 596 0
-246 34 37 38 261 262 276 0
-207 -6 -7 -8 -81 85 483 488 0
-162 -6 -7 -8 -81 85 483 488 0
105 5 -8 -46 331 561 562 570 586 602 0
-90 23 26 27 29 -30 -82 228 -471 0
39 -7 34 36 40 -471 -480 0
-106 5 -328 565 573 580 586 0
-104 42 -103 -105 275 -319 0
57 51 54 58 -328 353 354 0
-593 -7 15 16 -17 18 195 426 -579 0
-68 -81 -84 -87 147 282 395 402 0
67 62 65 66 387 402 0
34 -7 -8 35 36 -51 -57 255 281 282 0
-14 -7 -8 -17 -24 25 26 0
-282 5 8 -26 35 36 -38 -45 0
-482 -14 15 18 -42 191 0
-480 -105 106 109 -471 585 593 602 0
106 5 45 -46 105 561 578 0
480 -42 -62 -81 -82 106 108 109 578 602 0
-101 -42 -62 -81 -82 -103 0
-85 -14 -42 -45 -82 191 0
26 21 28 -42 219 227 0
561 5 -26 -28 103 104 105 110 599 0
-69 15 16 18 62 384 385 398 411 423 0
-82 4 5 -83 -84 85 483 0
51 15 16 18 -28 -30 52 60 353 373 0
598 4 5 83 -84 104 105 -106 -471 495 -580 599 0
34 -23 -25 -28 -42 -82 251 -328 353 480 0
-35 34 40 249 255 279 282 285 331 0
24 22 -25 27 28 34 -35 37 -42 201 238 -328 353 480 0
18 5 -14 -17 -24 28 147 -324 0
37 -21 -23 34 35 36 -42 120 0
55 -7 -8 -21 -28 -42 -46 324 331 353 375 0
53 5 -8 -21 -28 -42 52 54 0
-20 5 8 -14 -17 -24 28 0
-240 5 -17 25 27 -28 -324 0
109 8 104 105 106 -471 600 602 0
-109 103 105 106 -146 561 601 603 0
-324 23 26 28 201 227 0
-8 5 -14 -17 -42 105 0
-25 5 8 21 24 26 212 0
-110 5 8 -17 18 -101 -107 0
-61 62 -64 -101 -105 -106 382 387 421 422 0
-62 -42 384 385 394 395 411 0
-20 5 8 -17 -18 26 -28 -36 -38 0
-25 5 8 233 0
-488 4 5 -82 -83 86 495 0
-313 32 37 38 -247 264 270 0
60 -28 -29 -43 51 59 346 354 371 0
24 23 25 27 -28 42 -82 170 237 -319 -328 0
207 23 25 27 -28 -201 238 -328 0
-63 -319 382 390 399 400 420 0
-480 -5 -11 25 331 472 0
-62 -34 -36 -46 -313 381 391 393 420 0
64 25 26 27 62 63 70 382 389 411 421 0
-208 -11 15 16 -61 62 195 386 387 398 411 0
-395 24 25 -28 236 237 240 -381 0
375 -32 -33 55 -319 -328 337 0
28 24 25 -42 220 221 236 0
-104 7 -12 -17 -20 82 88 105 135 331 495 0
411 67 68 69 381 382 390 398 410 0
102 103 105 106 563 566 587 0
-195 11 14 15 -16 169 176 -192 -331 0
14 11 15 -16 19 20 165 169 176 -192 -331 0
73 -54 -55 -61 -64 72 432 450 451 452 461 0
-129 -25 -51 -53 120 215 225 231 -331 0
-233 14 16 165 -207 -331 0
-73 -42 -64 -68 75 -337 461 -488 0
-183 11 14 15 -16 166 173 -192 -331 0
-73 -1 -5 -63 -66 427 443 448 449 0
-55 -42 -74 -75 339 -488 0
-46 15 17 25 -26 -331 0
-16 14 18 168 175 186 -331 0
-141 -7 34 37 -38 -42 0
-58 -62 -68 -319 342 -480 0
-34 5 -8 -105 -109 270 0
-36 21 22 24 26 27 -28 -38 -46 0
-15 11 13 -22 -25 180 345 0
106 105 107 109 110 561 563 600 0
-104 5 -23 24 25 28 -108 201 237 0
107 -6 105 108 109 331 -471 599 0
31 32 33 35 36 39 287 0
354 59 60 336 338 346 -368 371 0
-109 13 14 16 -45 -103 -108 189 0
-152 8 43 83 -146 267 0
-222 33 35 36 37 -38 -81 -82 -84 0
-23 -7 -28 36 -38 39 40 -81 -84 488 0
-14 -6 -7 -16 -18 -24 -324 0
-38 8 35 43 83 -146 267 0
73 74 -319 426 430 434 438 442 457 468 0
-23 2 5 -24 83 -105 -106 0
-475 46 103 104 105 -106 110 -471 563 599 600 0
-106 565 570 573 583 586 591 594 599 0
-495 103 105 -106 -473 -481 -591 0
-86 -81 -84 103 105 -106 -471 0
14 11 13 15 168 169 0
-136 -24 25 30 -148 -151 0
-183 -45 51 -55 -170 -188 346 0
105 8 106 -146 152 -471 -481 563 583 0
-3 4 5 83 103 104 -105 -106 109 110 -473 0
-594 11 16 17 -324 -585 0
-62 381 391 394 395 396 397 399 0
-204 -31 38 -232 -328 0
-62 68 383 390 394 396 397 411 0
12 11 13 16 195 -324 0
83 4 -8 -12 -18 25 -28 43 218 240 -328 0
-72 -1 -7 73 161 436 438 439 440 0
-52 34 -38 -58 84 -336 0
-18 11 177 185 188 192 195 198 -324 0
-101 -5 -7 -8 561 562 563 564 0
160 8 15 -37 -38 45 46 165 181 -331 0
345 56 58 -319 -331 336 337 0
66 -55 61 -62 68 -319 -331 0
-63 -55 -62 -65 -319 0
-23 -6 -7 -8 -13 -16 -324 0
-273 1 -8 11 16 -18 192 195 -324 0
104 -6 -7 -8 84 105 106 0
-253 63 73 84 -319 -344 -352 383 428 0
339 -51 54 60 84 -146 372 375 471 487 0
31 34 37 39 40 255 -331 0
-12 -6 -7 -16 101 -103 105 106 0
-38 -6 -7 -8 -31 -51 52 53 54 0
-254 -51 84 -101 -103 -104 -246 0
31 34 36 37 -38 63 -68 84 261 268 383 398 409 410 0
-51 63 66 -319 -331 337 338 340 342 420 0
-254 62 84 -101 -103 -104 -246 0
-246 42 43 63 68 -251 -319 411 0
23 24 28 -103 -107 201 238 240 -331 404 0
-231 34 38 -204 255 -331 0
22 -7 21 26 29 30 218 0
34 32 -38 252 279 280 282 285 0
-450 -34 35 38 42 43 281 0
15 11 16 165 171 178 185 195 0
-30 4 -8 21 24 -28 34 35 -38 81 84 -150 250 471 0
432 -1 2 4 -5 -82 -313 429 431 436 438 439 440 444 453 480 482 0
-486 2 -5 -82 -84 135 -313 383 384 386 387 388 393 399 407 415 420 -481 0
-273 35 -38 271 274 275 285 0
-497 -7 105 106 -107 -473 -488 603 0
-480 4 6 -7 -84 105 -107 -488 495 603 0
51 -8 -26 -27 83 -85 -313 375 0
-561 34 35 36 37 83 0
-85 -1 -5 83 135 -313 381 382 386 387 388 389 420 421 0
-59 52 57 343 354 363 373 0
-13 -7 -8 -17 -23 26 -324 0
-34 38 39 272 275 276 0
-57 59 341 346 354 371 375 377 0
26 -7 -8 -14 -17 23 25 201 240 0
-201 34 36 38 83 277 0
22 21 24 25 221 222 231 232 240 -324 0
23 24 25 26 -28 35 -38 240 282 285 -313 0
71 2 4 -5 -38 -40 72 73 -82 -84 496 498 0
165 11 -17 -45 -107 -110 0
53 54 59 374 377 379 -471 0
-62 -18 -20 63 -313 -331 381 391 411 0
-54 51 -73 -74 -319 0
-387 -61 63 395 408 423 424 0
72 -18 -20 71 74 77 432 456 0
53 8 -18 -20 51 346 374 377 0
-67 42 45 46 311 381 382 390 407 0
-68 -18 -20 64 381 382 390 0
-457 -16 160 175 -444 0
82 42 81 0
270 246 247 252 255 260 267 271 276 286 -331 0
-62 42 51 -52 -54 -55 58 -81 -84 186 -331 395 398 0
-170 12 -18 162 165 166 195 0
-16 8 -18 -20 -73 0
-72 -51 -53 -73 89 90 0
-32 24 26 -28 29 30 -38 -82 -84 331 0
-135 8 -34 36 -38 40 -46 -144 -273 0
-65 -51 -55 63 -81 -82 -84 0
-68 -18 -20 -51 -53 64 -81 -82 0
-331 -7 8 0
-68 -18 -20 61 -82 -84 -480 0
-10 11 16 -20 165 166 173 0
481 42 52 56 58 -84 -331 0
75 7 -18 -20 42 72 -73 135 427 0
-88 1 8 -46 82 -83 85 -162 480 0
61 -18 -20 62 63 -64 65 -313 -331 0
-34 -4 -6 -7 35 274 289 0
43 42 51 -52 -55 56 57 58 -62 68 -331 0
-84 8 -18 -20 -59 -73 0
-218 1 -7 22 25 26 -27 124 201 207 0
319 42 -52 56 57 58 -73 84 0
-173 1 -7 11 12 15 -18 124 -195 0
-62 43 64 381 390 396 397 0
-59 8 -18 -20 -73 0
6 46 150 0
-426 71 -72 428 433 434 435 0
-243 -28 29 234 238 241 0
-28 -7 24 26 207 216 217 219 240 0
38 246 270 271 276 -313 -331 0
-38 -64 -68 -142 -150 288 289 497 0
72 71 73 75 285 -406 480 495 0
68 61 65 67 -313 391 401 0
-137 -43 45 46 74 -75 426 0
-51 -81 -82 -84 -150 -313 -331 0
-29 8 -26 -36 37 38 -237 -331 0
-570 -72 74 76 77 432 -579 0
51 3 4 5 -55 -73 84 -319 427 492 0
-15 11 18 165 166 173 186 189 190 0
-18 -78 -79 188 192 195 0
-74 11 15 16 17 -73 -75 0
165 -4 -5 -7 8 11 18 0
-58 -319 -331 342 345 368 372 0
-18 -32 -38 84 162 183 215 0
-78 -66 -68 -73 84 85 240 491 0
-15 7 11 18 85 180 189 190 0
-182 42 43 45 46 72 -73 -75 427 0
51 -73 -75 84 -319 -331 372 0
-59 8 51 55 345 364 0
-20 -18 62 63 -68 71 72 -78 0
64 25 26 27 61 63 84 -215 471 0
46 6 -25 26 331 0
-8 -3 -5 -7 24 201 -328 0
-192 16 -18 162 175 181 186 -331 0
-18 16 84 162 177 188 215 -331 0
-267 -25 -26 -28 -83 85 88 0
-342 6 72 73 -319 375 429 0
8 -146 -328 0
-15 -7 -8 18 -25 -28 -324 0
55 5 -7 -8 -21 -28 -319 345 0
-324 31 34 -38 255 -328 0
7 -12 -14 84 85 88 129 0
-342 73 -78 -319 -336 0
-39 -38 42 43 73 -78 426 469 0
62 -319 -331 382 387 402 411 0
398 61 68 -331 390 391 411 0
-122 72 -141 -319 429 432 435 458 0
-74 7 72 -73 78 -319 428 0
-273 -34 38 276 285 288 289 0
15 20 162 165 183 191 193 195 -331 0
103 104 105 106 561 602 603 0
77 72 76 -319 429 432 458 0
-15 8 -34 38 162 167 174 -331 0
-37 -34 -38 42 43 45 46 -84 -88 458 0
-25 8 201 207 215 219 225 -331 0
14 12 13 16 17 162 198 199 0
16 11 19 20 166 167 176 180 0
16 15 -58 -59 -82 -88 -331 440 0
-31 -3 8 252 -331 -473 0
51 53 56 -319 -331 346 350 0
83 53 56 -319 -331 -342 0
566 103 105 106 570 571 575 578 582 588 605 0
72 73 -319 429 430 432 0
-17 15 -16 18 20 -135 169 176 196 0
-87 -5 -6 -83 -143 -331 -481 0
-491 -6 -141 -143 -331 -481 -488 0
-104 101 103 106 571 587 589 604 0
-489 -65 384 -481 -488 0
-76 61 -66 -73 -82 -83 406 0
-406 64 65 -66 67 400 417 0
-406 61 64 -66 -319 390 0
-1 85 -393 -480 481 0
-260 32 34 36 -38 -42 246 259 0
106 103 105 -473 475 480 495 567 571 574 578 601 0
-17 11 15 176 182 192 -331 0
-11 -1 -6 15 162 -331 381 0
-433 26 27 28 35 -38 -204 251 -252 282 0
62 -58 -59 61 -331 398 411 0
13 11 15 16 166 -331 0
-52 338 345 347 349 350 351 352 0
-237 25 28 207 222 228 -331 0
33 37 -38 40 246 273 276 279 283 0
-84 7 -13 -14 42 -480 498 0
78 2 3 7 84 -319 426 427 456 457 0
-374 7 34 -36 147 246 247 255 278 285 0
-471 34 38 276 -331 -480 0
427 42 43 45 46 72 -73 -182 447 461 0
24 21 23 28 231 -331 0
61 21 28 63 64 81 84 218 221 227 231 471 0
-68 64 71 72 74 -78 387 390 424 0
-64 -319 -331 387 390 405 406 420 0
-63 64 386 390 399 402 403 404 0
68 63 65 67 381 405 406 0
106 561 562 570 585 588 589 593 594 602 603 604 0
-374 8 35 38 281 -331 0
3 -5 -6 72 74 -75 78 79 80 -82 -83 0
9 -5 8 34 -40 247 260 -331 0
-56 -55 340 348 355 360 0
63 7 62 -319 -331 -342 372 0
426 -63 -68 73 75 -319 427 -440 461 -480 0
-21 204 205 207 -331 0
-21 -5 -6 28 -31 204 252 -331 0
-53 55 337 355 358 359 375 0
58 42 55 -319 -331 340 345 0
-8 -81 132 138 -432 -480 0
-382 51 -56 -82 -340 -471 0
-122 -42 -73 75 -141 432 443 0
-61 7 340 381 382 383 386 387 0
-72 3 7 -42 -73 75 135 432 0
11 -16 18 86 186 -328 480 -488 0
-82 -5 -11 25 313 331 -488 0
-74 1 7 -34 -37 82 136 285 -362 495 0
73 -42 74 75 432 461 0
17 3 7 13 14 -15 18 25 34 135 150 331 0
-66 14 16 18 -64 -331 -488 0
-432 62 64 -331 411 -427 0
-374 -6 8 15 18 35 38 -331 0
54 8 336 337 342 345 348 350 357 374 377 0
14 11 15 18 165 -331 0
-215 25 -28 -42 214 237 0
11 14 15 16 165 -331 0
-105 561 579 585 591 592 594 604 0
-103 105 -471 580 581 583 604 0
-30 -5 12 14 -15 16 17 -18 -26 -28 143 174 0
-218 201 225 226 228 231 233 237 -331 0
-61 62 382 385 386 387 405 0
-344 15 16 17 -21 -162 204 236 0
-105 -5 -7 46 -54 -55 82 572 585 592 597 598 603 0
-405 7 -51 58 -331 -383 411 0
-497 15 18 160 -331 -488 0
-51 -1 -5 159 337 338 343 344 0
-181 14 -16 18 166 173 186 -331 0
-74 -42 -53 -55 428 453 461 -488 0
-54 52 59 338 353 365 0
-273 -34 38 252 260 267 276 -331 0
-402 -51 52 56 -58 -331 363 -399 0
16 13 15 162 166 -331 0
-252 15 16 165 -248 -331 0
-360 11 15 18 -331 -353 0
-61 7 67 340 381 382 383 384 0
9 8 34 37 38 -331 -354 -471 0
-34 7 -68 -69 -75 -77 272 0
55 51 56 57 59 374 377 379 0
-358 -61 -73 74 -354 383 -384 -427 432 445 -471 0
-18 15 19 162 166 177 191 199 0
-207 16 165 166 173 -240 -324 0
-31 5 -21 -36 -38 -324 0
17 15 16 20 163 -354 -360 0
-240 15 16 165 192 -207 -228 0
34 31 36 37 -42 -45 0
-62 -17 -18 -22 -26 -28 43 68 87 88 168 381 488 0
-188 14 15 -18 162 165 189 190 191 0
68 -7 8 63 381 405 406 411 421 422 0
104 -7 -45 105 -471 -480 562 598 599 600 0
12 5 8 13 14 -34 35 -38 195 0
-23 -28 35 36 37 -38 -81 -84 488 0
-24 -6 -7 8 28 -34 35 -40 0
-23 -7 -28 35 36 -38 39 -81 -84 287 488 0
-18 -6 -7 8 -25 84 -207 212 0
-51 -328 336 337 338 342 376 377 0
73 -42 71 451 453 457 0
-26 -5 14 16 18 -34 -38 -42 0
-63 62 67 88 -166 237 382 398 481 0
-72 -18 -19 -42 426 456 457 461 0
-51 8 336 337 338 339 374 375 0
-30 -7 8 -18 -27 -28 188 192 0
228 25 27 -28 201 -218 -328 0
-56 8 52 53 -328 337 338 0
-72 -42 426 437 438 439 0
83 6 8 26 38 -42 -51 0
-289 -34 -38 40 271 280 287 0
14 11 15 19 20 165 -328 0
-225 -5 16 17 19 20 -219 336 0
-38 -5 -9 25 -28 -29 30 39 -46 289 0
-185 -14 17 20 180 194 0
-135 31 33 -38 -42 -273 -328 0
-423 11 16 -18 -38 177 183 195 278 282 285 0
270 32 37 -38 252 -264 -273 -328 0
-35 -6 -7 8 -18 -34 165 -324 0
11 -7 14 16 -18 25 26 28 165 192 196 -324 0
-37 -7 22 24 25 26 28 31 32 36 286 287 443 0
-190 6 8 -35 36 38 0
-283 -6 8 15 17 18 0
-374 5 8 -26 237 0
19 8 12 13 14 20 -45 0
-14 -15 -16 -34 38 0
12 11 13 15 -16 18 -34 -324 0
40 -8 -27 -28 39 0
246 -8 -27 -28 34 38 -313 0
257 -32 36 -37 38 -62 63 -82 -313 381 471 480 0
-184 -24 25 26 28 -34 35 38 0
-135 -34 -57 -59 -141 0
269 -33 35 38 268 281 0
-388 -11 16 -31 35 37 38 162 187 0
-29 15 16 -17 18 -24 -27 -34 35 38 0
32 -11 -17 33 -35 -36 38 331 0
269 31 32 34 38 268 0
-276 35 37 38 331 0
261 -32 35 38 262 281 0
286 31 32 33 35 38 287 0
269 35 -37 38 39 251 255 262 271 286 0
266 31 36 38 39 40 272 0
253 -31 38 40 249 251 0
576 -5 -45 -109 578 594 601 603 0
122 -5 101 103 107 108 109 110 0
129 -5 84 85 -106 135 561 562 586 591 597 598 0
239 -5 27 -30 -52 -60 242 244 337 -411 0
-497 4 -6 14 -16 18 -146 331 -481 0
-36 -6 -35 -38 0
167 11 14 -15 174 0
2 4 -6 -82 85 -107 -108 480 0
136 3 -6 84 85 86 -146 482 0
498 -3 -6 -141 480 495 0
355 -16 -20 51 -56 346 0
358 5 -8 51 54 347 359 0
-494 -480 -488 0
-85 51 -55 -84 -480 0
-339 51 52 -55 337 338 0
-70 51 54 -57 -67 345 0
429 51 52 -54 -55 60 -75 83 353 444 473 0
372 51 55 57 59 60 0
365 51 55 57 58 59 345 0
352 51 -52 55 59 348 375 0
377 51 54 55 58 345 0
362 51 52 -56 58 355 360 0
43 42 52 55 57 58 337 0
421 62 63 -104 -105 -106 387 422 0
421 62 68 382 387 402 405 406 411 422 0
572 -73 -77 -82 -83 -102 106 561 586 587 588 589 0
-40 -36 45 331 0
-574 -82 83 85 86 -600 0
356 52 56 58 59 60 353 360 0
-216 61 -62 63 -72 73 74 391 488 0
-216 42 -62 63 65 67 68 81 480 0
-261 42 -62 63 65 67 68 81 480 0
77 6 72 73 75 78 341 0
-578 -2 6 -83 85 103 -104 105 0
362 -51 -52 53 54 -338 347 363 0
43 -4 -10 -102 -104 -105 0
564 -105 106 574 575 579 585 600 605 0
101 -45 102 103 104 106 0
365 -45 -60 344 345 371 379 591 0
401 -63 66 68 399 0
491 -63 382 390 398 420 -445 473 492 0
295 -4 7 -61 67 340 387 0
492 7 -74 -75 -77 84 0
563 7 102 103 105 106 331 0
571 7 101 103 105 -107 109 0
578 101 103 105 -108 570 -582 0
567 -101 103 105 561 563 566 0
-26 -5 -7 8 18 -24 -28 -34 -46 0
-180 14 -15 17 166 173 188 -328 0
-62 -42 -46 181 381 400 406 420 0
23 8 21 24 27 -42 0
-11 2 4 -7 -17 -21 -23 426 0
-29 -7 8 -13 -17 -23 177 0
-40 -6 -7 8 -23 28 -33 -36 578 0
14 11 16 17 165 191 -324 0
-16 8 46 160 165 181 191 193 194 0
-192 8 -18 -45 160 165 181 191 193 194 0
-432 -5 -7 -24 -25 -38 -42 -46 -427 0
11 6 -7 8 15 18 -24 26 27 28 165 -328 0
55 -3 -5 -45 51 58 336 337 345 371 0
55 -3 -5 -45 52 58 336 337 357 371 0
180 11 -15 18 165 169 176 191 -328 0
-218 -84 86 88 -226 0
73 -1 -5 71 72 -82 -84 432 450 452 0
45 21 24 25 -28 -42 240 331 0
-331 -23 -26 34 35 38 246 276 398 0
-387 2 -8 -81 83 -85 0
110 3 -7 103 -105 107 561 563 571 597 598 603 0
-21 -7 -8 -25 -28 -31 38 0
-30 -15 17 -24 -25 -28 -34 186 -228 281 282 285 0
-324 21 23 26 27 -42 226 236 237 240 0
5 -8 14 15 -16 160 165 0
-206 -31 38 -236 -324 0
-105 107 561 585 591 593 594 595 0
-23 -5 -25 -225 -231 480 0
-32 38 -42 258 277 0
28 24 25 -42 206 -328 0
36 31 34 -42 -45 277 285 0
-1 -5 -7 -81 83 -84 85 -103 105 -107 603 0
-3 -7 -21 -27 -71 72 120 433 456 457 461 469 0
-37 25 28 -33 -34 -36 201 398 443 0
-102 86 88 -105 -107 488 0
-104 -5 -7 -45 107 331 563 571 578 0
-101 -5 -7 46 561 562 563 566 0
-129 -104 105 -142 -143 561 578 602 0
103 -5 -7 46 104 -105 107 561 598 599 603 0
25 21 24 -42 -46 240 331 0
34 31 -42 277 278 285 -328 0
25 28 -33 -37 45 201 227 240 -328 331 443 0
19 11 12 17 20 173 188 0
-105 -5 -7 -45 46 561 562 570 585 592 598 599 603 0
-602 -16 17 18 34 186 190 246 247 255 277 278 285 0
24 21 25 26 -42 232 240 0
-24 -6 -7 -8 -25 -26 -34 0
-45 31 34 -42 246 281 282 285 0
-11 16 159 161 162 0
-249 31 34 -35 246 247 0
33 -7 31 34 -35 -42 249 331 0
-187 16 17 18 169 176 182 0
-63 -42 61 398 399 401 402 0
63 -61 381 386 388 389 405 408 0
-20 -18 -58 342 346 354 355 375 0
-594 3 -8 -81 -82 162 -579 0
-17 -7 -15 31 34 -35 -42 -328 0
570 5 45 -105 106 -150 331 564 571 578 0
-595 26 27 28 -34 -225 281 282 285 0
104 5 -7 -8 105 331 561 562 570 0
-130 103 -104 105 -146 -147 561 570 599 0
-21 -6 -7 -8 25 26 -51 52 337 338 342 0
-18 14 19 20 162 165 192 195 0
-188 -15 18 162 166 174 195 -328 0
23 25 26 -42 201 203 236 237 240 0
-131 -13 18 -146 -324 0
-109 -6 -7 -8 -23 -27 106 561 583 0
37 31 33 38 -42 284 -328 0
-38 1 -8 11 -18 -34 192 195 0
-270 23 -25 201 231 233 -272 0
-599 -15 16 24 -25 159 165 180 187 201 219 233 0
33 -7 31 34 -42 246 331 0
-27 -8 -25 31 34 -35 -42 -328 331 0
105 5 -7 45 -147 331 -471 -483 578 0
103 5 -7 45 -105 -150 331 -471 -483 585 0
-14 17 -26 -30 -34 -36 180 181 184 0
-36 -7 -38 105 -109 561 578 598 603 0
-83 -5 -53 -54 -81 -82 105 109 -331 -471 578 596 0
-54 52 53 58 -331 338 361 0
-107 -7 -81 -84 -87 105 561 571 596 603 604 0
-61 -5 -8 -51 58 -81 85 141 -331 336 337 381 382 384 0
-106 3 -5 -7 -8 -34 84 85 -107 0
-57 -7 52 -81 -331 337 338 0
-87 -81 -82 103 105 106 -107 109 0
16 3 4 -5 -6 -8 18 -23 -28 -34 165 186 -331 336 0
-14 -5 -6 -8 -24 -28 183 -331 0
-14 7 -8 18 -34 -38 -480 0
-16 11 14 15 18 -25 165 192 231 233 0
-13 18 157 165 173 176 -328 0
-78 72 -84 -88 285 432 447 0
15 14 18 161 165 -328 0
-31 4 -8 -38 -81 -82 -83 473 0
13 3 4 -6 14 15 -16 18 161 169 -324 331 381 0
103 7 46 108 331 561 563 571 601 0
-37 -23 -27 35 36 -42 251 272 443 0
405 62 63 -71 -77 146 387 406 411 420 0
108 -32 -33 -81 -82 107 109 313 480 570 578 599 0
102 7 101 104 108 331 598 599 601 0
105 7 -8 46 -324 331 -471 563 571 578 580 581 583 604 0
108 7 104 105 331 561 598 599 0
-106 4 -5 -84 85 -103 -108 -141 488 0
17 12 14 18 157 165 -328 0
-108 3 4 7 105 331 -471 -480 482 -485 0
17 18 186 189 190 -328 0
-180 18 -34 38 165 166 173 -248 -328 0
406 62 388 389 398 399 400 405 420 0
-34 -4 -6 -8 -135 274 275 0
103 7 331 -471 -473 -481 -498 575 591 592 594 0
-78 -27 -28 72 -84 -88 432 492 0
-432 2 -5 -6 -8 -81 -82 88 89 90 480 0
564 7 46 103 -105 108 110 331 562 573 574 576 578 -585 588 0
-343 15 16 18 -35 37 -161 -249 250 252 0
17 18 159 165 180 -328 0
-31 7 -8 -21 -28 38 251 0
-324 12 16 161 162 165 177 182 188 0
-106 7 331 573 580 585 597 598 0
582 7 104 105 331 561 573 0
24 21 25 26 -42 221 0
187 14 -15 16 18 -161 165 0
46 7 103 108 331 561 578 585 601 0
-328 3 4 -6 13 14 15 -16 18 -191 195 381 0
-108 7 84 87 -105 106 -472 484 488 490 588 601 0
108 7 104 106 331 561 562 570 0
-106 4 7 103 -104 105 122 331 597 0
-227 -34 38 -236 276 278 279 280 0
3 4 7 84 85 105 122 331 -471 578 587 598 601 0
-239 38 -40 -205 -226 255 280 -287 0
-4 7 -8 11 -18 165 -471 -472 -480 0
-31 7 -11 -16 38 251 0
-232 25 -27 28 234 235 0
-17 -14 -16 23 25 28 201 0
194 14 15 -16 18 161 163 165 196 0
20 14 15 18 19 161 165 0
105 7 -122 331 -471 563 567 571 575 578 588 0
-60 52 344 359 365 0
-570 3 4 -6 102 -103 104 105 561 573 0
18 14 15 16 169 176 196 -328 0
105 7 103 331 561 563 571 597 0
2 4 -5 -6 -84 85 103 -108 -141 -473 480 488 0
103 7 -8 46 331 561 563 571 578 593 0
-34 -5 16 -17 18 -26 -27 35 38 0
-24 25 27 -103 -105 229 237 313 0
14 11 18 165 189 190 191 0
-35 -6 -24 -25 26 28 -37 -103 -105 107 109 313 331 -471 0
-353 -42 0
55 -6 -7 -21 -27 -42 -328 342 375 0
-188 -5 -25 26 82 -328 0
-73 7 -12 -15 82 85 240 444 0
27 23 -25 207 228 231 234 235 0
187 7 8 -14 -15 -34 285 0
74 -42 73 77 432 456 0
57 -46 52 58 360 -488 -489 0
-37 14 -18 -38 45 46 162 165 192 0
-195 -18 162 169 176 183 192 0
27 7 14 -15 -18 26 28 147 162 165 174 192 195 0
-492 14 16 18 -187 -331 -488 0
387 -43 46 63 -313 -331 383 384 393 395 405 406 0
-4 7 -11 -15 -34 260 -313 -331 0
27 8 -15 17 18 26 28 -141 -331 0
392 -62 63 388 389 390 391 394 395 406 0
-75 45 46 73 74 -272 437 0
-20 8 -15 -25 231 232 233 0
-51 8 58 -331 336 337 338 374 0
56 8 58 -331 337 339 354 360 0
-495 56 58 -331 -347 353 -473 0
-219 1 4 -5 -6 14 -15 17 -141 188 -232 -328 336 0
106 7 -105 109 331 564 572 578 582 588 602 0
-350 51 52 -58 345 346 0
7 -15 -25 82 0
-342 34 -38 222 -336 -488 0
-40 -38 62 63 66 386 405 0
-67 8 62 82 -90 331 386 0
-63 62 65 67 385 398 402 0
67 62 65 385 398 402 405 408 0
42 34 38 -51 -52 82 277 -328 0
37 33 34 35 246 247 278 -328 0
42 34 38 -51 -52 82 276 -331 0
-234 16 18 32 34 -35 38 187 196 197 246 247 281 0
-235 16 18 32 34 -35 38 187 196 197 246 247 281 0
11 5 -7 16 17 18 -46 82 561 563 601 0
34 35 36 37 -51 -52 -81 -83 247 0
-490 14 -15 17 18 -328 -488 0
106 5 -7 45 -46 103 -150 561 578 585 0
-51 -15 -25 -52 82 0
-387 1 -8 -81 82 -85 0
592 5 -7 103 106 -331 561 563 571 603 0
-26 -8 -15 -25 35 -52 82 0
-63 -33 34 35 36 37 -42 81 82 382 392 400 420 0
360 -25 -28 -42 -46 51 56 353 356 375 490 0
67 62 63 385 398 405 408 413 0
62 -33 35 36 38 61 64 81 82 0
-51 -6 -7 -8 -21 -28 52 342 343 344 353 0
63 62 64 69 389 0
-482 -82 489 495 0
-18 162 166 167 177 180 195 -328 0
130 5 -83 84 85 104 -105 -106 109 110 136 137 -471 488 0
-23 -25 -45 -54 55 58 336 353 371 0
-218 -23 25 227 228 -328 0
-3 5 -8 101 102 103 -104 -105 110 0
400 -37 -40 61 62 65 -66 68 0
-13 -7 -8 -23 -28 175 -324 0
-18 12 162 177 192 195 -324 0
-588 4 5 14 15 16 -17 18 426 0
-138 4 -6 -8 121 130 -482 0
58 -42 -46 57 339 0
54 -42 58 -328 336 337 341 354 371 0
-289 -7 8 25 26 -37 -38 0
52 8 51 53 58 60 353 0
176 11 15 16 19 20 -165 -195 0
105 104 108 561 562 570 599 600 601 605 0
-35 8 278 -324 0
-16 -6 -7 8 -85 -471 -480 593 0
237 -28 201 -220 228 233 240 0
37 -6 8 -18 -20 31 32 33 35 -38 0
-480 -11 -18 -84 331 0
-377 -7 12 13 14 15 16 150 0
-24 -7 8 25 28 -34 36 226 228 270 281 282 -324 0
-14 -7 8 -146 182 183 0
55 8 58 60 371 -471 0
-426 -32 -33 -83 -255 -260 -319 427 430 432 445 457 0
-73 427 435 445 447 450 452 457 0
-162 -38 -195 -237 -324 0
-52 8 54 58 336 345 348 377 0
-74 -12 -14 -42 73 -83 -84 432 451 452 0
61 8 63 67 68 -319 331 391 393 422 0
12 -7 8 11 14 16 19 20 189 190 191 0
-58 54 -313 338 342 346 350 353 0
-74 -1 2 4 -6 72 83 -84 432 443 450 495 0
-13 -18 37 -38 42 -84 260 270 271 0
345 59 60 339 346 353 371 372 375 0
-22 11 14 -18 -28 -82 -84 480 0
-39 -6 -7 -9 -31 -51 55 58 0
55 -6 -7 -21 -27 42 81 342 345 371 372 375 0
270 -38 -195 -237 -324 0
-324 -38 -195 -237 0
-331 -31 -33 -81 -319 381 382 383 387 391 395 402 411 0
75 -17 -18 73 -313 426 432 450 451 452 461 485 0
-1 7 73 -82 -85 -319 427 432 435 437 440 0
-13 -5 8 -15 16 -23 25 26 176 177 221 0
-18 84 162 177 192 195 215 -324 0
55 -6 -7 8 -11 -17 58 342 374 377 0
-8 3 -38 -39 84 -89 138 0
84 31 35 38 40 81 90 281 0
-54 56 -319 338 360 375 0
26 21 24 201 207 215 221 -324 0
13 8 11 19 20 -146 166 180 0
71 -33 -37 72 221 -319 435 441 442 448 449 0
63 67 83 -319 381 383 389 391 397 404 414 423 0
-61 381 382 383 389 411 421 423 0
-72 77 435 436 440 441 442 456 0
-198 -18 19 189 193 196 0
55 51 58 371 471 -480 0
-107 11 -14 16 18 -83 -84 -87 -105 187 0
-480 -33 -38 -46 57 -82 -319 342 -471 0
82 -319 -471 0
-313 34 38 246 277 -328 0
51 42 52 -319 354 356 357 0
-173 5 -7 -8 -34 35 42 43 0
-51 52 59 337 340 344 360 375 0
-57 -7 8 15 16 18 25 26 -28 -58 0
-2 -6 -7 -21 28 234 235 382 427 0
-15 8 11 14 46 174 -324 0
-471 8 -39 -82 331 472 0
-252 62 64 -267 411 421 422 0
60 -7 52 55 336 337 338 353 375 0
-61 -7 8 -32 -33 43 -81 382 383 387 411 422 0
-62 -51 -55 67 -81 -82 -319 381 390 395 0
-244 26 -28 30 242 -324 0
-54 58 338 346 360 364 365 371 0
68 43 61 67 390 411 471 0
-63 68 382 390 398 399 401 0
78 73 74 77 -319 434 441 456 0
-78 -12 -18 74 -83 -89 427 434 440 449 0
-60 -12 -18 -83 -90 359 365 374 377 0
56 57 58 59 60 338 345 0
-201 -51 56 -215 -319 337 341 345 0
-104 -53 -54 -81 -83 585 589 599 0
351 42 51 56 57 -59 354 360 0
-177 25 26 27 -173 201 -328 0
241 21 25 26 -46 222 228 242 0
81 4 -5 -7 11 -16 17 90 -173 -480 493 0
-51 336 337 340 342 360 376 377 0
244 -28 29 233 237 -242 0
-183 26 29 30 -173 201 232 0
51 -28 -30 -319 -328 345 360 375 376 377 0
22 -7 21 26 30 218 234 240 -328 0
54 42 51 52 -353 0
-103 3 -5 13 -15 17 -105 -106 336 0
-260 21 23 25 26 207 -273 0
62 8 63 331 387 405 406 411 422 0
55 -42 -46 324 331 341 342 375 0
-12 -5 -7 8 18 -103 -110 0
21 26 84 218 232 233 240 -396 471 0
-15 159 166 174 187 188 -328 0
37 -15 -16 -20 38 -107 -110 0
-25 26 204 219 225 232 233 0
42 71 -73 -74 77 78 319 -443 456 0
-38 35 83 177 252 268 269 282 285 0
73 42 71 -74 -443 0
-55 51 -73 -74 -75 -443 0
-88 -73 -74 -78 -375 0
-285 36 37 -38 277 286 287 0
-162 -51 55 -192 -331 353 0
-38 35 36 260 267 273 285 0
-56 -16 -20 52 -55 58 338 354 360 0
56 -51 52 55 -331 353 357 363 368 0
-28 209 215 228 233 237 240 243 0
-34 35 42 43 -74 -75 282 -319 331 0
236 23 25 -43 201 237 240 -444 0
-58 55 350 357 363 372 375 0
262 31 33 35 252 261 281 282 285 -313 0
11 17 -18 165 166 167 173 174 180 -328 0
-55 -45 51 354 360 -456 0
58 51 55 -82 371 471 0
58 45 51 55 -82 -328 372 471 0
-377 -7 8 25 26 -57 -58 237 0
57 -16 -20 55 58 338 345 0
-57 -52 55 -331 375 0
35 -18 -19 36 40 45 46 282 -331 0
-58 31 35 36 -38 39 40 -52 84 0
-35 26 30 -31 -37 206 215 216 218 243 0
174 14 16 18 -165 -331 0
16 7 15 162 173 192 215 -331 -480 488 0
-65 54 -55 -82 -83 -319 392 -429 0
411 43 61 64 -331 390 395 402 407 0
-51 336 341 342 343 344 353 354 360 0
-18 7 -34 -82 -83 162 173 174 192 215 -331 0
56 58 -313 -331 336 360 0
34 31 -72 -78 252 276 -331 -480 0
51 43 58 -319 -331 345 366 0
-216 25 27 213 215 237 239 242 244 0
-30 25 239 240 242 244 0
208 25 27 213 216 218 237 239 240 244 -331 0
-74 -1 -5 73 78 -82 -84 428 480 0
-341 -1 -5 -7 51 55 -57 337 338 0
51 59 -62 -63 81 83 89 0
54 52 55 58 336 358 359 371 0
57 51 52 55 56 -319 354 372 0
-101 62 63 -83 -319 384 386 563 564 0
15 18 -35 -36 193 194 -331 0
-58 -103 -104 342 350 471 -480 0
52 59 -103 -104 344 -480 -562 0
-36 34 38 250 284 -480 -493 0
278 34 37 -38 81 84 90 250 254 255 284 471 0
37 31 36 38 40 81 84 90 0
-61 -7 -8 -58 -62 69 84 -103 -104 -319 350 383 384 389 471 0
-389 -51 72 73 -319 336 337 338 428 0
-276 34 -38 -150 247 261 262 0
-7 42 -82 105 106 107 -331 -480 0
-143 -5 114 125 132 135 0
-392 -51 -55 -62 63 68 -72 73 78 -319 -331 461 0
15 -37 -38 45 46 160 168 181 192 196 197 0
55 42 43 -331 340 345 350 357 375 0
12 13 14 16 -37 -38 46 -331 0
-162 8 -11 18 -42 195 -488 0
-282 55 -267 -331 -345 354 -473 0
61 43 -319 -331 390 391 395 402 411 0
-38 -15 -136 -285 -331 0
62 -18 -20 63 64 -319 -331 411 0
480 7 34 -472 0
-472 7 34 38 270 271 -331 0
-51 56 -331 336 337 338 339 0
141 -5 -147 -331 0
31 34 35 255 282 285 -331 0
-62 63 -82 -87 192 -331 381 391 411 0
14 18 167 168 174 175 186 -331 0
38 34 249 250 255 276 -331 0
-62 42 81 -331 381 390 395 411 0
-65 -53 -55 61 62 -83 -84 399 0
-72 426 435 436 440 456 457 461 0
-15 11 -64 -66 180 -488 0
38 7 -11 -16 34 -313 -331 0
250 35 38 -246 -313 -331 0
215 13 -18 -82 -83 159 183 192 195 0
36 38 249 257 281 -313 -331 0
18 -4 -6 11 16 182 -331 -488 0
28 21 26 46 205 211 213 219 226 -331 0
26 28 218 -246 -249 -331 0
-129 -84 87 -135 -142 0
64 -11 16 18 34 35 38 62 63 161 255 281 0
-350 -28 207 228 233 240 -348 0
-38 6 34 36 46 -81 -84 132 255 0
258 33 34 -36 -246 277 278 -331 0
-66 -15 18 -64 160 180 -331 -488 0
-16 -7 14 -15 82 85 160 -331 0
159 -15 16 -82 -85 -331 -395 -488 0
-276 -4 -34 38 -331 0
-313 -4 -246 -331 -488 0
-247 42 -246 313 0
-489 85 86 -488 502 503 0
-109 103 106 -146 561 594 601 603 0
-109 -8 -35 -36 103 -146 561 594 601 603 0
-26 23 -25 34 38 226 236 247 255 281 -331 0
-35 34 36 249 255 279 280 285 0
-599 11 -15 16 26 27 28 165 180 187 0
599 103 104 -106 109 -136 -146 561 0
5 -4 -246 -331 -488 0
-58 -18 -20 54 57 336 354 372 0
598 7 103 104 105 -106 561 604 0
-395 11 15 -18 181 -331 -480 -488 0
-15 -102 -106 186 187 188 189 352 0
186 -5 -7 -15 85 87 180 188 -331 -488 0
107 103 104 106 561 594 604 0
103 -4 34 104 -246 -331 -488 0
7 34 -103 471 -488 0
-480 -4 34 104 105 -246 -331 -488 0
-57 54 -331 345 347 354 375 0
-74 72 428 443 454 455 0
65 62 64 66 67 382 0
-496 1 -5 7 82 -270 0
-74 1 4 7 72 82 432 450 0
429 73 74 -75 76 77 440 0
-492 14 -18 19 20 162 183 192 -488 0
82 7 -56 -58 -331 0
-38 15 -18 -31 -34 192 -331 -350 0
-337 51 59 60 -82 336 -471 0
-106 -471 591 596 597 598 599 0
-104 106 108 110 563 571 578 601 0
12 -15 16 159 177 180 -331 0
-386 -61 64 -331 381 401 0
-84 -55 -83 -319 -331 -360 -480 0
-38 -6 -109 -110 278 282 289 0
-58 -68 -70 342 346 357 379 0
-34 -6 -7 -8 42 43 270 -495 0
55 -319 -331 336 337 345 372 0
-282 55 -252 -331 345 346 353 0
372 55 -101 -102 -331 -480 -488 0
-102 -101 -105 -331 372 -480 -488 0
62 -313 -331 383 387 398 408 411 0
-8 -6 101 103 104 105 107 -331 0
-313 -4 34 38 276 -331 -488 0
-480 -74 -77 -331 -488 0
109 7 102 103 104 106 566 604 0
25 23 26 201 228 -331 0
276 31 34 38 -313 -331 0
-85 -55 -81 -345 -488 0
32 34 38 247 249 -313 -331 0
36 34 38 249 277 -313 -331 0
348 42 82 -85 -331 350 372 -488 0
12 16 17 159 174 198 199 -331 0
-340 -31 249 -331 -372 0
-313 34 38 247 249 258 277 -331 0
-38 34 82 222 252 278 282 285 0
-32 -15 -16 -22 -26 258 260 -331 0
213 -26 205 220 231 237 241 242 0
38 -22 -25 -26 34 247 258 -331 0
34 -74 -77 -331 -488 0
-6 -5 -8 -16 -34 82 0
105 5 82 103 -331 561 573 574 575 576 578 596 0
108 105 562 563 573 574 578 596 605 0
-389 24 25 26 27 -42 -71 76 78 426 427 457 0
-16 25 38 -74 -77 -331 -488 0
-61 -7 -8 -11 -18 -51 -56 141 384 0
-4 -7 46 72 73 -75 -331 0
-319 72 73 75 426 432 461 0
-38 -25 -35 -54 -58 201 232 -328 -495 0
-75 45 46 71 72 74 -227 0
62 -54 -56 57 63 276 -319 -387 395 420 423 424 0
-18 -6 -56 -57 -82 -83 162 173 192 215 -324 0
17 11 18 168 173 186 -324 0
-7 131 137 -480 -492 0
51 52 54 57 58 354 0
345 -8 -31 -46 58 147 249 250 -319 336 337 347 354 0
107 -8 46 102 105 147 578 599 0
-104 11 -14 15 16 -20 -105 195 -488 0
16 -17 18 45 -142 -191 0
-176 -84 85 86 -191 0
-82 51 -102 -105 371 372 375 -488 0
-106 6 82 85 -102 -105 -107 0
-55 -84 -85 -101 -104 -480 0
-17 -8 11 -237 -488 0
587 -5 -7 46 -104 105 571 578 597 598 603 0
-30 26 28 217 224 230 232 0
20 11 -15 -16 17 18 19 -84 -480 0
-104 105 107 571 578 586 603 604 0
-102 -82 -85 -101 -331 372 -488 0
-61 -331 381 382 383 384 387 420 0
-38 34 222 246 278 282 285 -488 0
247 34 246 255 276 278 282 285 286 287 0
-4 6 11 -14 15 -16 17 18 -83 87 136 480 0
106 4 6 46 82 85 87 101 105 -488 601 0
-207 6 -8 -81 85 87 0
-34 38 42 43 46 -173 271 -331 0
51 53 54 -331 348 350 0
-87 11 -14 15 16 -105 -107 195 -488 0
107 2 -5 -7 103 -104 -105 109 110 122 563 597 598 603 0
110 106 107 108 109 570 571 578 0
-104 11 -14 16 17 18 -20 -105 -488 0
-51 -101 -103 -328 336 337 339 354 375 -488 0
-106 -13 -14 -25 -105 201 231 232 233 0
27 24 25 28 213 220 226 0
-107 11 -14 16 -87 -105 187 188 195 -488 0
-64 -5 11 16 17 -82 -87 -142 -143 282 -331 -488 0
11 -8 -237 -488 0
-38 -7 82 247 260 278 282 -331 0
34 -8 -26 -28 31 38 255 -331 0
-205 55 -237 -319 -331 345 0
438 71 -72 -319 426 440 444 446 457 0
65 64 66 68 -331 382 0
101 -7 102 106 109 574 578 581 587 603 604 0
42 52 82 -331 372 -488 -495 0
-267 62 64 -247 -331 411 0
-85 4 6 46 101 -105 -480 -488 0
-586 4 -5 16 17 18 180 336 0
252 34 37 -38 -250 255 278 0
-5 -73 -74 -76 135 0
-43 -12 -14 -34 37 38 276 0
62 61 64 67 399 400 406 0
-26 22 25 205 220 226 0
11 165 166 173 186 188 192 -331 0
51 346 353 360 371 372 375 -480 -489 0
-201 25 28 213 214 218 236 237 -324 0
-13 -7 -16 -17 24 25 201 237 0
-105 -8 -45 564 572 579 585 603 0
-106 105 331 565 570 586 597 598 0
109 105 106 108 110 570 571 578 600 0
104 -5 -7 -8 46 105 570 574 581 603 0
7 -142 -336 -480 -488 0
-26 23 24 27 205 213 0
-352 21 23 24 26 27 -336 488 0
-11 -8 -38 159 160 -331 0
40 7 -9 31 37 252 255 270 271 274 276 0
177 11 12 15 16 -331 0
-51 57 336 340 342 358 359 360 0
23 24 25 29 213 240 244 -331 0
-64 11 -14 15 16 -65 195 -488 0
74 -5 7 -24 -25 -42 73 432 456 0
-17 7 11 14 -15 176 -488 489 0
-195 11 -14 15 16 162 166 -183 -331 0
-71 -54 -55 -61 -64 74 77 78 430 0
-374 -5 7 11 14 15 -16 17 147 165 0
30 23 27 29 201 225 226 -331 0
-37 8 -38 46 -136 160 165 -331 0
-74 -42 -383 -387 443 452 456 0
-54 -35 -36 -42 51 360 375 406 0
16 11 15 166 177 188 -331 0
162 15 16 -54 -55 -331 -488 -498 0
213 -26 205 -215 218 231 -331 0
-68 -38 -40 64 387 390 0
-63 65 -319 -331 387 390 400 0
62 63 65 -319 -331 387 0
58 51 55 56 -319 345 0
36 38 246 270 -313 -331 0
61 62 65 68 -319 -331 0
-16 11 166 175 186 193 194 195 0
-260 51 -52 57 -282 -319 345 0
63 62 -319 -331 384 385 0
-26 -37 -38 46 201 220 226 -285 -331 0
-74 2 4 -5 -82 -84 432 436 443 450 452 0
62 82 -87 147 282 -313 -331 411 0
-328 -7 -34 -331 -444 0
405 62 -64 66 -313 -331 387 0
66 62 64 67 68 83 386 387 403 471 0
-64 61 313 -319 -331 387 395 398 411 0
-62 43 61 -201 -319 -331 337 342 372 393 395 411 0
-105 3 -7 561 563 571 579 592 595 597 598 603 0
-602 -11 13 -15 17 18 25 27 28 156 158 -186 -331 0
-105 3 -7 -471 563 571 580 582 592 594 595 597 598 603 0
-591 -34 37 39 42 43 271 586 0
102 -6 82 107 109 110 494 499 563 565 580 586 604 0
51 52 -313 -331 346 360 363 0
-482 -313 -331 340 342 372 -481 0
-374 -6 8 15 18 25 -26 28 -331 0
-1 7 -82 83 -84 -313 -384 -387 0
-381 -313 -331 384 387 393 405 406 0
-135 72 74 -141 -313 432 0
78 7 72 -313 428 456 457 0
-393 3 4 -5 -390 0
-487 25 26 -30 218 240 -471 0
56 54 57 336 337 354 357 368 0
63 -319 -331 381 384 387 392 395 0
-225 73 78 -231 -319 426 0
107 101 102 103 108 109 585 604 0
56 55 57 -319 336 337 345 362 0
-105 102 106 550 564 579 592 603 0
-75 42 43 45 46 73 -137 426 0
-58 -38 -40 54 -471 -480 0
105 -7 106 107 -331 -471 -480 0
-477 105 106 107 -472 -480 605 0
-75 -5 -6 -34 -35 -319 426 444 456 458 0
-63 -319 -331 -472 -480 0
-252 -58 63 -68 -319 -480 0
31 32 33 36 45 46 270 0
-252 31 34 -38 246 247 0
81 34 -39 84 90 253 0
63 66 -319 381 384 392 420 0
18 -7 8 20 187 -377 0
-379 -68 -365 387 395 423 0
-336 25 26 27 -215 -344 488 0
-328 52 -319 336 337 339 345 354 375 0
25 8 26 -46 236 -237 238 241 242 0
-342 -61 62 67 72 73 -319 382 0
-25 7 -8 -34 201 219 -324 0
375 52 55 -58 -319 -328 337 345 0
-25 5 8 -55 207 212 336 337 345 0
-6 -5 -7 -8 -16 331 0
-141 -7 -16 331 0
-63 -55 62 66 -81 -83 -319 347 382 420 0
102 -7 -8 101 103 104 -105 331 0
17 12 15 -18 25 27 -46 162 166 201 0
-56 5 -31 32 33 34 35 -51 0
-24 -6 -7 8 -26 -34 35 0
-15 11 167 174 180 0
-169 4 7 86 -191 -480 489 0
55 54 56 57 337 345 351 352 372 0
28 23 24 201 206 214 -328 0
-8 -11 -18 -25 -28 -34 42 -83 480 0
5 -7 45 105 331 -488 561 586 0
-102 2 5 -104 -105 106 110 131 561 589 0
106 5 -46 104 105 561 0
108 103 106 107 109 110 561 0
-103 104 105 110 570 581 583 597 0
-104 11 16 17 -103 -105 189 190 0
-103 11 15 19 20 -104 -105 191 0
108 -46 104 105 109 561 596 599 0
108 103 105 106 109 561 602 0
-480 -11 -18 -328 471 0
-110 -5 -7 8 11 15 16 -17 18 -103 -105 149 0
-586 -15 16 17 24 -25 27 162 173 180 204 345 0
-313 -33 35 38 -328 0
-30 -5 -18 -25 -28 45 192 195 0
-25 -34 38 -328 -336 -341 0
-240 25 26 27 206 214 218 0
-387 25 -28 84 -156 218 237 240 0
-110 6 8 -17 -109 161 165 182 -195 0
-127 -5 -7 8 -12 16 18 122 0
-342 25 26 -28 218 -336 -341 0
-579 11 15 17 173 -328 -585 0
-78 -17 -18 73 -319 432 485 0
-563 -51 56 82 337 371 372 375 -585 0
-65 -313 384 392 405 0
-103 -5 -7 -12 -15 105 562 581 583 0
-103 105 562 570 578 581 597 0
-374 -11 15 -16 18 -21 25 26 28 -371 0
-497 11 14 -16 -488 0
-87 11 14 -16 -83 -84 0
188 15 -16 -186 -324 0
13 11 12 17 18 331 0
193 -16 18 186 191 194 0
181 11 12 -16 17 -173 0
132 4 -8 -31 -38 -81 0
250 32 34 35 37 -313 0
132 -31 -38 42 480 -488 0
45 15 17 -36 -38 331 0
481 -11 17 -18 33 35 -36 -38 -46 0
-453 -34 -35 -36 -38 -84 88 0
277 33 34 36 39 40 246 0
-79 35 37 -38 -78 282 0
254 35 36 37 39 262 269 0
350 -38 -40 -58 342 353 0
273 -38 252 260 267 0
-90 51 -60 -82 -83 0
-353 51 52 -59 0
53 51 52 -353 0
379 51 52 56 -60 -375 0
-404 51 52 54 472 481 0
354 51 52 56 57 353 360 0
231 51 52 57 58 -63 -66 360 0
-225 -45 51 52 353 371 372 375 0
-79 51 -59 -72 -73 0
356 51 59 60 345 349 360 372 0
379 51 59 350 352 353 354 360 371 0
365 51 53 59 346 352 0
-471 -480 -488 0
170 -22 -28 -84 -480 0
497 -84 85 88 496 0
86 4 5 -84 85 -480 0
343 -59 -480 -486 0
587 7 106 331 -471 -480 -492 585 0
587 105 106 -471 -480 -492 605 0
592 106 -471 -480 -492 585 587 605 0
491 4 6 -480 -481 489 0
493 90 -473 -480 0
234 -8 21 25 -36 -37 213 214 215 218 235 237 0
-19 -4 -18 -24 25 26 27 -28 0
-20 -4 -18 -24 25 26 -28 0
308 21 22 25 26 29 30 -33 -34 0
-254 -21 25 27 72 73 74 207 0
-389 -21 25 27 72 73 74 207 0
-434 -21 25 27 62 63 64 207 0
208 23 24 25 -26 27 213 239 0
238 25 26 27 -237 239 0
222 21 24 -28 215 240 0
-163 -21 25 26 27 62 63 64 0
-168 25 27 -28 -81 84 -147 218 0
229 25 27 28 30 201 220 0
216 25 26 28 30 206 218 0
206 22 23 25 28 29 30 0
217 21 25 28 216 218 236 0
222 -12 -17 21 24 25 26 201 240 435 0
242 21 23 24 25 26 29 0
211 21 25 27 215 218 220 237 0
213 25 29 205 226 240 242 244 0
219 24 -25 201 -324 0
269 -8 -27 -28 -33 268 0
29 6 -8 30 -35 -36 0
164 -8 -11 -51 -56 -57 189 0
428 -4 7 -8 -71 72 -81 84 0
596 101 103 -106 573 586 598 604 0
2 4 -8 101 103 105 106 107 -109 0
599 -25 -26 -106 561 562 570 586 598 0
241 22 23 24 -25 28 231 242 0
211 21 23 -25 28 214 227 231 0
217 24 26 28 -201 206 216 221 0
208 -25 209 216 217 218 231 232 233 0
183 11 16 17 -488 -496 0
167 11 -15 -165 180 0
159 -15 16 18 174 180 187 0
88 7 14 -15 16 17 18 -83 480 495 0
580 -106 -426 -431 586 591 597 605 0
566 -106 561 562 570 574 581 586 591 597 605 0
566 -106 562 563 573 578 581 587 591 597 605 0
-449 71 -72 73 84 436 471 0
-474 73 74 -75 -471 0
439 73 74 429 430 432 440 456 461 0
600 101 -104 105 106 109 110 601 0
571 -46 103 105 106 -107 108 109 0
601 101 103 104 105 106 0
603 103 105 106 107 110 561 0
600 105 106 109 110 561 578 0
574 104 105 106 570 581 603 604 0
575 104 105 106 107 570 582 605 0
590 105 106 108 561 570 581 589 602 0
582 104 105 106 561 570 601 602 603 0
596 101 102 104 105 110 597 0
562 104 105 109 110 561 570 0
597 101 102 103 105 107 605 0
563 102 103 105 107 109 604 0
596 105 110 561 578 597 598 600 601 603 0
597 -104 107 109 110 563 571 578 0
415 -46 -107 570 587 596 600 601 0
555 -67 70 -77 -79 381 383 391 401 0
-354 23 27 -43 201 231 233 237 0
70 67 68 69 381 383 411 0
93 92 94 516 546 547 549 551 552 555 595 0
218 -5 -7 -8 -11 -18 26 28 -42 0
342 -6 -7 -11 -17 -42 55 -328 0
267 -5 -7 -24 -25 -38 -42 252 -328 0
24 21 25 27 -42 -328 0
-81 -8 -51 -58 143 474 0
62 67 -319 384 386 387 400 411 413 0
-189 26 27 28 33 34 38 246 281 0
19 11 12 16 17 20 26 28 29 195 201 231 242 0
411 63 386 387 389 390 391 396 397 409 422 423 424 0
-33 38 -63 -64 220 281 -313 -331 0
393 -62 63 68 -319 -331 384 387 0
-354 62 68 -319 -331 -339 420 0
393 -62 -319 -331 384 390 395 0
-342 62 -68 -319 -337 0
61 31 32 34 38 62 64 84 472 0
-217 -72 84 429 436 440 461 471 0
33 31 34 38 258 -331 0
63 -5 -8 62 -81 83 85 141 -319 383 384 421 422 0
-63 -55 84 -313 400 420 0
-63 -5 84 -87 237 -313 401 0
-58 -51 52 53 54 62 67 -68 69 399 406 0
-62 -331 384 391 393 395 399 401 0
-354 52 53 -55 56 57 58 -313 0
-391 42 43 -62 82 405 406 420 0
-62 -331 381 390 391 393 396 415 0
-73 3 4 -5 51 -55 -82 84 240 -319 427 0
-106 -12 -14 -83 -86 573 580 586 601 603 0
-59 32 33 34 -36 38 -56 0
63 15 16 17 -56 -60 62 64 -319 -331 383 411 415 596 0
-64 2 4 -52 -55 62 -82 83 -84 -319 -331 383 0
73 -319 430 431 432 437 440 461 0
-52 51 -55 -62 186 -313 -331 346 381 391 0
-72 73 -319 426 439 440 456 0
-64 51 -54 63 276 -319 362 363 381 405 420 0
-62 -313 -331 391 392 393 395 399 401 0
-104 561 578 585 586 587 589 604 0
53 51 52 -54 62 63 67 68 -82 83 -84 387 411 471 0
-251 -35 37 -249 278 281 -331 0
-62 61 -313 -331 391 395 411 0
-73 51 -55 84 240 -319 427 445 490 0
-395 25 26 27 218 -381 0
-68 15 16 17 63 387 391 424 0
-22 -16 -18 -28 51 -52 53 54 -331 0
-109 -7 -8 -25 -27 105 570 589 601 0
-31 -8 -11 16 -35 -36 0
-73 -33 38 51 -54 84 266 276 427 471 0
-23 -25 31 34 -35 -52 -54 353 0
-62 390 392 394 395 396 397 406 0
31 34 36 38 255 -331 0
-72 -6 -7 74 386 435 437 438 440 0
-68 15 16 17 -52 -54 387 390 424 0
31 34 -35 36 38 266 -313 -331 0
-313 51 52 -319 0
-63 -52 -55 -82 -83 382 390 398 400 420 0
105 -5 6 -7 -8 46 -480 -491 571 578 587 0
61 51 52 53 62 63 83 471 0
-68 -1 -8 15 16 17 -18 -61 62 63 64 -82 488 0
31 34 35 38 -150 255 -331 0
246 34 35 38 -313 -331 0
-480 34 35 38 -331 -471 0
-68 25 26 27 86 88 -255 282 387 424 495 0
-413 62 -68 -319 384 399 0
31 34 35 38 -313 -331 0
63 -61 62 65 68 -319 -331 0
32 34 35 38 247 -331 0
395 51 -52 54 -61 -62 67 70 345 384 390 406 488 0
61 -52 -55 62 68 -319 -331 -480 0
61 45 46 51 -54 62 276 -313 346 405 0
-192 -8 -82 125 138 -250 -319 480 0
33 6 32 34 35 38 -331 0
-58 25 26 27 51 52 345 346 353 379 0
-58 25 26 27 342 350 353 379 0
-599 26 27 28 -53 -60 -331 584 0
-135 6 -16 -25 28 -83 201 231 -331 -488 489 0
281 34 35 38 40 84 90 471 0
-342 -5 74 -313 -339 341 436 438 439 0
250 34 35 38 46 259 -313 -324 0
-62 15 16 17 -319 381 383 390 391 393 394 397 0
-592 -8 -45 -105 566 574 579 587 603 0
-59 25 26 28 51 58 -82 373 471 0
-71 -2 -5 -7 206 341 426 429 432 452 0
471 -11 -18 -82 -319 331 0
-135 -45 52 53 54 -55 0
-411 62 -313 383 384 405 420 0
62 -18 -20 63 67 408 409 410 411 421 0
54 51 -313 348 349 350 0
387 62 -313 386 389 399 400 401 409 411 422 424 0
-255 8 51 -55 -260 -269 -319 360 0
64 -18 -20 62 63 389 411 421 0
-25 -7 8 21 22 218 234 235 237 0
432 3 4 -52 -55 72 73 84 142 -319 438 439 440 456 457 0
52 -25 -45 51 -55 201 353 358 359 0
-390 51 -55 61 62 -319 393 420 0
-228 5 -8 11 16 17 -82 -84 85 -480 0
228 22 25 26 27 -28 -218 0
-447 -73 74 432 435 468 469 0
84 34 36 37 38 -81 0
-20 -16 -18 43 51 52 54 57 -319 -331 345 360 0
-62 -319 -331 381 393 395 398 399 0
225 26 28 201 -218 240 -331 0
-183 11 16 -18 166 173 180 -331 0
-228 1 -8 15 -18 192 195 -218 0
-58 -16 -18 -52 -82 88 188 482 488 0
105 4 6 -8 46 82 85 87 331 561 562 563 573 598 601 0
12 11 16 17 173 189 -324 0
-25 5 -6 -7 8 11 17 -18 26 -28 -218 480 0
-225 -45 51 -55 345 360 0
53 -32 35 38 51 54 -82 281 -313 471 480 0
-84 5 11 16 17 18 -331 -480 0
-106 -8 -35 -36 570 586 591 596 599 0
84 4 -7 -12 -13 86 142 489 0
63 62 -319 -331 387 411 0
52 -55 -58 61 62 -319 -331 339 383 391 0
58 -31 -36 -51 52 53 57 86 88 -331 480 0
-74 6 -31 -37 51 -55 -82 122 131 135 -313 480 0
-64 2 -5 -55 62 67 -82 -84 -87 135 282 -313 386 0
-222 -8 11 16 17 18 84 -233 0
-106 -35 -36 561 580 586 596 598 599 0
-58 -28 -30 51 -55 57 345 360 365 0
276 32 34 38 -313 -331 0
-5 1 -7 -15 16 18 82 85 87 0
-599 16 18 -35 187 196 197 249 255 270 278 0
-228 3 -8 -81 -82 125 -158 0
-370 45 46 -105 106 107 109 -471 0
-354 -55 -313 337 345 360 0
21 24 25 26 -32 -33 165 218 -331 0
-180 14 16 18 166 173 -331 0
-19 14 16 17 18 83 90 -102 -110 171 -471 0
-14 16 18 184 185 187 0
110 1 -6 -7 -8 101 -103 -104 -105 106 -471 562 570 0
-25 -12 -15 26 204 219 225 345 0
12 14 16 17 18 -31 -32 112 0
-360 -55 -319 338 346 354 0
-491 105 106 -107 110 -472 -480 603 0
87 6 -7 -15 16 18 82 85 336 0
102 -5 -7 -8 46 101 103 104 106 0
-599 16 18 -35 187 196 197 276 277 278 0
-167 26 27 -28 -81 -83 84 -143 218 0
-85 51 -55 -81 -102 -103 -319 -331 355 -471 480 488 0
-12 -5 -7 -15 -83 87 -180 481 0
-284 35 38 -104 -107 -331 410 0
411 62 -319 -331 387 399 400 420 0
-23 25 26 27 -103 -104 223 269 0
215 25 26 27 -201 218 0
-68 62 64 -83 -87 237 383 387 398 0
-20 15 18 -22 -30 179 185 191 195 570 0
-36 34 250 255 282 283 284 0
-159 -31 38 -186 282 -331 0
27 26 28 217 224 230 234 -331 0
-110 26 28 46 -103 -106 -331 359 0
-62 51 -58 83 -313 -331 381 393 0
-63 -82 -83 -102 -104 382 403 404 0
61 -319 -331 387 413 -480 -490 0
-61 5 -6 -8 382 385 392 405 431 476 0
-30 -28 52 54 -55 -58 354 0
-216 31 34 38 83 255 473 0
-59 26 27 -28 -58 207 212 218 231 0
-602 -16 18 35 37 38 186 191 0
-107 15 18 -103 -105 160 -331 0
-107 11 -15 -16 -103 -105 480 495 0
-35 -15 -16 38 -45 0
-23 -7 -8 26 -104 -109 -324 0
-102 -55 -82 -101 -105 -319 0
23 24 26 201 240 -324 0
11 12 14 17 18 -324 0
-14 -6 -7 -16 103 104 -105 106 109 561 0
-14 5 -6 -7 -8 -16 103 104 -105 110 561 599 0
-132 -8 102 103 -104 105 106 -107 110 0
-57 -7 -81 -331 341 0
-15 11 -16 17 18 84 174 189 194 0
27 25 26 81 84 -103 -109 -324 494 0
87 4 6 -7 83 85 -103 -104 -481 0
-35 -7 -16 -45 -142 0
381 25 26 27 -57 -59 63 70 383 391 414 0
-456 -43 -45 52 -55 338 0
-51 -5 -8 52 338 340 341 358 359 475 0
-85 -55 -82 -103 -104 -319 -471 0
35 34 38 250 285 -313 -331 0
51 54 -55 57 346 348 350 354 358 359 0
-15 -11 -16 34 38 255 -331 0
-107 11 15 -16 17 18 -103 -105 -331 0
35 34 38 -150 250 255 -331 0
-59 15 17 18 25 26 27 -55 339 345 364 376 0
52 -33 -36 51 -84 -87 -353 358 359 0
-15 -16 18 167 175 180 -324 0
-37 -7 -8 -36 103 104 -105 106 -107 110 561 0
382 -28 -30 62 -319 -331 383 398 411 0
51 25 26 27 54 60 345 360 373 376 0
-591 103 104 -105 106 110 561 597 598 0
-110 -43 -55 59 -105 -471 -481 0
-225 -5 16 17 18 -218 336 0
228 26 29 30 201 -218 232 0
51 -28 35 37 38 54 60 233 237 240 345 364 376 0
-25 26 204 212 219 225 0
-6 4 -5 14 16 17 18 -82 -84 86 -87 0
-12 -6 -7 -16 -83 85 86 471 0
-480 34 37 39 40 282 -471 0
-15 -6 -8 -16 103 104 -106 110 561 0
31 34 38 -150 257 -313 -331 0
-59 15 17 18 25 26 27 51 52 57 0
-106 4 -5 -7 -12 -16 -82 83 -84 85 -107 0
-25 -7 -8 -15 16 18 26 -45 0
-11 -6 -7 -15 -17 -31 38 0
28 -12 -17 25 26 206 218 435 0
313 2 -8 25 26 27 83 -84 162 -218 0
110 -81 82 88 102 103 104 -105 109 -472 475 597 0
29 -12 15 16 18 25 26 27 171 206 209 218 240 570 0
-25 -12 -13 26 204 225 232 233 255 0
-480 -5 -11 25 -84 331 0
-108 13 16 -17 18 -103 -105 -324 0
-24 2 -5 -23 83 -84 88 -105 -107 0
-4 -5 -45 53 -55 346 0
102 -5 -7 -8 -45 -55 -81 82 103 104 -105 -107 331 562 0
-313 34 35 38 -247 281 0
-25 5 8 11 15 16 -18 165 183 0
-13 -12 -83 84 85 88 -104 -106 -107 0
-14 -7 8 -17 18 -24 25 26 187 191 0
313 -24 -25 42 -45 -55 336 0
-370 -55 344 352 359 365 0
106 -7 46 63 -83 103 104 105 -319 0
106 8 -55 -81 -83 103 104 -105 109 110 -319 600 602 0
-68 -54 -58 -82 -84 387 403 404 0
411 -54 -58 -82 -84 -313 -331 381 383 387 391 401 0
-359 31 32 34 38 472 481 0
53 -51 52 -54 55 57 -313 -337 362 372 0
32 34 38 247 250 265 -331 0
-58 -51 -53 -68 -319 -480 0
-68 -87 -319 -372 387 -480 0
-1 -8 -18 -19 -58 -60 -82 162 488 0
54 -25 51 53 55 -58 375 0
-209 -31 35 -61 63 68 281 282 285 381 386 405 421 0
-58 25 26 27 52 55 353 372 375 379 0
-20 -18 53 55 57 -58 337 346 372 0
-218 21 25 26 28 -84 86 87 480 0
19 3 -5 -7 11 13 15 -16 17 20 -480 0
426 -53 -58 76 84 -319 -337 -342 430 438 457 0
457 -51 -53 76 78 -319 -342 426 430 438 -481 0
63 -54 -56 62 276 -319 388 389 405 420 0
-62 63 381 393 396 397 405 420 0
-35 34 38 246 264 -324 0
-62 -22 25 26 28 63 381 391 471 488 0
-72 -32 35 38 -53 -54 -82 259 -313 426 471 480 488 0
53 51 -56 -58 59 -319 331 342 346 0
247 34 35 38 246 255 -331 0
73 25 26 -28 74 76 78 80 218 240 441 457 0
-67 -62 -72 76 191 -319 432 435 437 0
62 69 383 389 399 400 410 420 0
-342 25 26 27 -28 216 229 -344 0
-287 15 16 18 25 26 28 -324 0
23 22 26 27 28 209 229 0
-89 -8 -28 -29 -82 -83 -218 -228 0
-64 -12 -14 -16 -53 -54 -56 62 276 -313 -331 408 0
-13 2 -5 -7 -14 -16 -82 480 0
56 51 52 55 -319 375 0
52 -12 -15 -45 51 -319 353 0
56 -12 -15 -45 51 55 346 375 0
-173 -84 86 88 -181 0
53 51 55 57 -319 350 0
53 51 55 -319 348 375 0
35 34 38 247 258 260 -331 0
-59 -58 63 64 -68 381 382 411 421 0
-392 -54 -58 73 -82 -84 -313 -381 428 432 450 461 0
28 26 46 204 212 219 -331 0
61 -28 -30 63 -331 390 391 398 411 0
-233 25 26 204 212 225 -331 0
-63 62 -313 381 387 398 400 401 0
-218 72 73 -74 76 -84 432 496 498 0
-217 31 33 35 37 38 42 81 480 0
63 -34 -36 -54 -56 62 67 69 276 -313 389 420 0
-206 25 26 28 208 209 -324 0
-216 35 37 38 83 250 -313 473 0
432 -5 -7 -54 -57 72 73 341 450 452 457 0
15 14 17 18 -61 63 64 72 73 74 165 381 0
281 31 -34 35 38 261 262 -313 -324 0
-52 51 55 59 345 349 350 365 0
411 -61 381 386 387 389 396 398 403 409 0
375 51 55 56 471 -480 0
5 -8 42 51 55 -336 375 0
72 -5 6 74 -313 341 428 431 432 444 0
-74 72 443 452 453 454 455 456 0
58 -1 -5 -45 51 55 -319 371 0
14 11 12 -18 24 -28 -82 233 237 240 480 0
-31 35 38 251 253 284 0
-72 -313 426 436 438 439 440 0
-74 72 73 78 434 452 454 456 469 0
-73 -53 -57 232 -313 443 444 446 0
-72 51 -53 59 -73 359 0
-162 25 26 27 -28 -164 216 229 0
110 103 108 109 -473 -481 -496 561 0
-109 -7 -8 51 55 -107 -313 346 375 0
-24 25 26 -43 -83 -85 0
-348 31 33 35 38 255 270 -371 0
12 11 17 18 173 -324 0
-60 51 53 55 -56 -319 331 345 377 0
-579 -480 483 492 -592 0
-353 11 15 16 18 -360 0
-107 4 -6 -103 -104 115 0
107 102 103 108 109 563 599 0
-102 105 106 110 561 574 575 0
-60 51 55 -58 345 365 374 377 0
-106 104 105 573 580 598 0
-59 8 51 55 346 358 0
-60 51 55 -58 346 359 374 377 0
61 8 68 331 390 393 400 405 409 410 411 422 0
-74 73 88 428 436 450 453 480 495 0
-588 16 18 182 -324 -578 0
-19 -12 -18 25 -29 -162 218 236 243 525 0
71 -37 -40 72 73 436 441 454 588 0
-63 -24 -26 -28 310 400 401 491 0
572 -105 -561 581 582 585 594 595 0
-110 -45 105 561 578 602 604 0
-107 105 571 581 596 600 601 602 0
53 -18 -20 51 59 346 374 377 0
-107 11 -16 -104 -105 168 0
-63 -21 -26 123 -313 391 399 400 420 0
451 72 -313 431 432 436 444 445 450 452 456 457 0
82 -8 11 -26 38 331 0
-72 -1 -7 161 -313 427 436 438 439 440 0
104 74 101 102 108 109 110 426 432 439 440 444 446 456 457 582 0
-20 -18 74 -78 427 432 435 443 444 461 0
-216 51 -52 54 84 345 471 0
24 21 23 25 26 240 0
24 23 25 26 28 216 217 240 -324 0
21 23 24 25 28 30 216 0
386 2 -5 62 68 -82 -84 135 -313 405 411 0
28 23 24 25 27 216 217 0
-85 -43 -55 84 -105 109 -472 -480 0
-63 3 4 -5 51 -55 -82 -319 382 420 -480 481 0
104 106 108 110 561 581 583 601 0
104 102 106 108 110 562 570 601 0
104 102 106 107 108 110 570 583 0
-23 26 221 222 -324 0
-456 -43 -45 51 -55 346 0
-63 -28 -29 -43 62 386 400 405 0
-68 -28 -30 63 387 391 0
392 -62 385 394 395 398 400 406 0
52 8 51 353 354 363 374 377 0
14 8 11 13 16 20 -146 196 -324 0
-106 -480 -490 565 591 598 599 0
109 -104 105 108 -471 -480 587 599 600 0
-218 -25 -45 51 -55 201 345 0
-74 -1 51 -55 72 -82 83 -84 -313 432 452 0
-78 -28 -29 -43 426 453 468 469 0
-72 -32 35 38 -82 259 426 435 436 471 480 488 0
-592 15 17 18 -160 175 -324 -579 0
-397 25 26 27 -215 471 488 0
-40 38 254 262 277 284 -313 0
-73 -313 427 435 444 445 446 0
-14 -12 -16 -34 -43 -45 0
498 63 -66 -101 -104 471 472 480 495 497 0
-61 64 382 384 388 389 393 420 0
-35 -34 -43 -45 51 -55 -84 0
22 21 23 25 -26 28 -34 -45 0
-181 -34 35 38 -191 0
-14 -16 -20 -34 -107 -110 -142 -150 0
52 -12 -15 -45 51 54 -319 0
-106 4 -5 -7 -82 83 -84 85 -103 -107 0
40 35 38 81 84 90 281 -472 0
-71 -3 -7 76 251 -313 426 429 431 0
319 42 84 104 -105 106 107 108 109 230 0
229 -24 25 26 225 230 240 0
81 21 25 26 71 -72 74 84 218 240 426 436 0
-62 43 64 383 390 392 393 396 397 420 0
-26 205 220 226 233 238 239 240 0
-62 -11 -16 -43 81 -82 -102 -103 115 0
-570 -102 103 104 105 581 582 598 599 0
-21 -6 -7 -8 -28 -51 55 0
-106 -6 -25 -26 104 105 570 599 0
-106 -51 53 55 -56 58 59 -101 145 346 0
52 -18 -20 53 54 56 60 354 375 376 0
87 -55 86 88 89 343 347 354 480 0
61 -43 81 -82 -102 -103 -313 405 406 420 0
57 15 16 -18 53 55 56 60 195 346 0
-73 71 74 435 446 447 456 0
-218 -23 24 25 26 201 203 211 232 240 0
-471 -45 -51 -82 337 371 372 375 472 546 591 0
63 62 69 70 384 385 389 420 0
-107 11 17 18 -103 -105 186 -324 0
-505 102 103 104 -105 -107 108 331 601 0
-28 21 26 215 222 240 -324 0
-471 2 4 -5 -7 -84 474 476 -481 0
340 -51 54 -313 339 341 347 350 0
-109 -5 -7 -8 -16 -18 -34 -105 0
-562 52 54 57 58 -579 0
101 103 107 108 109 571 599 0
-54 -35 -37 55 56 -84 -86 278 451 0
-88 4 5 -6 -7 15 -16 -83 181 192 -480 0
181 15 18 -331 -488 -497 0
-31 -11 -35 -36 -331 0
186 -52 -56 -62 63 -331 381 391 395 0
413 62 64 66 -331 384 387 0
3 4 -5 51 -55 -73 84 -319 432 -480 0
426 -63 -68 75 -319 -382 461 -480 0
456 73 78 -83 -87 -101 -103 -319 426 0
457 72 76 -319 432 435 444 446 0
-165 4 -5 11 14 -16 83 85 -191 0
110 -2 -5 -8 102 104 105 -150 0
3 4 -5 104 105 107 108 109 110 -142 0
373 -28 -30 51 -59 351 376 0
594 -81 -87 104 -105 -107 108 331 -480 0
138 -8 -21 -28 -81 83 0
406 45 46 61 62 -313 405 0
393 -62 64 65 68 -313 386 0
395 -62 64 67 -313 381 411 0
-81 -51 -54 -63 -83 -313 0
420 61 64 65 66 -313 381 0
453 71 72 73 -313 450 461 0
420 64 65 66 -313 381 382 0
167 -15 -45 150 161 182 188 0
180 11 12 13 -15 0
87 11 14 -15 88 480 481 495 0
159 12 -15 174 180 0
-410 71 72 73 472 481 -488 0
-88 15 16 18 -23 -24 -488 0
494 62 -64 67 68 389 411 481 -488 0
67 62 68 -473 -488 -495 0
421 62 387 402 405 406 411 422 -472 -488 0
370 52 59 341 371 372 375 -472 -488 0
458 72 74 -81 -87 -461 -488 0
90 73 -77 82 -87 434 439 -488 0
65 -18 -20 62 66 67 398 0
198 -18 164 170 183 188 192 195 0
166 11 16 17 -82 -84 260 -324 0
-116 -82 -84 -146 482 496 0
565 -74 -76 -82 -84 105 -106 580 0
85 4 -74 -76 -82 -83 -84 0
-365 61 62 63 81 82 0
356 -12 -13 -43 -51 52 -53 56 -84 -85 0
414 -65 -83 -84 -103 -105 384 415 0
1 4 -64 -66 -83 -84 480 495 0
497 -84 86 88 495 0
-129 -84 87 -142 495 0
266 32 -34 251 270 271 273 0
-229 11 15 16 17 -34 165 271 272 0
-246 31 34 35 36 37 0
254 34 35 37 39 250 255 284 0
287 32 33 34 35 36 39 0
17 15 -26 -28 -46 0
45 15 16 -27 -28 46 0
379 -28 -29 -43 -58 342 363 0
125 -21 -28 42 -83 480 0
274 -28 -29 -39 -53 -58 253 261 0
215 23 24 27 -28 207 0
239 -26 28 -45 -107 -110 236 0
213 -26 -56 -59 205 218 237 0
232 26 -27 28 -67 -69 0
230 21 23 26 27 28 216 0
208 22 23 26 28 30 216 225 236 0
22 23 24 -27 28 -36 -37 -46 0
204 22 24 27 28 220 0
220 22 24 27 28 219 231 0
29 23 28 30 201 225 236 0
176 11 12 14 15 18 0
363 -42 51 -328 354 357 360 0
341 -42 -328 342 354 360 375 0
206 26 -42 207 218 219 225 240 331 0
269 31 35 36 38 -42 268 0
82 -8 -27 -28 -42 51 -103 -105 0
57 -42 -46 51 58 0
456 -42 51 -58 -73 82 427 446 461 0
278 -3 -8 34 -38 -42 282 -488 0
341 -42 -46 342 375 -488 -495 0
456 -12 -13 -42 74 -84 85 88 427 432 447 496 0
132 34 35 37 -42 -46 -81 0
-40 34 35 36 37 -42 -102 -103 0
207 23 26 -28 -42 240 -324 0
354 -42 52 56 57 58 62 -64 82 0
349 -42 -45 -52 180 336 372 0
65 -42 63 64 66 68 387 0
324 -42 -207 -240 331 354 360 0
-53 -42 -54 0
-52 -51 -55 -82 -84 -86 -101 -104 -313 393 406 420 0
62 -51 -55 -101 -104 -313 385 391 406 420 0
-351 35 37 38 83 250 -313 473 0
53 54 55 56 346 351 352 375 0
-26 -12 -16 25 205 220 226 390 0
-281 12 13 15 -16 18 -272 0
-18 -7 -8 -11 -51 52 56 -313 360 0
-319 55 -313 346 371 372 375 480 0
103 -5 -7 -8 -45 104 -105 -471 -476 0
440 2 4 -6 73 84 85 130 142 -319 429 432 435 438 0
-26 -6 -7 -8 -16 -34 -45 205 390 0
-394 26 28 218 236 -324 -381 0
-87 6 -7 -45 -81 -82 -83 105 -471 -587 0
56 43 51 53 55 353 375 0
563 -5 -7 -8 -45 -104 105 571 581 0
101 -5 -7 -8 -45 102 105 581 0
-168 -66 84 85 -101 -103 -191 -319 0
-20 -16 -17 52 -55 58 338 354 360 0
564 -45 104 -105 108 109 570 574 581 0
-102 -82 84 -86 -101 -105 393 400 420 0
-341 -34 35 36 38 42 -336 -495 0
59 -51 57 58 60 338 345 347 354 0
-58 -18 -20 53 55 337 346 372 375 0
-58 -12 -18 54 -82 -83 -89 -101 -102 379 0
337 -16 -18 -20 -51 54 336 -339 341 0
337 -51 55 336 338 374 375 0
561 -7 -8 103 104 105 331 0
-85 -55 -81 -84 -105 -471 -481 594 595 0
87 -5 -7 -8 83 85 -103 -105 107 108 110 -471 -481 0
-85 -5 -7 -45 -81 -82 -84 -105 107 -579 603 0
-74 2 4 -5 -82 -84 -313 428 450 452 0
-21 -6 -7 -11 -17 28 -324 0
-102 -55 56 57 58 -82 -84 -105 -313 0
107 -6 101 102 104 108 -324 598 0
103 87 88 104 -105 107 108 109 110 488 0
57 -28 -30 54 56 347 350 354 0
103 -14 16 18 42 104 -105 106 107 108 109 187 0
-108 14 15 16 -17 -103 -104 162 195 0
-28 23 26 -45 215 228 240 0
-313 -36 42 55 57 58 250 276 281 282 338 0
-3 -6 -7 -8 -23 83 -84 85 0
57 -18 -20 54 56 340 350 351 352 354 0
-14 3 6 -12 84 -105 -107 0
-342 3 4 6 -7 -51 -52 -55 84 -319 375 452 0
432 -1 2 4 -6 84 85 130 142 -319 429 438 440 444 489 0
-74 -42 51 -55 -83 -84 432 443 451 452 0
-51 -5 -8 336 337 371 -473 -495 496 0
166 -7 -8 11 16 -23 26 177 -324 0
57 52 53 54 55 379 0
-51 55 -84 -101 -102 340 375 -480 0
-11 -6 -7 -8 16 -21 -26 -324 0
-336 -8 42 -51 52 56 -84 -313 347 375 -495 0
-23 25 -130 -146 -147 0
108 101 105 107 109 570 599 0
102 -15 -16 -45 101 103 108 109 601 0
-55 -14 -15 -43 -45 54 302 0
-43 -8 -14 -15 42 -45 -51 52 54 56 57 375 0
471 -11 -18 -82 313 331 0
-26 25 -103 -107 236 237 238 240 404 0
105 -1 -6 -7 -8 84 104 580 599 0
52 -12 -15 -45 54 55 -319 353 371 372 375 0
-13 5 -6 -7 -14 -15 -82 -84 -103 -104 488 0
108 103 104 105 106 110 601 0
102 104 105 106 108 110 601 0
336 8 -51 60 337 342 360 371 0
55 8 53 56 58 60 346 0
-82 -51 -101 -102 -105 340 375 471 480 0
-102 -51 55 58 -82 -84 -101 358 359 371 0
-102 -51 55 56 -82 -84 -101 375 0
-124 -6 -103 105 106 -146 331 -471 0
22 21 24 25 26 241 242 0
177 11 14 15 16 -18 -165 -195 0
101 103 104 107 108 110 573 0
338 8 -45 -51 -225 336 337 345 374 377 0
-107 1 4 -6 -12 -13 -18 -109 0
-55 8 15 16 17 -18 -51 60 336 347 354 360 364 0
-102 5 84 -101 -106 130 136 -319 420 0
68 61 -319 383 390 392 399 405 406 421 422 0
-102 8 -12 -18 42 54 60 84 -101 -104 471 0
-101 -51 55 -104 -106 145 336 337 375 0
-87 4 -6 -7 -12 -13 84 0
-101 8 -51 -104 -105 336 337 374 375 0
-10 2 4 -6 -82 -84 -86 -106 -107 0
-73 3 4 -6 -82 -83 443 444 445 447 0
-61 5 -6 8 62 65 66 -101 -107 149 398 0
337 8 -51 52 54 60 368 374 0
-62 382 391 394 395 396 397 399 411 0
-62 -1 -6 63 160 393 396 397 405 420 0
53 8 -51 56 -319 336 342 360 371 377 0
52 8 -51 337 342 360 364 365 371 374 377 0
-11 5 -17 -18 -51 336 337 360 0
-339 74 -82 -88 195 -313 -336 432 461 0
-490 8 14 -15 -45 -488 0
101 104 105 106 109 110 600 0
12 14 16 17 19 20 157 0
109 104 105 106 110 574 575 600 0
-28 -14 -18 25 26 -32 -34 207 221 0
-12 4 5 -6 -7 -14 -15 -84 -103 -104 488 0
342 8 -51 53 60 -319 336 354 360 371 0
339 -51 59 336 337 342 -370 371 0
-108 15 16 -17 18 -20 -83 -84 -104 182 0
104 -45 105 561 562 570 598 600 602 0
104 -7 -45 105 -471 -480 -490 565 600 0
-34 -7 38 -45 0
107 6 -7 -8 -45 105 562 571 0
105 6 -7 -8 -45 561 563 571 581 0
55 -7 -8 -36 -37 51 52 -319 0
56 3 4 -5 -45 51 -52 55 346 375 0
-360 42 43 -45 -55 -105 109 -319 336 337 345 561 562 570 600 0
-107 22 25 -26 -104 -105 205 0
-107 105 566 571 581 601 602 0
-107 -45 102 104 566 581 601 0
-110 -43 51 -55 59 -105 346 0
103 6 -7 -45 -105 107 -471 -473 571 603 0
52 -8 51 55 -319 355 375 0
-85 42 51 -55 -82 -84 -103 -104 -471 0
52 -7 42 51 55 -103 -104 -319 353 0
56 -8 51 55 -81 -82 -101 -103 -319 346 375 0
-73 -53 -54 72 -101 -104 -313 338 364 365 0
-107 -7 -8 -36 -37 101 106 570 592 600 602 0
-12 -6 -7 -8 -16 101 102 -103 104 107 -324 0
-107 -6 -11 15 -16 17 18 -104 -105 381 0
-62 -313 381 391 394 395 411 0
108 102 103 104 107 109 599 0
55 8 -16 -18 -22 -28 51 353 372 376 377 0
52 51 353 354 360 372 376 377 0
-53 -51 -55 62 -63 -319 400 420 0
-57 -7 -8 -11 15 16 -51 0
-56 -6 -7 -8 -11 16 -51 -324 0
255 31 34 36 38 -45 0
-53 -51 -58 62 64 411 421 422 0
-62 -32 -36 175 390 394 395 396 397 411 0
61 1 4 -5 -42 63 -83 -84 398 405 420 0
-61 382 386 387 396 397 405 406 411 0
-64 1 4 -5 -42 -83 -84 383 398 405 420 0
-67 62 64 386 401 0
-336 -42 -51 52 53 54 0
-64 -42 -54 55 58 61 62 81 82 346 371 383 0
64 15 16 17 61 62 -319 390 397 404 411 421 0
42 -14 -15 -45 51 -55 0
-385 -5 6 -8 -51 52 54 56 -313 0
-355 34 -36 38 250 -345 0
-12 -15 -45 52 -53 55 56 353 375 0
-64 4 -5 62 386 405 408 409 410 0
-84 11 16 -54 -55 -83 180 195 -324 0
-396 -22 25 26 83 214 473 0
-105 550 564 572 582 585 594 596 0
-62 -1 -5 383 390 394 395 396 397 0
-129 3 -5 -7 11 16 18 112 -324 0
102 -5 -7 -8 -45 101 104 581 0
-62 -54 -58 -82 -84 392 393 394 0
-84 6 11 15 -16 17 18 -480 0
53 42 43 52 55 -319 371 372 375 0
-261 25 26 27 84 -215 471 0
-54 -32 -36 -52 -55 -84 86 88 471 -488 0
-37 -16 -17 -32 43 51 -52 53 58 0
-55 2 3 -5 -45 51 -52 346 354 0
246 34 38 281 -313 -324 0
105 -5 -7 -8 -45 107 -471 587 0
-381 -61 62 390 391 392 393 420 0
-105 -5 -7 -8 -45 -52 -55 -81 -82 581 585 0
60 8 -28 -30 42 52 82 -472 -488 0
-72 75 -319 426 435 438 440 0
57 53 55 56 -319 350 0
-73 3 4 -6 75 -82 -83 427 435 443 445 0
73 -6 -7 -51 -57 72 142 -319 429 0
-73 4 -6 -31 -33 34 35 84 130 252 281 -319 427 445 450 471 -480 0
-341 63 68 -319 -339 393 0
-63 382 390 398 403 404 0
25 -7 -28 38 -45 0
-170 -12 15 18 192 195 0
51 -23 -25 -45 52 -313 0
-8 -7 -28 38 -45 0
354 8 52 54 336 -339 345 -357 374 377 0
-62 -32 35 -36 37 38 84 175 381 471 0
61 62 -319 398 400 402 421 422 0
-24 -25 42 -45 51 -55 313 -319 345 0
-28 -7 38 -45 0
51 -7 8 38 -45 0
-195 11 16 17 176 182 -324 0
-31 -33 -36 -51 52 -282 360 376 377 0
8 -7 38 -45 0
-53 -55 -58 -83 88 233 491 0
55 -23 -25 42 -43 -45 -51 56 336 375 0
-225 42 43 -45 52 53 -55 0
-58 -51 -55 73 -319 435 438 439 461 0
-4 -5 -7 -8 -14 16 0
73 -13 -14 -23 -25 -26 74 78 426 0
58 53 55 57 -319 348 0
-53 -23 -25 51 264 345 358 359 0
-225 -51 -53 -58 -82 -231 -319 426 -480 0
-89 3 4 -8 -58 -59 -82 -83 0
-53 -21 -25 -26 -51 -55 -83 -142 481 0
-86 -25 -27 -53 55 56 -83 233 0
-337 3 4 6 52 54 -58 -114 -319 -354 356 -480 488 0
51 5 -8 55 319 346 375 0
-17 11 15 16 21 25 26 28 195 -324 435 0
23 -12 -14 21 25 28 236 300 0
23 24 25 27 28 209 216 236 0
-109 5 -8 11 15 -16 -104 -105 195 0
-108 -6 -7 25 -26 28 -104 -105 201 236 0
-216 34 35 38 -246 255 281 488 0
37 34 38 -82 -83 -101 -102 246 255 276 -324 0
21 -12 -13 24 25 27 28 255 0
84 3 4 -5 -7 85 491 0
-24 25 26 -27 28 -103 -105 106 107 109 313 561 578 0
-73 3 4 -5 -82 84 85 -319 427 444 0
27 23 24 25 28 209 216 234 235 0
-13 16 -32 -37 -82 -84 260 -324 0
43 42 -82 83 -101 -103 -105 -106 381 420 0
-24 2 -5 -7 -23 -26 83 -84 122 -481 0
-103 -13 -20 31 34 -40 -104 224 0
-26 28 -43 205 213 220 534 579 0
432 3 4 -5 6 72 84 85 -319 341 429 444 0
-217 34 37 38 -246 276 471 488 0
-51 -5 6 -8 55 340 -565 0
27 23 25 28 -43 201 231 233 234 235 237 534 579 0
-19 -16 -27 34 -36 -37 232 240 246 247 255 -281 285 0
23 24 25 26 28 208 217 227 -324 0
23 22 24 25 28 206 0
-193 25 27 28 34 -36 231 235 250 255 282 0
-194 -26 34 -36 231 236 237 246 247 255 278 285 0
-193 25 27 28 34 231 235 246 247 255 277 278 285 0
-86 62 -84 -101 -104 -313 384 405 420 0
110 104 105 106 109 562 600 0
105 -5 -7 -8 -45 104 561 581 0
-396 -52 83 -313 339 345 346 348 360 375 473 0
52 -313 338 339 340 346 360 371 372 375 0
-108 -13 -16 -27 -105 -107 201 232 240 0
-24 -14 -16 25 26 28 -107 -110 230 0
-106 3 -5 -103 107 109 562 578 597 599 0
-24 25 27 28 -103 -105 229 313 0
55 5 -8 -31 -35 42 -43 129 -313 336 346 375 0
110 34 38 39 40 106 107 108 109 -480 578 0
-30 2 4 6 -23 -27 83 -84 -105 -107 -108 -481 0
-51 -101 -105 -106 145 343 345 346 353 371 372 375 0
206 25 26 -27 28 -32 -33 -103 -105 165 218 0
110 86 88 101 104 -105 106 108 109 488 0
-107 13 15 -16 17 18 -103 -105 0
-107 12 15 -16 19 20 -104 -105 195 0
26 -7 15 38 -45 0
-474 -7 -8 103 104 -105 331 -471 0
-593 3 -7 -11 13 16 18 -324 426 0
-473 -5 -7 -45 103 105 -471 0
471 -5 -7 -11 -82 313 331 488 0
-51 -32 -33 -101 -103 337 338 343 344 0
-480 6 -7 -45 104 -471 592 603 0
16 -7 15 38 -45 0
15 -7 38 -45 0
-480 -7 -8 11 -15 16 34 -45 -82 -84 0
-106 11 -15 16 -104 -105 -324 0
16 -7 35 38 -45 0
-55 -14 -15 -43 -45 302 360 0
471 -7 38 -45 0
105 -7 38 -45 0
11 13 -14 -15 16 42 43 -45 -51 -146 195 336 338 345 372 375 0
-45 -7 38 0
103 104 105 561 571 598 602 603 604 0
55 -46 -319 337 341 350 375 -480 0
59 -31 -33 43 54 60 83 337 344 359 365 -471 0
342 56 57 -58 59 60 -319 345 360 372 0
107 103 104 105 561 570 571 597 599 0
107 104 105 110 -471 -480 597 0
-102 8 -46 -82 -84 -101 -105 341 377 -480 0
471 -34 35 38 84 -173 281 0
109 -81 -84 104 105 -476 -481 573 575 584 597 602 604 0
-102 15 16 17 -18 84 -104 -109 471 -480 0
101 103 104 105 108 109 602 0
23 21 24 26 27 207 228 234 235 237 331 0
-215 -14 -16 -18 -82 86 480 485 0
-28 8 201 222 228 233 241 242 -328 0
28 8 24 -46 201 219 232 241 242 0
104 -5 -7 8 -16 -18 21 -25 -46 -81 82 -105 108 109 110 135 -181 387 411 421 422 -472 -473 596 0
11 -5 -15 17 88 101 -103 -106 -142 -180 188 -328 480 605 0
-110 -5 -7 8 -14 -15 18 -105 0
-25 6 -7 -15 23 26 -28 201 225 -328 0
102 101 103 105 106 108 602 0
-16 11 14 15 168 191 193 194 0
-483 4 -5 11 14 -15 -480 0
-483 -5 11 -15 -480 -481 0
-51 8 38 -46 82 341 342 0
-353 52 -53 54 55 57 -319 -337 -357 361 0
342 8 -46 -51 52 55 353 371 377 0
-87 -82 -83 106 -107 108 109 -472 602 0
-27 26 232 240 241 242 0
-25 -1 -5 -28 51 -58 -319 490 0
-87 -81 -82 105 106 108 -581 605 0
23 6 16 17 18 26 -28 201 228 241 242 0
201 23 24 25 26 -28 -34 241 242 270 271 0
75 -74 76 77 -313 432 440 0
-85 -82 -105 107 108 -471 -480 585 605 0
-167 1 3 -5 -81 -84 -106 -481 598 602 604 0
-497 14 15 -16 17 -328 -488 0
-51 -7 8 38 82 342 430 0
-88 -5 -7 14 -15 16 18 82 0
-87 14 -15 17 18 -83 -84 -106 -107 -328 0
55 -7 -42 51 -328 350 377 0
110 -55 -81 -83 104 -105 106 107 108 -319 562 570 0
18 -7 8 35 38 0
109 8 101 102 104 107 597 599 602 0
110 -55 -81 -83 104 -105 107 108 109 -319 562 570 0
8 -7 35 38 0
-51 55 -83 -84 -101 -103 336 340 375 0
18 15 -32 -36 160 168 -331 391 0
63 52 56 57 58 61 62 -64 83 347 354 471 -481 0
-110 42 43 51 -55 59 -105 345 0
-370 45 46 101 104 -105 106 109 570 0
32 34 35 38 -313 -331 0
33 35 38 246 271 -331 0
52 42 51 57 58 -319 355 0
-247 -51 52 -55 58 -265 -331 338 0
18 15 -32 -36 160 181 -331 391 0
18 15 -32 -36 160 166 -331 391 0
-592 11 13 15 -16 -579 0
-90 34 35 39 -40 252 255 281 471 0
-107 11 -16 -103 -104 -105 0
-135 -8 11 17 -143 165 168 175 0
-24 -43 -46 -166 228 232 0
55 -46 -51 58 336 338 356 0
108 -51 102 103 -105 106 107 109 -313 -328 336 341 571 0
-58 -51 -55 -82 -83 -102 -106 -107 -319 435 0
66 62 68 -319 -331 399 0
72 -7 -8 42 43 73 429 461 477 0
62 63 -319 -331 387 388 389 405 0
-63 51 -55 -319 -331 387 400 -480 481 0
-101 -51 -55 62 -103 -106 -319 420 0
-85 51 -55 56 -82 -331 -471 480 0
55 52 54 58 -331 355 0
-54 -33 -36 43 51 -87 -319 346 -471 480 0
-360 11 15 16 17 -55 -319 338 346 0
103 -5 -7 46 102 105 -106 107 109 0
-17 2 3 -11 -14 -16 -471 0
63 -51 -59 62 -106 -110 -319 384 420 0
77 62 -66 71 75 -319 400 427 432 435 462 -471 480 0
381 43 -58 -59 63 -319 -331 390 405 406 411 414 420 0
55 -51 -82 -84 -313 -331 336 340 346 381 391 411 0
-54 -51 -58 -82 -84 -313 -331 381 391 411 0
-63 51 -55 84 -319 382 400 420 0
356 -55 -57 -62 68 -319 341 385 386 390 0
-63 -5 51 -55 129 135 -319 360 382 401 -480 0
101 105 108 109 331 570 571 578 597 602 0
-54 55 57 346 353 361 364 365 0
-51 -331 336 338 339 340 356 358 359 0
51 53 84 -319 -328 349 350 0
-13 -7 -8 15 -104 -109 -328 0
-14 -5 -7 -8 -105 -109 -328 0
12 11 14 15 193 194 195 0
73 42 43 -68 -69 72 429 453 461 0
62 42 -313 -331 384 387 406 413 0
-107 72 -104 -106 -313 429 432 436 451 458 0
-174 -84 -187 495 497 0
106 104 105 107 109 561 604 0
18 11 12 16 173 -331 0
18 11 16 165 166 173 -331 0
68 -1 3 -5 43 61 67 -319 -480 0
-106 11 16 18 -104 -105 -331 0
-107 12 -16 -104 -105 160 0
-106 12 -15 -104 -105 159 0
-496 -5 11 16 18 -84 -331 0
-107 13 -16 18 -103 -105 160 -186 0
63 62 -319 384 385 420 0
432 3 4 -5 51 -55 84 -319 429 430 438 439 458 -480 0
55 5 -46 -313 336 338 346 372 375 0
25 5 -7 -8 -31 -37 45 206 216 217 218 331 0
-19 11 13 171 184 0
-106 11 -15 17 -103 -104 188 -328 0
12 -5 -8 11 -15 166 187 201 206 214 232 240 -328 0
88 -6 -8 -68 84 85 86 -319 472 -480 0
55 -319 -331 338 340 343 344 345 372 375 0
63 62 -319 -331 385 413 0
-62 -11 -14 -15 -31 -32 67 381 396 397 0
-62 -11 -14 -15 -31 -32 381 391 396 397 420 0
-25 -12 -15 204 219 225 236 345 0
63 -58 -59 62 83 -319 -331 381 383 391 414 415 0
-102 54 -55 60 81 -82 -83 -105 343 0
-343 16 17 18 -31 -159 281 282 285 0
85 5 -7 -15 -16 -84 86 331 -480 0
-86 5 -7 -8 -46 -82 105 331 -471 0
-16 -15 21 -25 26 216 217 218 0
-106 13 18 -103 -105 161 187 -328 0
5 -7 34 35 38 42 -82 0
-106 1 -5 16 -103 -105 -143 162 -331 0
-108 -5 -7 -15 18 -25 28 -105 204 -328 331 345 -488 489 0
-135 -5 -15 17 -25 -143 -150 204 232 -328 345 -488 489 0
-108 -5 -7 13 -15 16 18 -103 -105 0
-109 -5 -8 13 -15 16 17 -103 -105 0
108 101 106 109 570 571 578 602 0
55 -43 -313 -328 336 338 346 375 0
-25 201 220 223 225 232 233 235 -328 0
-57 -328 341 349 353 354 360 375 0
-27 -7 -8 -34 142 151 152 206 219 241 242 -328 0
37 38 249 257 -313 -328 0
11 5 -8 -34 -45 165 0
-84 4 5 85 -103 -104 496 0
-222 101 -104 105 110 -233 600 0
-3 5 -9 -23 25 244 0
-56 5 8 -11 -17 60 348 355 0
-289 -38 40 280 284 287 0
32 5 8 33 34 36 40 286 0
-9 5 18 -103 -104 0
-285 35 37 -38 39 281 287 0
-1 -8 -38 -39 90 162 488 0
-475 63 64 -65 -411 420 -471 0
-62 65 -313 -331 381 392 395 406 0
-490 65 -319 381 399 420 -472 -480 0
-132 5 -8 -34 -38 -45 201 0
-493 31 35 36 37 40 -480 0
-60 352 359 365 374 377 379 0
-68 -38 -40 387 395 398 0
24 21 22 23 28 0
-132 3 -7 -8 112 120 128 0
-483 14 -15 -51 -52 174 -480 0
-1 5 -8 -11 15 381 426 471 0
11 12 -15 18 -34 38 174 -331 0
-25 -7 -8 -15 -17 -34 204 219 225 0
-21 5 -11 -17 25 207 0
62 63 -319 383 384 388 405 420 421 422 424 0
-336 63 66 -319 -339 420 0
-16 5 -8 13 -34 35 -46 -83 489 0
14 11 18 165 167 174 191 0
26 -3 5 -8 -11 -12 -34 43 -46 84 142 151 152 170 206 208 218 219 225 241 242 331 472 0
35 5 18 -103 -104 0
471 89 -103 -104 -319 0
-1 -5 -45 51 -52 53 54 0
-64 66 -82 -84 -102 -105 408 -420 0
77 72 73 78 429 430 456 0
-66 63 -82 -84 -102 -106 385 0
420 63 -319 385 390 393 -561 -564 0
371 55 58 -82 -83 -101 -102 -319 345 0
-82 -101 -102 103 -105 -106 107 108 109 110 571 0
-71 426 427 428 429 430 432 0
-141 -81 -83 -84 114 135 207 252 331 0
-319 82 -101 -102 -105 -106 586 0
61 62 69 82 -90 0
-62 -42 381 392 393 420 0
69 62 65 66 398 404 410 420 0
-25 28 -57 -59 201 219 225 -328 0
58 52 55 56 59 352 353 359 365 0
-340 25 28 35 38 -313 -331 0
-372 -52 -331 336 345 346 350 0
2 1 -7 21 22 25 26 -27 241 242 0
20 8 -9 18 -328 0
342 52 55 57 -319 -328 345 0
-88 -31 -37 -51 -84 -313 -328 336 342 0
12 11 14 17 18 -328 0
371 55 -56 -328 345 372 0
-46 -5 -35 -324 0
-19 5 8 -16 27 0
86 5 8 -16 -25 82 162 0
351 51 56 57 58 60 0
241 8 22 25 -28 -46 207 228 242 0
365 5 8 55 58 338 344 345 0
338 8 52 58 -59 337 353 0
87 -12 -15 61 62 -83 88 -319 420 0
383 -18 -20 62 67 382 398 411 0
446 -51 -55 -73 -101 -103 -319 435 445 0
439 -51 -53 -55 -72 -81 -82 -319 438 0
3 4 5 -55 -58 -73 84 -319 427 432 0
415 62 63 -319 383 387 388 422 0
431 73 -319 426 432 437 438 439 456 0
399 4 -5 -12 -13 -63 -82 -83 382 420 0
272 -6 -8 -14 -16 -34 35 0
563 -16 -18 -46 -104 105 106 108 0
284 31 34 -38 39 -45 260 281 287 0
376 -51 55 -84 -101 -102 374 377 -480 0
475 -8 -51 -58 -81 474 480 0
217 23 24 25 27 207 216 0
217 21 25 216 218 236 237 240 0
394 -62 -313 384 391 393 395 0
-19 -18 -82 -102 -109 471 480 0
381 -17 -18 -20 -62 63 64 411 0
201 23 24 -26 -56 -59 240 0
169 14 15 18 19 20 176 0
196 11 12 13 15 18 197 0
196 15 18 160 165 166 173 197 0
-388 -11 15 17 18 -21 207 232 0
176 15 16 18 -61 -62 -82 -88 0
178 11 15 18 161 166 176 194 196 197 0
174 12 14 16 18 -57 -59 0
163 -11 18 160 187 190 197 0
-242 6 -11 18 143 -206 0
266 35 39 40 251 259 282 0
278 16 -17 -35 -45 0
278 16 -17 -35 -45 0
398 -17 -20 61 62 -67 0
254 -35 262 269 270 -280 0
-101 52 -55 -81 82 -105 0
370 -55 -83 84 -85 -89 360 0
375 52 54 55 56 337 353 0
338 52 55 57 337 353 372 0
-43 52 -53 54 55 56 57 0
372 52 -54 55 57 337 -353 0
343 55 -59 345 346 353 375 0
348 54 55 57 58 337 372 0
338 53 55 57 58 336 346 0
340 54 55 59 60 341 345 0
352 53 54 55 56 57 59 0
344 53 54 55 56 57 343 0
371 55 59 60 340 341 342 350 353 0
185 11 15 16 19 165 195 0
170 11 15 16 -165 176 195 0
170 11 15 16 169 173 195 0
-124 11 15 16 -150 173 0
193 11 12 14 15 17 194 0
193 11 15 17 20 -398 -405 0
243 21 22 26 27 30 225 0
29 23 24 26 27 30 207 0
216 21 23 26 -29 227 228 0
234 23 26 -29 201 228 241 0
103 -45 105 106 -471 -481 0
43 -31 -33 -52 -53 -82 0
486 -70 81 -82 -471 480 0
-116 6 -82 85 87 488 0
-268 62 -63 64 67 68 411 481 0
399 62 -65 384 405 0
382 62 64 65 67 68 0
388 62 67 68 389 398 411 0
561 -7 103 104 105 106 -331 0
-207 -6 -7 -81 85 86 -331 0
407 -7 -31 -38 -67 -331 390 0
283 -4 -5 -7 -34 284 -331 0
-88 -5 -7 14 -15 16 -331 -488 0
64 -7 -11 -18 63 -67 -331 0
346 -6 -7 -31 -38 55 -313 -331 0
147 -7 -61 62 -81 85 -331 411 -488 0
102 -6 -7 103 105 106 -331 0
217 -5 -7 26 -31 -35 216 218 -331 0
2 4 -6 -7 82 105 106 -331 561 0
402 -7 62 -81 85 147 -319 -331 411 -488 0
58 55 -328 -331 0
13 12 14 -328 -331 0
270 31 38 -313 -328 -331 0
33 34 35 -328 -331 0
32 34 35 -328 -331 0
225 21 22 28 -328 -331 0
84 -328 -331 0
13 11 14 18 -328 -331 0
166 11 13 15 -328 -331 0
13 11 12 15 -328 -331 0
13 11 14 -18 -328 -331 0
201 -25 -34 -38 -328 -331 0
219 28 -34 -38 -328 -331 0
346 55 -313 -328 -331 342 0
-54 -34 -35 -319 -328 -331 0
473 83 -313 -328 -331 336 342 350 360 0
-33 36 38 -313 -331 0
255 8 31 38 -135 -331 0
283 31 34 38 255 284 -331 0
165 -22 -23 31 34 36 38 -331 0
165 -22 -23 31 34 38 276 -331 0
257 34 -35 38 249 283 284 -331 0
276 34 38 -62 -63 -81 -82 -331 0
250 32 33 38 270 276 -331 0
27 8 26 28 -35 37 38 -331 0
32 -5 -6 -11 -16 38 -313 -331 0
249 -13 -15 33 36 38 -331 346 0
255 7 -11 -16 38 -135 -331 0
246 -5 -6 -14 -15 38 247 255 -331 0
255 -5 -6 -11 -16 34 38 -331 0
60 51 55 58 59 -331 0
53 52 55 58 -319 -331 0
338 8 55 58 60 -331 345 0
346 8 51 53 55 56 -331 0
347 8 -57 -331 341 350 0
-76 8 -57 58 -75 -331 0
362 -57 -331 336 345 354 375 0
338 55 -313 -331 336 346 372 0
383 8 62 -64 68 -319 -331 0
173 8 11 -16 -56 -58 -63 -68 -331 0
374 8 -51 52 58 -331 354 -471 -481 0
252 8 25 26 27 34 -36 -38 255 -331 0
354 51 56 58 -319 -331 0
372 84 -85 -101 -102 -319 -331 0
372 84 -101 -102 -105 -319 -331 0
87 61 62 68 88 -319 -331 481 0
370 51 59 -319 -331 345 360 372 0
321 -55 -56 62 63 68 -319 -331 0
-489 -51 -319 -331 340 342 360 -480 0
382 62 66 67 68 -319 0
400 7 62 -319 340 382 384 399 420 0
337 55 56 -319 -331 336 345 0
350 42 53 56 -319 -331 336 342 471 0
384 7 -61 -319 -331 340 382 387 405 0
383 -18 -20 62 -319 -331 382 398 411 0
406 -38 -40 62 63 -319 -331 405 411 0
411 -51 -53 68 -81 -82 -319 -331 0
-352 61 62 64 -319 -331 -350 411 471 488 0
400 -55 -62 -319 -331 381 395 411 471 0
402 -5 -6 62 -63 -319 -331 340 383 391 398 399 0
411 -38 -40 -54 -56 62 63 276 -319 -331 0
3 4 62 -82 -83 84 -319 -331 387 399 411 489 0
246 -5 -6 34 -107 -109 -313 -331 0
387 -4 -5 -23 -24 62 63 -331 0
1 -5 -8 16 -18 135 -165 183 -331 0
110 -81 82 -101 -102 -105 -106 109 0
-495 -42 61 -65 -488 0
106 5 -46 102 103 563 601 603 0
-585 4 -7 -82 -488 497 -591 0
-110 42 43 -55 -86 -105 -106 339 -480 0
35 34 246 247 255 272 281 283 284 285 0
35 5 34 42 -46 -51 55 -480 0
-289 -11 18 25 26 -28 161 186 193 194 216 218 240 -278 0
491 5 -46 -63 -480 -488 -591 0
-599 17 18 34 -35 186 249 255 282 285 -328 331 0
-16 -4 5 -46 471 -488 489 0
66 62 65 68 386 398 420 0
106 5 -46 103 564 570 571 0
360 -42 -46 51 353 356 357 372 375 0
-51 -328 339 341 342 0
-71 72 73 75 77 79 430 434 0
102 7 103 105 331 588 0
102 7 -45 105 331 562 578 588 0
73 7 -34 -35 -42 74 432 0
-35 -6 -7 8 -24 -26 28 82 -105 0
-260 -6 51 55 147 -285 353 374 0
-162 34 35 -38 42 55 57 -58 260 281 337 -350 372 0
110 2 4 -6 -7 101 103 -104 -105 106 109 0
7 4 82 -86 -102 -104 0
42 62 65 82 420 -488 -496 0
-472 62 65 66 420 -488 0
-402 -38 -42 270 285 -328 -382 0
-66 62 -84 -86 -101 -104 400 0
17 13 -15 16 18 158 167 -328 0
389 -61 62 65 69 398 400 406 420 0
70 62 65 69 398 400 406 420 0
-26 5 -8 -35 -38 45 331 0
65 62 -84 -86 -102 -104 420 0
-16 5 160 181 192 -488 -490 0
-195 25 -42 -161 218 -328 0
-106 5 -46 103 565 586 591 0
-105 -82 -84 -101 -102 -328 340 375 480 0
102 101 104 106 108 -146 601 602 603 0
-65 -46 63 -181 384 391 0
-63 66 -313 382 399 420 0
-131 -13 15 19 20 -146 0
-195 25 29 30 -38 236 -324 0
-60 -13 -15 -45 52 339 359 371 379 0
345 55 58 59 339 344 346 353 371 0
-252 16 17 -18 -82 -84 166 246 -324 0
-19 5 -9 30 0
-25 5 8 34 35 83 219 228 0
-34 5 -9 35 -105 -110 289 0
-84 2 4 5 85 86 488 0
-110 5 -9 -103 -105 0
24 21 23 25 27 -35 -38 -45 0
22 -3 -7 -11 -17 24 26 -28 29 30 -324 331 0
-55 -24 -25 42 -45 313 -319 339 345 0
-207 -11 12 15 16 162 -222 -228 0
456 73 -319 426 431 432 439 440 0
22 5 8 21 -25 83 -84 123 0
18 5 -9 15 -103 -105 0
34 -23 -26 31 32 37 -45 255 398 0
-165 -12 15 16 20 176 178 0
-169 -83 -103 104 109 110 488 562 0
-14 -13 -16 -84 88 -105 -106 0
252 5 -9 -12 -13 15 19 20 34 -103 -105 195 0
353 8 -18 -20 51 52 -328 377 0
-5 8 34 38 46 147 246 -313 0
5 8 38 0
395 -313 -331 381 387 405 406 411 0
26 -13 -18 25 -82 -84 207 -331 0
-73 7 -42 -51 -53 444 -488 0
-75 -42 -53 -55 73 429 -488 0
-14 -16 -18 -34 35 -331 0
-183 -34 35 -192 -331 0
-147 11 14 -141 165 -331 0
-87 -5 7 11 14 -15 -488 0
-110 7 -15 -25 -107 -109 0
-495 -55 -353 -471 -473 0
-108 42 45 46 -53 -54 -55 -105 0
73 74 76 77 426 432 440 0
101 -8 46 102 103 104 110 0
-104 585 586 587 588 589 590 0
78 -1 7 73 -82 -85 -319 426 0
-73 3 4 -5 444 446 447 -480 0
-496 2 4 -5 86 480 -481 495 0
-244 27 28 -30 201 222 228 237 0
-490 15 -25 -26 -38 51 58 82 -331 0
5 34 35 38 42 -82 0
108 105 106 109 -471 602 0
-36 -16 38 -108 -110 -328 0
-199 25 26 27 35 36 -38 285 0
-68 -36 -38 -42 387 402 497 0
-56 15 17 18 355 374 -471 -481 0
-36 -8 -16 -17 -38 0
-83 -21 -25 -31 -33 88 489 491 0
21 5 22 -25 26 27 28 83 -84 123 0
405 -42 63 382 386 387 406 411 420 0
82 7 -16 18 471 0
-73 3 4 -5 -6 -82 -83 427 435 443 447 0
-73 -42 427 443 446 447 456 0
-103 7 46 331 -471 -480 578 593 598 601 0
104 7 46 103 331 561 593 601 0
-586 2 4 7 -571 0
103 7 46 331 561 563 571 586 593 601 0
103 7 46 105 331 561 588 0
-165 4 7 -11 14 -16 17 18 381 0
-51 -2 -5 204 336 338 344 373 376 378 0
105 7 46 331 561 578 582 588 0
562 3 4 7 -8 -103 -105 108 110 -324 331 561 578 593 0
-72 -42 75 426 438 439 0
-449 -33 34 35 36 37 261 472 481 0
-448 34 35 36 37 -38 -83 -84 261 472 481 589 0
360 -8 -27 -28 -42 51 354 372 375 0
-103 562 579 580 581 582 583 0
-191 15 17 18 196 197 -324 0
-11 2 4 -6 -16 -21 -23 381 0
105 7 46 331 -471 -480 562 567 575 580 581 582 583 603 0
108 7 -103 105 331 -471 563 598 599 0
-194 23 25 28 -181 201 220 241 0
-63 -2 7 -42 205 398 401 402 0
105 -5 -7 -8 -12 -15 -471 563 571 602 0
-24 -16 -19 -26 -30 -34 -142 -150 271 0
-283 15 18 25 27 28 191 -331 0
-480 6 15 -16 17 18 25 -84 331 0
-72 -42 426 437 438 447 450 452 0
-252 -11 15 -16 -21 25 35 -38 232 0
-11 -5 -7 -8 -16 -18 -21 0
-58 -42 342 357 360 372 375 0
206 -21 25 29 207 239 0
-205 -42 -206 342 372 375 -488 -495 0
-58 -42 -83 -84 -86 -143 342 0
55 -42 340 341 342 371 372 375 0
-73 -21 -27 -42 74 124 446 447 456 0
392 -42 -62 68 386 393 420 0
402 -42 -68 83 -129 -142 282 387 420 0
102 -5 -7 -8 46 105 147 331 562 578 587 0
-602 15 18 34 191 246 247 255 278 285 -331 0
-160 -7 -8 -21 -51 58 -324 336 337 360 0
-15 -16 18 82 85 180 189 190 0
-73 427 438 443 446 447 448 449 0
-73 427 438 443 447 448 449 457 0
36 34 35 -38 -42 72 -73 -83 -84 285 443 481 589 0
24 21 25 -42 220 221 240 0
-105 106 109 570 585 592 593 595 0
-51 -7 -8 -31 -38 52 337 338 340 0
-324 -16 45 0
-23 -5 -7 -8 -15 -16 21 -24 25 -81 83 -84 331 336 -481 0
-421 -7 8 25 26 207 215 218 0
55 -42 -46 58 341 342 0
-28 15 17 -21 -23 183 -328 0
-207 15 17 183 -202 -328 0
-495 8 -46 52 57 353 357 377 -473 0
-37 -7 32 34 -38 251 277 286 287 0
74 -5 -6 -42 -51 73 142 342 432 457 461 0
52 8 51 58 353 374 377 0
-377 -10 147 0
-57 8 -27 -28 -33 -38 54 336 377 0
-73 -12 -17 45 46 214 443 445 446 447 0
-81 7 34 -83 -84 -488 0
-17 8 -16 -20 0
-374 -6 8 15 25 28 162 165 183 -331 0
-63 -21 -26 123 390 391 398 401 402 411 0
450 -18 -20 -42 73 426 428 429 440 461 0
-17 -12 45 46 72 -73 74 75 78 461 0
-53 7 -42 -51 -55 -73 -488 0
14 11 12 15 177 -331 0
-71 74 77 78 429 430 0
-267 33 35 37 -38 247 255 283 284 0
-271 1 7 11 -16 18 -331 0
-75 -34 -37 46 72 73 319 -331 0
-37 8 22 23 24 26 -38 -331 0
129 1 4 -5 7 -16 -17 -81 84 85 0
605 -12 -13 -16 -83 -88 101 561 565 570 571 573 574 578 586 587 591 593 0
-20 7 -18 32 34 -38 46 -192 252 -331 0
-68 -38 -40 62 64 402 0
-19 -5 8 -18 32 34 -35 -38 247 260 -331 0
26 -7 8 25 31 34 -37 -38 -45 255 281 0
12 5 -6 -7 8 15 -16 -18 -34 -38 -45 0
-383 -51 -328 336 337 376 377 -405 0
338 -51 -328 336 337 -360 376 377 0
-421 -7 34 -37 -38 -471 -480 0
60 -16 -18 -37 -38 52 59 337 360 372 0
-29 -7 8 -28 32 34 -37 -38 -46 247 0
-51 56 59 336 339 342 344 353 0
-249 27 28 -42 -248 -328 0
-37 -7 8 25 26 34 -38 246 247 255 0
12 14 15 17 157 -328 0
-24 -7 8 15 17 26 -27 28 -34 35 -38 -46 271 0
-377 -7 8 -31 38 149 250 -341 0
-472 -42 -51 55 56 342 -488 0
-25 -7 8 21 -33 -35 -42 225 0
-215 21 22 24 26 -28 -42 218 232 0
36 -7 8 -24 25 26 -27 28 -34 38 146 238 272 0
-63 -5 62 65 129 135 387 398 421 422 -480 0
-28 -14 -18 -25 26 -35 37 38 -42 207 277 -328 0
106 104 105 561 581 583 597 601 602 604 0
-28 -8 -16 -25 -46 0
-495 85 480 501 502 503 0
-11 7 -16 -17 -31 34 38 255 0
-21 7 -27 -28 34 38 -42 -46 0
-593 -8 -104 105 -108 -324 564 572 579 0
585 7 -105 108 109 331 -471 -480 562 596 599 0
-129 -6 -104 108 109 -141 331 -471 595 0
110 105 108 -471 -480 562 596 598 601 0
108 -5 -6 46 105 331 -471 -480 562 598 601 0
-564 7 101 -105 106 331 561 562 588 0
-26 15 17 18 25 34 -36 231 236 237 246 247 255 277 278 285 -324 0
106 -5 -8 104 105 561 562 570 601 0
-27 -6 -8 -21 -28 52 55 353 0
73 -42 74 426 433 434 450 451 452 0
63 -42 64 381 388 389 0
-222 7 122 135 -228 -240 480 -481 0
582 7 46 105 331 -471 563 571 598 0
-218 26 -28 -42 -84 86 87 207 -240 0
103 -5 7 46 -82 105 331 -471 480 -481 0
-23 -4 -5 -6 -24 83 88 0
247 -8 -27 -28 34 35 38 -42 -324 0
-595 -24 25 26 -34 227 271 273 277 0
-72 -1 -7 45 46 426 438 440 457 0
-472 62 -331 411 423 424 -488 0
-12 -5 -7 -15 -84 85 135 497 0
-474 -5 -8 -51 56 -331 338 501 0
102 -5 -7 46 104 106 562 592 603 604 0
-106 3 4 6 46 123 586 591 596 0
-110 11 13 -14 15 -16 -34 -107 -142 -150 166 195 0
107 -5 -7 46 105 -106 573 578 598 0
599 4 -5 -7 -82 83 -84 85 -106 -471 563 591 597 598 0
12 11 14 18 85 -331 480 0
-78 -28 -30 71 72 443 0
103 -1 -5 -7 -8 101 104 573 597 601 602 0
85 3 -5 -7 -23 -25 87 135 0
-336 -51 52 345 346 347 352 376 0
-61 381 382 383 388 389 0
-595 25 -28 -34 35 37 38 -228 237 240 287 0
-281 -34 35 37 38 -331 0
-222 3 4 -8 -81 -82 -83 -157 0
-106 -5 101 107 122 580 597 598 599 0
561 -5 6 -8 46 -101 562 563 592 0
-106 101 105 573 578 596 597 598 0
-183 25 28 -173 -192 201 -331 0
432 4 -5 72 -73 75 77 79 80 461 0
-483 4 -5 313 475 -481 0
445 -42 -73 77 432 443 444 0
-347 -42 52 -55 337 338 0
-473 72 78 456 457 461 -488 0
71 72 443 456 457 458 461 468 469 0
68 62 -63 -331 384 385 398 406 411 0
-58 -18 -20 342 350 353 0
-52 3 -5 -21 -25 -42 -82 135 345 471 0
-195 11 14 15 17 -18 165 196 0
37 7 11 12 14 15 17 -34 35 38 147 -331 0
-246 -31 33 38 259 261 262 276 287 0
78 3 7 71 -73 75 135 0
-82 4 -5 7 -42 -84 88 135 -488 489 0
354 8 -55 338 374 377 378 379 -471 -481 0
75 73 78 433 434 436 461 0
68 -42 61 67 398 399 405 0
605 -55 -60 324 561 562 563 567 571 573 574 575 578 579 580 588 592 593 596 600 0
-75 45 46 72 429 451 457 458 548 593 0
-105 -5 -6 -34 38 -55 -60 286 287 324 564 575 579 585 605 0
-64 2 -5 62 65 -82 -84 135 383 398 411 421 422 0
-42 -16 0
38 31 36 257 -313 -331 0
74 72 -313 432 433 434 446 456 0
-324 17 18 45 0
-27 26 216 217 221 227 232 240 0
-78 -55 -58 -73 84 86 240 491 0
247 8 25 26 -33 34 35 -45 255 261 262 282 0
-39 -7 8 -24 -27 28 -34 -142 149 0
16 11 15 19 20 176 182 0
38 -3 6 8 34 255 338 0
-480 6 8 -12 -15 18 -22 26 28 0
-478 -11 15 -21 25 160 195 206 237 0
-51 -7 -8 -11 -18 52 340 343 344 353 0
12 -7 8 11 16 19 173 189 191 197 -324 0
32 -7 31 33 35 -38 39 40 0
28 5 8 -13 18 35 201 252 255 0
-55 -34 -35 -45 -270 315 336 337 345 0
33 -7 8 25 26 28 31 32 35 -38 283 284 0
-28 -6 8 25 31 34 35 -36 37 -38 240 255 331 0
-488 -5 -7 -8 18 -25 27 -35 -42 -84 0
-472 -42 -51 57 58 -328 -488 0
167 -5 14 16 17 18 -51 -331 336 338 340 342 0
-53 -21 -26 -51 -55 -83 88 481 490 0
-34 -5 -7 -8 -14 16 -38 0
331 21 24 -42 45 232 233 240 0
45 21 24 -26 28 -42 331 0
-105 -8 -42 -82 -85 564 585 592 597 598 603 0
-25 -5 -7 -11 18 28 -42 218 -328 480 0
101 2 4 -5 -7 -8 -104 105 578 602 0
-252 35 37 -38 39 250 254 0
-62 -12 -16 -46 211 -262 -313 381 391 393 396 397 420 471 488 0
-51 -4 -5 -46 294 341 342 0
-21 -5 -7 -11 18 25 28 -328 0
-236 21 25 26 28 212 219 -328 0
57 -32 -33 43 56 58 -81 345 -472 -488 0
-52 -6 -56 -58 59 336 345 346 0
103 -5 -7 37 -38 39 40 101 102 -104 105 597 599 602 0
7 8 55 82 -319 336 337 345 0
40 32 35 37 39 247 270 271 0
58 8 55 -319 -328 336 337 338 345 0
289 36 -38 39 246 247 255 270 271 285 0
-45 101 102 103 104 601 603 0
-339 8 -63 67 68 400 0
104 101 103 105 110 598 600 602 0
432 -42 73 75 77 451 0
-75 -42 -63 -65 -83 -84 429 0
-29 -23 -28 -33 35 36 -38 82 -83 -84 285 472 533 538 589 0
342 5 8 -10 -51 55 345 346 353 0
11 15 16 -54 -55 -84 195 -488 0
-105 2 3 -6 -7 -45 103 124 564 585 594 599 0
-102 31 -33 34 39 -42 -45 -103 281 0
-220 2 -5 -7 83 -218 -231 0
-271 -46 62 64 66 67 68 0
338 -42 -51 55 -328 337 375 0
58 8 51 56 -328 346 354 377 0
-4 -5 -6 -8 246 247 255 276 282 286 287 0
105 106 109 -471 600 602 604 0
28 -14 -17 25 26 -32 -34 206 -328 0
82 7 -16 18 42 0
-65 -43 -46 61 226 391 547 592 0
67 61 62 65 66 -313 0
-105 -43 -55 59 -471 -481 579 592 593 598 603 0
-443 -73 74 -319 428 0
110 105 107 -471 596 597 598 603 0
-313 7 34 246 251 259 -328 0
-345 61 -62 68 -319 -356 392 0
-72 -1 7 75 426 435 436 0
-387 -51 -328 336 338 354 -420 0
78 -2 7 74 -103 -105 -319 426 444 0
-28 24 201 222 233 240 -328 0
-61 381 382 384 386 387 406 0
387 -42 63 64 411 -420 0
-387 3 -8 -81 -82 -83 -85 0
-135 3 4 121 -141 -482 0
-270 -1 -5 -8 -34 -52 -57 150 -324 0
66 62 64 65 382 384 420 0
-74 -55 75 -81 -82 -83 -85 453 461 -480 0
63 -37 -38 -40 62 383 411 0
-585 -104 105 106 564 572 579 589 0
-55 -64 -81 -85 406 420 -472 -480 -489 0
17 16 -81 -82 112 -132 166 -324 0
68 -42 63 66 67 384 0
375 -3 -5 -45 -51 52 55 56 337 0
-15 -42 161 166 167 174 188 527 572 0
19 13 15 16 20 161 166 0
-26 205 213 220 237 -328 0
-207 14 -18 177 201 -480 0
35 38 -42 247 272 324 331 0
106 -5 7 -8 331 -471 -480 562 585 588 593 602 0
3 4 -5 7 84 85 105 107 -108 331 -471 0
-73 3 4 -5 84 85 87 240 427 450 0
-105 -5 -8 -34 -35 561 562 570 585 591 592 604 0
73 -42 77 432 450 451 452 456 0
-110 15 17 -18 21 26 -28 -42 -104 215 218 228 231 232 236 0
36 34 -37 251 255 278 284 286 287 0
-578 7 46 103 108 331 561 562 601 0
-87 -7 -81 -83 104 -105 106 -107 488 603 604 0
-28 15 16 -18 -21 84 89 90 173 195 0
-207 -8 15 16 -18 -81 -82 195 -203 0
105 -5 7 -8 104 561 562 570 604 0
-207 17 -18 -82 -83 173 192 201 -324 0
602 7 84 87 106 331 -471 -472 484 -485 490 585 601 0
-106 -5 -7 46 -105 122 129 580 586 596 603 0
-587 -8 -104 105 106 331 566 574 581 0
-15 -5 -7 -8 12 13 18 -34 -328 331 0
-1 -5 -7 -11 16 18 -471 0
-197 8 25 26 28 -328 0
37 -7 34 36 -81 -82 279 280 -471 -480 0
-197 8 34 35 36 -38 246 247 255 0
-196 -7 34 35 -38 150 -328 -471 -480 0
-34 -5 -6 -105 -107 273 -331 0
-24 -5 -6 28 -105 -107 226 -331 0
27 -5 -6 28 30 -107 -110 231 235 238 239 0
-23 -5 -6 -104 -107 220 222 -331 0
-136 23 27 28 -141 201 0
-110 8 25 27 28 -104 -106 -220 -331 0
-147 -6 -136 146 246 247 255 270 276 286 287 0
-109 8 34 -38 -46 -110 246 247 255 277 0
106 -46 104 105 108 561 562 570 0
-110 -7 8 -13 -104 -109 0
-377 -7 11 13 14 15 16 -18 150 182 0
285 34 -38 39 40 246 247 255 276 0
278 -6 8 -18 34 -38 188 195 246 247 255 283 285 -331 0
-284 -5 7 25 27 28 147 -331 0
4 3 -5 -6 84 85 -106 -108 0
-603 16 -18 19 20 -597 0
-106 -4 -5 -34 -38 561 562 570 586 596 604 0
-64 51 52 53 57 -66 -68 276 0
105 -5 -6 7 84 85 -108 129 135 -471 0
-270 -34 35 271 279 280 285 0
-4 -5 6 -7 8 -25 28 105 -108 247 -471 -480 0
-78 15 16 17 -18 72 428 447 469 0
13 -7 8 12 14 16 18 -328 0
-13 16 18 174 176 0
12 -7 8 13 16 18 158 -328 0
-9 8 -17 18 -24 -27 -34 38 276 -328 0
-13 -5 -7 16 18 -104 -108 0
-107 105 106 108 566 574 581 602 0
-34 -5 -7 -14 16 18 36 270 -328 0
-56 -3 8 249 -328 337 348 353 0
58 8 -42 51 -328 341 342 347 377 0
-108 8 105 106 -472 -480 -491 561 603 0
33 -7 31 -38 -42 270 272 -328 331 0
30 23 25 26 -28 29 -83 87 201 232 312 447 483 488 0
131 4 -5 -7 84 85 104 106 -107 109 110 -472 0
-185 -4 -7 8 16 18 180 187 0
-242 8 25 -28 -37 -38 149 237 240 0
-236 26 -28 201 220 226 238 239 -240 0
-240 -42 -46 55 -207 324 331 0
-109 -15 -18 -26 -28 -34 -105 -331 0
-30 8 -26 -28 51 52 -331 347 353 0
162 12 13 16 -18 166 180 -331 0
11 12 13 16 173 180 -331 0
-374 8 22 23 24 25 -146 -237 242 0
-400 14 16 18 -331 -398 0
-36 23 24 27 -28 -38 -46 201 0
17 16 18 158 167 174 -328 0
-234 -7 8 -13 177 -219 0
105 561 562 570 586 588 589 598 599 602 603 604 0
-15 6 -7 18 -25 26 -28 201 -270 -328 336 0
-103 105 562 570 578 597 598 602 0
104 -5 8 -25 -28 -46 103 105 331 561 562 570 591 597 0
-105 -5 -7 -25 -28 -34 -35 104 106 561 562 570 602 0
84 -42 0
-385 -73 -387 435 443 444 -445 446 456 0
17 16 18 167 174 180 331 0
-187 15 16 18 167 174 180 0
28 -17 -19 25 -46 241 242 0
38 8 -42 249 270 277 -328 0
-15 -5 -7 8 18 25 26 27 -28 -35 -38 238 0
-83 17 -18 -42 -82 183 -324 331 0
-40 -6 -7 8 -26 28 -38 -56 -58 -146 0
-73 7 -12 -15 443 444 447 0
236 23 25 -26 28 -42 -206 0
402 -63 399 400 -420 0
561 5 -46 103 331 578 585 586 591 0
106 -1 5 -46 -84 85 103 490 564 605 0
-28 -6 -7 -8 -21 -81 313 480 483 488 0
161 18 165 166 167 173 174 180 -328 331 0
-62 -42 381 399 400 405 406 420 0
561 7 105 331 578 580 582 586 588 589 597 602 0
387 -42 384 386 398 399 400 405 406 420 0
33 31 38 -42 249 270 -328 0
-35 -27 -28 -37 331 0
-399 -8 14 15 -42 87 -143 162 195 252 -411 480 0
-222 -5 -129 -240 -328 0
-65 -24 -26 -42 -46 -226 383 0
-26 -25 213 219 225 237 238 239 0
-231 -25 26 237 -328 0
-495 -7 -8 -21 -28 -42 -46 371 375 -488 0
-15 -25 -28 159 174 180 -328 0
-195 11 15 16 169 176 -183 -331 0
-29 -6 8 15 17 -18 -26 -28 0
-498 16 -45 158 -161 162 183 192 -488 0
-147 15 -18 -28 35 -38 -150 233 -324 0
-15 11 16 174 180 -324 0
51 -8 -27 -28 -42 -45 372 -411 0
-285 1 -8 11 16 -18 192 -272 -324 0
-166 11 13 15 -18 -83 87 -195 471 490 0
247 -8 -17 -18 34 35 38 -42 282 -324 0
105 7 -45 46 -81 -82 -84 -88 -471 563 0
103 7 46 331 561 563 567 571 575 588 601 0
101 -7 46 106 107 570 571 578 589 603 604 0
-106 105 565 570 586 596 597 598 0
101 -7 105 106 570 586 587 588 589 603 0
-71 5 -51 -57 142 386 426 428 429 447 0
-25 28 -42 219 225 -324 0
-24 5 -6 -7 8 25 28 -34 35 36 39 0
-15 -7 8 13 46 167 180 0
-488 -42 -129 -411 0
-59 8 15 16 17 -45 546 0
-129 -42 -411 0
-60 -28 -30 -36 -38 -45 377 591 0
-406 -84 87 88 -411 480 0
37 38 -42 264 270 284 -328 0
-25 -42 204 213 225 232 233 331 0
105 4 5 -7 45 -46 82 85 86 103 106 495 578 601 603 0
-36 -6 -8 -21 25 26 -31 -35 0
-35 -5 -7 -18 25 26 -46 82 270 0
73 72 -84 -88 285 428 432 456 457 461 0
-199 -5 8 25 -28 -37 -38 -188 237 0
-67 8 62 63 331 386 422 0
51 8 -42 58 348 349 350 374 377 0
-67 8 -27 -28 -33 -38 62 331 383 422 0
81 -33 -34 35 36 37 61 62 64 82 0
422 -7 8 65 331 381 387 391 392 395 398 400 406 0
63 -11 18 -21 25 26 27 -42 62 64 161 162 187 0
-582 86 481 491 -593 0
109 104 106 107 110 561 570 578 593 0
-104 106 571 578 585 587 588 0
108 7 103 -104 105 106 331 561 602 0
-251 -21 23 25 26 -42 -272 0
-174 -28 -42 -159 -187 213 218 -222 233 -328 0
-51 -2 -5 -8 204 -328 336 338 341 475 0
-38 -42 132 273 278 285 -328 488 0
-498 11 -15 18 180 191 -328 -488 0
7 -15 -42 -411 0
-34 5 23 25 45 201 270 272 -328 0
-38 34 -42 252 278 282 285 0
219 -25 -42 207 213 225 232 237 238 239 240 0
-23 -5 -8 -13 -15 219 220 -331 0
-252 -4 -6 -7 -8 -81 83 86 0
37 34 38 -42 246 249 -328 0
103 5 45 -105 106 -150 331 561 563 571 601 0
-63 67 399 400 402 0
105 5 -7 -8 -46 331 561 563 571 580 0
12 -7 -8 11 14 18 -23 25 -328 0
564 5 -46 103 -105 106 -561 603 0
-8 -15 -42 -46 -411 0
375 -42 -83 -85 -101 -103 -328 337 354 360 0
-207 -15 -42 -46 -411 0
267 -7 21 26 -28 -38 -42 82 246 249 285 -328 331 -488 0
107 8 103 104 105 106 603 0
-434 16 17 18 62 -159 398 399 400 405 406 420 0
8 -7 -15 18 46 0
-6 -5 14 -15 17 18 -42 -83 -87 0
26 -15 -42 -411 0
74 -11 17 18 -21 25 -42 73 162 206 237 426 0
-15 -42 -411 0
-495 11 15 16 19 20 -488 0
-105 564 579 585 591 592 594 604 0
-381 -42 -61 62 392 393 398 420 0
-20 4 -5 -18 -73 427 435 444 446 461 0
-68 15 16 17 61 62 398 424 0
-52 -42 336 347 348 375 0
-59 11 14 15 16 -17 -57 165 189 190 0
215 25 26 202 228 -331 0
-263 -34 268 269 270 281 282 285 0
-35 249 257 270 276 278 -331 0
-342 7 -14 -15 73 -319 -336 439 0
-31 -6 -7 -8 -38 -51 52 -319 354 0
-11 -6 -7 -8 -51 -56 -324 0
33 34 36 -38 -45 246 252 285 0
-73 77 -319 427 435 447 456 0
-386 61 68 69 381 382 390 410 411 0
-595 -34 42 43 -147 -150 270 590 0
-77 -1 5 -82 -83 -319 386 439 0
23 5 -8 -34 -38 -45 201 0
13 3 4 -7 14 16 -17 -45 195 426 0
-51 -11 -15 54 114 337 343 344 0
-7 -45 -147 -319 -336 0
-218 -34 81 84 -221 270 271 0
-105 109 564 571 580 592 593 595 0
206 23 25 26 -42 228 0
-289 15 16 17 -18 26 27 -45 -324 0
-3 -5 -6 -8 102 103 -104 108 110 0
-247 35 37 -38 42 -246 250 -260 0
36 -7 -14 -17 31 32 35 37 -45 0
563 -7 46 102 103 -104 105 108 599 601 0
-252 -42 74 77 -267 456 0
-221 4 -7 15 16 18 182 -324 426 0
-34 23 26 -28 -38 -45 201 241 242 0
102 101 103 109 110 586 600 0
-68 -42 61 -87 282 402 0
-61 -42 68 382 385 386 387 405 0
-110 5 8 18 103 104 105 106 0
-71 5 73 386 429 430 432 0
102 5 -23 -26 -45 101 -105 109 -488 0
18 5 8 -42 0
-27 5 8 -17 -42 0
432 -71 83 313 427 429 474 498 0
71 -42 74 444 447 -456 0
-19 -6 8 -18 26 27 -28 -36 -38 -45 0
31 32 34 35 37 283 284 0
-17 5 8 -42 0
-10 5 -18 -20 25 -28 -38 0
-58 -42 342 357 363 0
-58 -18 -20 43 -82 357 379 480 0
-427 -71 73 444 445 446 447 0
-59 8 -12 -14 -42 58 -83 0
51 -12 -14 -42 58 82 371 0
207 24 25 -28 29 30 -201 236 0
382 -18 -20 -37 -38 62 68 -267 -285 383 390 398 411 421 0
8 5 -42 0
-18 5 -28 -40 -42 0
-24 6 150 225 228 229 232 235 242 0
-82 -84 88 482 484 496 0
24 25 28 -42 221 -328 0
17 15 16 162 170 173 195 0
23 24 25 26 -42 240 -324 0
-15 8 -18 -25 -42 -328 480 0
38 -7 8 -23 -25 -42 249 0
28 8 18 25 -42 -46 480 0
24 23 25 26 201 241 242 0
-4 -5 -7 8 16 18 -185 0
375 -42 53 54 55 -328 0
-63 386 393 398 399 402 403 404 0
28 -5 -7 8 -11 -17 82 213 0
-73 -2 -7 -42 206 443 444 445 447 0
-74 1 4 -5 73 78 82 450 452 0
105 101 103 104 597 599 601 0
105 -6 -7 101 103 104 331 601 603 0
-19 15 -25 -28 -35 -37 -106 -110 -328 0
23 21 26 27 -42 225 240 -328 0
55 5 -8 -46 52 338 342 353 356 0
-18 162 170 177 180 195 -328 0
-38 -23 -28 -42 132 270 285 -328 488 0
103 -7 -42 101 104 0
8 -7 -37 38 0
174 -15 16 159 170 180 187 0
-21 6 -11 16 -25 -28 0
-162 -46 -51 55 -195 0
-20 8 -17 -18 -25 -28 -35 38 276 0
102 4 -5 -7 -84 85 101 -103 104 105 488 597 0
-18 14 -82 -83 -84 162 -440 0
-429 54 -55 347 -427 0
-51 52 53 58 336 338 339 377 0
15 16 162 165 166 173 -331 0
-429 -61 381 382 383 420 -456 0
-71 72 432 433 434 443 450 456 457 461 0
-358 -33 81 266 267 276 481 -488 0
-389 14 17 18 23 25 26 27 -42 165 0
-184 82 103 -105 106 107 108 109 0
-68 15 17 -18 -42 51 -58 59 -62 0
11 15 16 165 166 173 -331 0
-51 -5 -8 -61 -66 141 339 0
-67 -7 -11 -18 -331 394 398 0
-64 -36 -38 66 67 405 497 0
-35 34 -42 249 264 278 0
-74 73 -84 -88 285 450 451 452 0
-386 -61 64 382 394 421 422 0
-341 -51 55 58 59 -331 349 353 0
-74 -12 -15 -42 73 -83 432 450 452 0
66 46 62 65 68 -331 0
-61 -38 -42 -331 0
488 -11 -18 -42 117 0
-283 7 21 22 24 -25 26 27 -28 -282 0
-434 16 17 18 -38 -159 251 -252 282 0
-9 -283 0
-9 -279 0
393 -55 -62 -331 381 391 395 420 0
413 62 63 66 -331 384 387 398 0
-13 -7 8 18 -45 -104 -110 0
9 -5 -7 8 -28 -38 39 -244 0
36 -7 8 -24 25 -27 28 -34 35 -324 0
563 -6 -7 -46 105 106 570 0
110 -1 -6 -7 103 104 106 109 0
271 -7 -10 -24 -27 -34 35 0
-197 8 17 18 -328 0
201 8 -25 -26 -28 -34 38 0
-33 8 -38 51 55 84 -319 0
237 -6 8 -24 -26 27 -34 -39 0
377 8 54 372 -471 -480 -489 0
357 8 52 337 340 342 353 360 374 377 0
356 -51 54 -328 339 342 349 0
19 15 17 -18 20 23 -26 27 28 29 30 -34 -38 390 0
-30 -4 -28 -34 -38 -46 0
22 23 24 26 -36 -38 -46 0
234 -5 -25 -26 207 213 225 235 480 495 0
376 -6 -17 -18 51 55 -57 377 0
-80 51 54 -58 -78 345 0
1 4 -6 11 14 15 17 18 0
574 103 -104 105 108 109 563 599 0
241 15 16 18 26 -27 -28 -137 206 233 242 435 0
39 -25 -28 -30 36 37 0
-599 11 12 14 16 17 -25 204 225 0
283 31 34 35 37 255 -374 0
445 -22 -26 -52 -53 -73 444 447 0
223 26 -142 -152 201 222 228 229 243 0
210 11 14 15 16 17 -32 -33 0
214 -27 206 218 240 241 242 0
406 62 65 67 68 382 0
337 52 53 -54 -353 0
354 52 56 57 342 360 0
379 52 56 -60 339 -375 0
379 52 56 -60 337 338 -375 0
374 52 59 341 342 353 354 360 377 0
343 52 60 337 354 360 371 372 375 0
352 -52 -61 -62 -81 351 0
414 63 -65 384 405 415 0
385 61 -62 83 -381 384 420 0
385 7 42 43 -51 58 336 337 339 0
114 7 82 85 88 135 0
582 7 102 104 105 331 0
593 7 102 103 104 331 0
108 7 101 102 104 106 331 0
575 7 105 331 570 571 578 582 588 0
128 3 7 112 120 -129 0
123 7 83 135 480 495 498 0
-389 -11 16 17 -31 36 162 251 0
581 83 -85 101 -105 106 108 605 0
567 -105 106 572 579 585 592 0
571 101 103 106 107 110 603 0
600 101 103 104 106 110 601 603 0
578 -105 106 107 108 110 -336 -347 0
575 -105 106 561 564 570 582 585 592 605 0
593 103 -105 107 109 110 561 563 571 0
352 -51 53 57 58 59 338 339 0
339 -51 58 336 337 338 340 0
350 56 57 59 60 353 354 360 0
446 -53 -57 72 -73 232 444 447 0
349 -57 59 341 353 377 0
381 -37 -40 63 64 68 411 0
286 -37 246 247 255 272 285 287 0
446 -61 -66 -73 -81 -83 444 447 0
-123 -83 88 -141 489 0
-169 -83 87 -182 471 490 0
-168 -2 -83 85 0
364 -59 343 345 347 358 376 0
364 -59 339 341 351 358 0
369 -59 343 351 378 0
57 56 58 84 -85 0
60 56 57 58 59 336 353 0
271 31 32 33 -36 0
350 -16 -20 51 53 54 -331 0
1 7 11 -16 18 136 181 -331 0
-32 -16 -18 -38 51 55 -331 353 0
-19 -16 21 25 28 -104 -105 -110 -331 0
387 -6 -14 -16 -56 -58 62 -68 -331 0
32 -5 -6 -11 -16 34 -38 -313 -331 0
393 -14 -16 -32 -36 -62 63 -331 395 0
-472 34 35 36 -38 -331 -480 0
258 34 -38 246 250 278 -313 -331 0
338 -6 -8 -31 -38 -51 -331 336 337 0
32 7 16 17 18 31 34 36 37 -38 -331 0
11 -8 16 -34 -38 -331 -488 0
2 -5 -62 129 -331 381 390 391 395 0
405 4 -5 -62 -64 68 -83 -84 -331 0
406 61 -62 68 -313 -331 405 411 0
411 -5 11 15 16 17 61 62 68 -331 0
167 -5 -6 -15 -34 -106 -109 174 -331 0
2 3 -5 -62 -313 -331 381 391 395 420 0
2 4 -5 62 -82 -84 -313 -331 387 398 405 411 0
158 3 -5 -8 -18 -51 -52 -56 -82 -84 159 -282 -331 0
11 -8 -17 -18 -331 -480 -488 0
201 -6 -8 25 -104 -105 -109 -331 0
36 -8 -18 35 -331 0
-353 51 55 58 -331 0
350 51 54 56 -331 354 0
363 51 -313 -331 338 346 350 -372 0
250 -3 -6 62 63 -67 -331 0
111 -11 -12 23 24 25 26 -331 0
255 -12 -13 21 24 25 26 -331 0
237 21 23 24 25 -331 0
217 5 25 205 207 216 218 -331 0
230 23 25 26 27 201 229 -331 0
-497 11 15 18 21 22 -26 27 -331 0
70 25 26 27 61 64 66 -331 381 393 399 401 0
388 62 67 68 387 389 398 399 405 0
13 11 14 18 -22 -26 -331 390 0
215 23 -25 26 201 207 225 -331 0
209 23 -25 26 28 214 216 225 231 -331 0
-440 -18 162 183 188 192 -331 0
-114 -17 -18 85 -331 440 488 0
-440 14 15 16 -18 -82 -83 -84 -331 0
281 -18 35 -56 -59 -331 0
392 66 68 -331 381 -472 -488 0
384 62 64 66 -313 -331 0
381 64 68 -313 -331 387 411 0
-385 61 62 65 -68 -313 -331 387 0
-164 -11 15 16 20 -162 197 0
-51 15 -42 -331 0
-445 4 -5 61 62 -64 -66 -71 82 -83 -84 400 426 -427 432 443 444 461 481 0
567 4 -5 62 -64 -84 103 105 106 107 383 405 420 578 0
-107 -5 -6 -15 -18 38 39 40 106 574 587 592 602 0
102 104 105 106 107 567 0
-29 8 11 14 -15 16 17 -28 165 -237 0
67 51 52 -55 -63 -65 68 69 381 398 411 472 481 -488 0
-424 -1 -5 14 16 17 -18 25 26 27 165 336 0
-12 -5 -6 -15 -42 74 75 432 0
107 -13 -20 103 105 106 109 262 570 604 0
-42 -331 0
72 42 71 74 -443 0
18 15 157 168 181 -331 0
-26 22 25 30 205 218 236 238 0
35 38 281 283 284 -331 0
46 45 71 73 -75 -272 436 0
33 31 34 35 36 246 -331 0
-272 45 46 73 74 -75 426 0
61 -33 -38 51 -52 84 -319 -331 0
-360 -34 35 38 43 -331 0
14 4 11 15 -16 18 45 83 85 -191 195 0
-51 -7 -8 -21 -28 336 340 358 359 360 0
-57 -313 -331 336 360 375 0
58 52 57 -313 340 360 0
-61 -2 -5 -7 45 46 63 71 -72 73 -76 -77 -80 -87 -313 -411 440 -488 597 598 0
-237 -8 15 162 -207 -331 -488 0
46 6 -81 105 -108 -473 -488 -497 597 0
-34 42 43 -46 -142 -150 405 540 585 0
-21 6 -8 -28 -31 38 -328 0
37 -4 6 -8 34 38 165 255 -328 0
-18 -7 -8 -31 -37 165 183 188 -328 0
-42 33 34 35 277 285 -328 0
-103 3 -5 -10 -82 -83 -105 -106 0
55 -36 -37 43 57 -331 336 337 345 374 0
43 7 8 24 -28 29 -34 38 104 -105 -110 277 -471 -480 0
36 -3 -5 34 38 255 -331 338 0
26 6 201 -218 225 228 -331 0
28 1 2 -6 25 205 213 -331 0
-11 15 -16 -21 35 -38 161 191 232 251 -252 282 0
-15 11 14 -22 -25 174 345 0
160 15 -18 166 175 195 198 199 0
383 62 68 -313 -331 381 411 0
-106 -64 -66 -82 -84 565 580 591 0
-26 27 -35 -36 201 220 226 -331 0
-105 106 550 564 572 579 592 603 0
-24 25 -43 45 46 -166 226 0
-26 -12 -16 23 24 25 236 237 390 0
-26 23 205 226 231 237 -331 0
38 -104 -106 -107 -110 -146 276 283 -319 -331 0
-36 34 250 282 284 -480 -493 0
-381 -55 63 -65 -319 354 0
-16 12 160 175 181 0
-11 8 -152 162 163 0
-14 -5 -7 8 16 -24 -29 183 0
18 -4 8 11 -46 165 0
-24 -4 11 13 16 -18 25 26 27 -28 166 187 0
106 105 -471 -481 578 581 583 597 601 602 604 0
-9 8 18 -52 -60 197 -328 573 0
-33 37 40 264 265 268 0
11 -5 14 -15 16 18 114 135 -142 0
-32 24 26 28 -30 -37 -38 -82 -84 -199 232 -242 0
-68 -84 -87 282 387 395 402 0
-35 1 4 -5 -38 -53 -54 -58 0
-422 8 25 28 -46 0
-488 -5 -11 25 -82 331 0
-25 201 219 225 231 234 235 240 0
26 -5 8 -15 -25 -28 -106 -174 -328 -471 599 0
-580 3 4 -5 14 -15 16 17 18 -471 0
-110 -9 105 -471 602 604 0
-18 -8 -38 177 183 -328 0
85 11 -17 -42 82 86 87 -489 0
-180 11 14 -15 87 88 173 481 0
-37 32 38 251 266 277 -328 0
20 13 15 16 -18 -23 -24 25 -28 -34 36 38 161 162 165 166 183 220 221 277 -328 0
344 7 -12 -14 -27 -28 -46 -51 52 58 59 82 331 347 0
377 -12 -14 52 56 58 59 82 -341 347 375 0
-208 15 -18 -24 -28 -34 35 38 162 165 183 -203 -207 261 281 -328 0
208 -8 11 14 15 -18 -21 -24 25 26 -28 -34 37 -42 165 226 0
-218 -8 15 17 -18 25 26 31 -34 36 38 -42 82 188 192 195 206 207 -240 276 -328 0
62 -42 68 82 -89 386 387 388 389 411 422 0
15 7 -34 38 -42 -46 82 -341 0
-23 4 -5 -8 14 -15 16 18 20 -28 196 336 0
-344 7 -34 38 -42 -46 82 -341 0
-14 7 -34 38 -42 -46 82 -341 0
65 -5 -42 63 66 67 82 135 387 420 0
73 7 -11 -12 -15 -21 25 -34 -37 -42 -46 63 82 135 136 162 281 337 340 -341 342 343 344 345 356 357 371 387 420 426 432 433 434 0
-73 7 -12 -15 -42 -114 426 433 434 443 445 447 0
78 7 -34 -35 72 73 432 433 434 0
27 -1 7 14 -15 21 31 -34 38 -42 82 87 -267 -328 490 573 593 0
-23 7 -34 38 -42 -46 82 -341 0
-274 21 22 23 -24 25 26 -28 81 82 -263 583 0
-109 105 561 583 589 598 602 603 0
-105 7 17 18 31 -34 -35 37 38 -42 180 -328 578 591 593 0
108 -3 7 -12 14 -15 31 -33 -35 38 -42 82 105 106 109 161 166 169 176 265 277 -328 -561 0
-106 -3 7 82 85 105 331 580 586 0
-12 7 21 -34 38 -42 -46 82 -341 0
561 -2 7 82 105 331 489 490 491 580 582 586 588 602 0
1 7 21 -33 -34 38 -42 -46 82 -341 452 0
-46 -1 7 21 -33 -34 38 -42 82 452 -495 0
-73 3 7 135 443 444 447 448 449 0
-73 3 7 -8 -27 -28 -33 82 135 444 447 0
-52 7 -11 -15 -51 105 331 578 582 588 602 0
-492 7 -15 -17 -34 -35 37 38 -42 -187 195 -488 561 573 0
582 7 23 25 26 -28 -34 37 38 -42 -46 -51 -52 -228 -336 341 573 578 588 591 0
-104 105 110 561 578 587 588 598 0
58 7 -11 15 -17 -28 -42 51 -143 195 207 228 -328 -336 -488 0
-14 -5 -8 16 -24 -28 182 0
227 7 -11 -18 23 25 -42 221 0
37 7 -8 -21 -28 34 38 -42 0
-243 15 16 -18 -27 -28 35 36 -37 38 -240 0
215 -18 21 23 25 26 -27 -28 35 36 -37 38 188 192 241 259 -266 0
55 -6 -8 -11 -18 -42 57 341 372 0
199 7 -8 -11 -18 -22 25 26 -27 -28 34 -37 38 -42 81 82 -162 195 285 337 349 350 394 395 427 440 472 0
55 7 15 -17 -42 51 52 377 0
17 16 -78 -79 188 -324 0
-11 18 159 160 161 0
73 -1 7 -42 -82 428 429 432 437 450 0
-53 -2 7 -25 -42 -57 88 341 0
-54 -42 -57 -58 61 63 405 0
105 7 46 -82 331 -471 480 -481 580 581 583 604 0
67 62 -63 384 400 402 405 0
-55 1 3 -5 -45 51 347 353 360 0
-236 25 26 28 238 239 0
25 -13 -14 28 -42 -82 -88 -328 0
58 7 25 -42 51 55 201 202 203 207 218 -324 0
106 7 -103 105 331 -471 563 567 575 588 0
27 23 25 -42 -46 207 0
105 7 -42 -82 -162 488 0
25 28 -42 -46 206 221 0
-28 7 -42 207 218 221 227 0
-162 7 -42 -82 488 0
85 1 4 7 11 14 -15 -42 136 -328 488 0
572 7 -42 -82 85 -105 110 488 564 585 603 0
107 104 106 109 110 -471 -485 0
13 7 11 14 -15 -42 105 195 -471 563 571 0
-108 7 15 18 -42 105 561 582 588 0
-106 1 -5 -12 -13 -103 -105 0
20 15 16 18 171 176 184 195 0
-604 16 18 20 -597 0
35 36 38 -42 251 272 0
604 1 4 -6 -13 -17 -103 105 106 -108 109 -141 -147 -471 0
-104 4 7 14 15 18 -42 85 -103 480 0
-252 -5 -8 -81 88 150 480 495 0
-38 -23 -28 36 -81 -84 272 278 488 0
-51 -6 -8 34 35 37 -38 255 336 337 338 341 342 0
-28 7 -42 -82 488 0
14 -8 15 16 17 -81 138 162 188 0
15 16 17 162 170 173 196 197 0
196 11 16 -17 18 20 167 173 0
18 11 12 16 173 180 -324 0
-4 7 38 -42 -46 249 251 269 -272 -473 -481 -498 579 0
-15 1 7 11 -17 -25 28 -42 -46 85 206 -481 488 0
34 -42 246 247 251 266 278 -328 0
-279 -14 -25 -34 -35 181 231 233 -270 -277 0
-341 7 -42 -82 488 0
-347 -42 52 -55 336 338 -354 0
105 7 -82 331 -471 480 571 580 582 588 604 0
-17 7 15 25 38 -42 -82 -328 488 0
-58 7 15 17 -18 -42 195 -324 341 350 354 360 379 0
-586 1 7 136 -578 0
-35 7 15 25 -42 -82 488 0
-272 1 -2 7 11 -14 15 17 25 28 35 -37 -42 201 -206 221 256 -324 0
-21 -2 -6 -26 -31 32 34 38 -324 0
52 -21 25 26 -27 28 -42 55 -103 -108 338 341 344 372 377 0
-24 -4 7 -21 25 26 -27 28 -42 46 83 -103 109 -136 228 338 341 -471 563 578 591 593 0
-20 7 -12 -18 -42 -103 104 105 -324 428 436 443 456 457 488 0
17 7 15 25 -42 46 -82 221 488 0
-4 7 15 25 -42 46 -82 221 488 0
55 1 4 7 34 35 -38 -42 -45 -81 246 247 336 338 341 0
-161 7 15 25 -37 -38 -42 46 51 -82 221 488 0
105 4 7 15 18 -42 46 -82 85 562 580 581 583 0
-7 -42 142 150 0
-18 1 -8 16 138 162 170 173 188 195 0
-105 3 -4 7 -42 46 55 87 -103 281 -324 371 432 452 488 498 0
-105 7 -24 -26 -42 -85 -103 488 585 593 0
7 21 -26 -42 488 0
-495 -7 -42 103 -105 -473 0
103 21 -26 -42 488 0
8 -5 -7 25 -26 28 0
22 21 25 -26 -42 105 488 0
5 -22 -42 -324 0
