p cnf 33612 43983
32944 0
895 -32944 0
32943 -32944 0
1192 -32943 0
32942 -32943 0
2103 -32942 0
32941 -32942 0
3368 -32941 0
32940 -32941 0
5265 -32940 0
32939 -32940 0
7121 -32939 0
32938 -32939 0
9007 -32938 0
32937 -32938 0
10343 -32937 0
32936 -32937 0
11892 -32936 0
32935 -32936 0
14020 -32935 0
32934 -32935 0
15435 -32934 0
32933 -32934 0
16885 -32933 0
32932 -32933 0
18569 -32932 0
32931 -32932 0
19812 -32931 0
32930 -32931 0
21156 -32930 0
32929 -32930 0
22761 -32929 0
32928 -32929 0
23800 -32928 0
32927 -32928 0
24557 -32927 0
32926 -32927 0
25435 -32926 0
32925 -32926 0
26310 -32925 0
32924 -32925 0
27033 -32924 0
32923 -32924 0
27720 -32923 0
32922 -32923 0
28418 -32922 0
32921 -32922 0
28757 -32921 0
32920 -32921 0
29632 -32920 0
32919 -32920 0
30397 -32919 0
32918 -32919 0
30842 -32918 0
32917 -32918 0
31412 -32917 0
32916 -32917 0
32561 -32916 0
32915 -32916 0
-32596 -32915 0
32914 -32915 0
32913 -32914 0
-32611 -32913 0
32912 -32913 0
-32612 -32912 0
32911 -32912 0
-32647 -32911 0
32910 -32911 0
32909 -32910 0
32908 -32909 0
-32676 -32908 0
32907 -32908 0
-32677 -32907 0
32906 -32907 0
-32678 -32906 0
32905 -32906 0
32904 -32905 0
-32693 -32904 0
32903 -32904 0
-32694 -32903 0
32902 -32903 0
-32708 -32902 0
32901 -32902 0
32900 -32901 0
32899 -32900 0
-32737 -32899 0
32898 -32899 0
32897 -32898 0
32896 -32897 0
-32753 -32896 0
32895 -32896 0
-32754 -32895 0
32894 -32895 0
32893 -32894 0
-32769 -32893 0
32892 -32893 0
32891 -32892 0
-32784 -32891 0
32890 -32891 0
32889 -32890 0
-32799 -32889 0
32888 -32889 0
-32800 -32888 0
32887 -32888 0
32886 -32887 0
-32815 -32886 0
32885 -32886 0
-32816 -32885 0
32884 -32885 0
32883 -32884 0
32882 -32883 0
32881 -32882 0
-32846 -32881 0
32880 -32881 0
-32847 -32880 0
32879 -32880 0
-32848 -32879 0
32878 -32879 0
-32849 -32878 0
32877 -32878 0
-32850 -32877 0
32876 -32877 0
-32851 -32876 0
32875 -32876 0
-32852 -32875 0
32874 -32875 0
-32853 -32874 0
-8080 31819 32853 0
-7856 22024 32852 0
31770 -8052 32851 0
21989 -7856 32850 0
31735 -8024 32849 0
28991 -7856 32848 0
31700 -7996 32847 0
21954 -7856 32846 0
-9782 22024 32816 0
-9978 31770 32815 0
-9782 21989 32800 0
-9950 31735 32799 0
-9782 28991 32784 0
-9922 31700 32769 0
-9782 21954 32754 0
32752 -8080 32753 0
-9999 -32752 0
-32751 -32752 0
32750 -10000 32751 0
-32750 -9996 0
-32750 -32749 0
32749 32748 -9997 0
-32748 -9993 0
-32748 -32747 0
32747 32746 -9994 0
-32746 -9990 0
-32746 -32745 0
32745 32744 -9991 0
-9987 -32744 0
-32744 -32743 0
32743 32742 -9988 0
-32742 -9984 0
-32742 -32741 0
32741 32740 -9985 0
-32740 -9981 0
-32740 -9982 0
32736 -8052 32737 0
-9971 -32736 0
-32735 -32736 0
32734 -9972 32735 0
-32734 -9968 0
-32734 -32733 0
32733 32732 -9969 0
-32732 -9965 0
-32732 -32731 0
32730 32731 -9966 0
-32730 -9962 0
32707 -8024 32708 0
-9943 -32707 0
-32706 -32707 0
32705 -9944 32706 0
-32705 -9940 0
-32704 -32705 0
32703 32704 -9941 0
-32703 -9937 0
-32702 -32703 0
32701 32702 -9938 0
-32701 -9934 0
28831 -9950 32694 0
32692 -7996 32693 0
-9915 -32692 0
-32691 -32692 0
32690 -9916 32691 0
-32690 -9912 0
-32690 -32689 0
32689 32688 -9913 0
-32688 -9909 0
-32688 -32687 0
32687 32686 -9910 0
-32686 -9906 0
-32686 -32685 0
32685 32684 -9907 0
-32684 -32683 0
32683 32682 -9904 0
-32682 -32681 0
32681 32680 -9901 0
-32680 -9897 0
-32680 -9898 0
28787 -9922 32678 0
-9642 21778 32677 0
-7968 32675 32676 0
-9887 -32675 0
-32674 -32675 0
32673 -9888 32674 0
-32673 -9884 0
-32673 -32672 0
32672 32671 -9885 0
-32671 -9881 0
-32671 -32670 0
32670 32669 -9882 0
-32669 -9878 0
-32669 -32668 0
32668 32667 -9879 0
-32667 -32666 0
32666 32665 -9876 0
-32665 -32664 0
32664 32663 -9873 0
-32663 -9870 0
-7828 32646 32647 0
-32646 -32642 0
-32646 -32645 0
32641 -32644 32645 0
-32644 -32642 0
32642 32644 32643 0
-32643 -2684 0
-32641 -32637 0
-32641 -32640 0
32640 32636 -32639 0
32638 32639 32637 0
-32638 2459 0
-32636 -32632 0
-32636 -32635 0
32635 -32634 32631 0
32633 32634 32632 0
-32633 2458 0
-32633 -2682 0
-32631 -32627 0
32627 -2681 2457 0
-32632 2682 0
32642 2460 -2684 0
-9614 21728 32612 0
-7940 32610 32611 0
-9859 -32610 0
-32609 -32610 0
32608 -9860 32609 0
-32608 -9856 0
-32608 -32607 0
32607 32606 -9857 0
-32606 -9853 0
-32606 -32605 0
32605 32604 -9854 0
-32604 -9850 0
-32604 -32603 0
32603 32602 -9851 0
-32602 -32601 0
32601 32600 -9848 0
-32600 -32599 0
32599 32598 -9845 0
-32598 -9842 0
-7799 32595 32596 0
-32595 -32594 0
32590 -32593 32594 0
32593 32591 32592 0
-32592 -2670 0
-32590 -32589 0
32589 32585 -32588 0
32586 32587 32588 0
-32587 2459 0
-32585 -32584 0
32580 -32583 32584 0
32581 32582 32583 0
-32582 2458 0
-32580 -32576 0
-32578 -32576 0
32576 32578 32577 0
-32577 -2667 0
32576 -2667 2457 0
-32581 2668 0
-32586 2669 0
-32591 -2460 0
-31413 -32561 0
32560 -32561 0
-31414 -32560 0
32559 -32560 0
-31415 -32559 0
32558 -32559 0
-31416 -32558 0
32557 -32558 0
-31417 -32557 0
32556 -32557 0
-31418 -32556 0
32555 -32556 0
32554 -32555 0
32553 -32554 0
-31455 -32553 0
32552 -32553 0
32551 -32552 0
-31470 -32551 0
32550 -32551 0
-31471 -32550 0
32549 -32550 0
-31472 -32549 0
32548 -32549 0
-31473 -32548 0
32547 -32548 0
32546 -32547 0
-31501 -32546 0
32545 -32546 0
-31502 -32545 0
32544 -32545 0
32543 -32544 0
-31530 -32543 0
32542 -32543 0
-31531 -32542 0
32541 -32542 0
-31545 -32541 0
32540 -32541 0
-31559 -32540 0
32539 -32540 0
-31573 -32539 0
32538 -32539 0
32537 -32538 0
-31601 -32537 0
32536 -32537 0
-31615 -32536 0
32535 -32536 0
32534 -32535 0
-31630 -32534 0
32533 -32534 0
32532 -32533 0
32531 -32532 0
-31701 -32531 0
32530 -32531 0
-31736 -32530 0
32529 -32530 0
-31771 -32529 0
32528 -32529 0
32527 -32528 0
-31820 -32527 0
32526 -32527 0
-31855 -32526 0
32525 -32526 0
-31890 -32525 0
32524 -32525 0
-31925 -32524 0
32523 -32524 0
-31960 -32523 0
32522 -32523 0
-31995 -32522 0
32521 -32522 0
-32030 -32521 0
32520 -32521 0
-32065 -32520 0
32519 -32520 0
-32100 -32519 0
32518 -32519 0
-32135 -32518 0
32517 -32518 0
32516 -32517 0
-32232 -32516 0
32515 -32516 0
-32267 -32515 0
32514 -32515 0
-32302 -32514 0
32513 -32514 0
-32303 -32513 0
32512 -32513 0
-32338 -32512 0
32511 -32512 0
-32339 -32511 0
32510 -32511 0
32509 -32510 0
-32367 -32509 0
32508 -32509 0
-32368 -32508 0
32507 -32508 0
-32403 -32507 0
32506 -32507 0
32505 -32506 0
32504 -32505 0
-32432 -32504 0
32503 -32504 0
-32433 -32503 0
32502 -32503 0
-32468 -32502 0
32501 -32502 0
32500 -32501 0
32499 -32500 0
-32497 -32499 0
-32498 -32499 0
21678 -9614 32498 0
-7912 32496 32497 0
-9831 -32496 0
-32495 -32496 0
32494 -9832 32495 0
-9828 -32494 0
-32493 -32494 0
32492 32493 -9829 0
-32492 -9825 0
-32491 -32492 0
32490 32491 -9826 0
-32490 -9822 0
-7770 32467 32468 0
-32467 -32463 0
-32467 -32466 0
32462 -32465 32466 0
-32465 -32463 0
32465 32463 32464 0
-32464 2460 0
-32464 -2656 0
-32462 -32461 0
32461 32457 -32460 0
32458 32459 32460 0
-32459 2459 0
-32457 -32456 0
32452 -32455 32456 0
32453 32455 32454 0
-32454 2458 0
-32452 -32448 0
-32450 -32448 0
32448 32450 32449 0
-32449 2457 0
2653 -32448 0
32448 -2653 2457 0
-32453 2654 0
-32458 2655 0
-32463 -2460 0
2656 -32463 0
32463 2460 -2656 0
21594 -9614 32433 0
-7884 32431 32432 0
-9803 -32431 0
-32430 -32431 0
32429 -9804 32430 0
-32429 -9800 0
-32429 -32428 0
32428 32427 -9801 0
-32427 -9797 0
-32427 -32426 0
32426 32425 -9798 0
-32425 -9794 0
-32425 -32424 0
32424 32423 -9795 0
-32423 -32422 0
32422 32421 -9792 0
-32421 -32420 0
32420 32419 -9789 0
-32419 -9786 0
-7741 32402 32403 0
-32402 -32398 0
-32402 -32401 0
32397 -32400 32401 0
-32400 -32398 0
32400 32398 32399 0
-32399 2460 0
-32399 -2642 0
-32397 -32396 0
32396 32392 -32395 0
32393 32394 32395 0
-32394 2459 0
-32392 -32391 0
32387 -32390 32391 0
32388 32389 32390 0
-32389 2458 0
-32387 -32383 0
-32385 -32383 0
32383 32385 32384 0
-32384 -2639 0
32383 -2639 2457 0
-32388 2640 0
-32393 2641 0
-32398 -2460 0
2642 -32398 0
32398 2460 -2642 0
21510 -9614 32368 0
32366 -7856 32367 0
-9775 -32366 0
-32365 -32366 0
32364 -9776 32365 0
-32364 -9772 0
-32363 -32364 0
32362 32363 -9773 0
-32362 -9769 0
-32361 -32362 0
32360 32361 -9770 0
-32360 -9766 0
-32359 -32360 0
32358 32359 -9767 0
-32358 -9763 0
21419 -9782 32339 0
-7712 32337 32338 0
-32337 -32333 0
-32337 -32336 0
32336 32332 -32335 0
32335 32333 32334 0
-32334 2460 0
-32334 -2628 0
-32332 -32328 0
-32332 -32331 0
32331 32327 -32330 0
32330 32329 32328 0
-32329 2459 0
-32329 -2627 0
-32327 -32323 0
-32327 -32326 0
32326 32322 -32325 0
32325 32324 32323 0
-32324 2458 0
-32324 -2626 0
-32322 -32318 0
-32322 -32321 0
32321 32317 -32320 0
32320 32319 32318 0
-32319 2457 0
-32319 -2625 0
-32317 -32313 0
32313 2456 -2624 0
-32318 2625 0
2457 -2625 32318 0
-32323 2626 0
2458 -2626 32323 0
-2459 -32328 0
-32328 2627 0
2459 -2627 32328 0
2460 32333 -2628 0
21390 -9614 32303 0
-6343 32301 32302 0
-32297 -32301 0
-32300 -32301 0
32296 -32299 32300 0
32299 32298 32297 0
-32298 -2712 0
-32298 2726 0
-32296 -32292 0
-32296 -32295 0
32295 32291 -32294 0
32294 32292 32293 0
-32293 -2711 0
-32293 2725 0
-32291 -32287 0
-32291 -32290 0
32290 32286 -32289 0
32289 32287 32288 0
-32288 -2710 0
-32288 2724 0
-32286 -32282 0
-32286 -32285 0
32285 32281 -32284 0
32284 32282 32283 0
-32283 -2709 0
-32283 2723 0
-32281 -32277 0
-32281 -32280 0
32280 32276 -32279 0
32279 32277 32278 0
-32278 2722 0
-32276 -32272 0
-32276 -32275 0
32275 32271 -32274 0
32274 32272 32273 0
-32273 -2707 0
-32273 2721 0
-32271 -32268 0
-32271 -32270 0
32270 32268 32269 0
-32269 -2706 0
-32269 2720 0
32272 -2707 2721 0
32277 -2708 2722 0
-32282 2709 0
-32282 -2723 0
-2709 32282 2723 0
32287 -2710 2724 0
32292 -2711 2725 0
-2712 2726 32297 0
-6315 32266 32267 0
-32262 -32266 0
-32265 -32266 0
32261 -32264 32265 0
32264 32263 32262 0
-32263 -2698 0
-32263 2726 0
-32261 -32257 0
-32261 -32260 0
32260 32256 -32259 0
32259 32257 32258 0
-32258 -2697 0
-32258 2725 0
-32256 -32252 0
-32256 -32255 0
32255 32251 -32254 0
32254 32252 32253 0
-32253 -2696 0
-32253 2724 0
-32251 -32247 0
-32251 -32250 0
32250 32246 -32249 0
32249 32247 32248 0
-32248 -2695 0
-32248 2723 0
-32246 -32242 0
-32246 -32245 0
32245 32241 -32244 0
32244 32242 32243 0
-32243 -2694 0
-32243 2722 0
-32241 -32237 0
-32241 -32240 0
32240 32236 -32239 0
32239 32237 32238 0
-32238 -2693 0
-32238 2721 0
-32236 -32233 0
-32236 -32235 0
32235 32233 32234 0
-32234 -2692 0
32242 -2694 2722 0
-32247 2695 0
-32247 -2723 0
-2695 32247 2723 0
32252 -2696 2724 0
32257 -2697 2725 0
-6286 32231 32232 0
-32227 -32231 0
-32230 -32231 0
32226 -32229 32230 0
32229 32228 32227 0
-32228 2712 0
-32226 -32222 0
-32226 -32225 0
32225 32221 -32224 0
32224 32222 32223 0
-32223 2711 0
-32221 -32217 0
-32221 -32220 0
32220 32216 -32219 0
32219 32217 32218 0
-32218 -2696 0
-32218 2710 0
-32216 -32212 0
-32216 -32215 0
32215 32211 -32214 0
32214 32212 32213 0
-32213 -2695 0
-32213 2709 0
-32211 -32207 0
-32211 -32210 0
32210 32206 -32209 0
32209 32207 32208 0
-32208 2708 0
-32206 -32202 0
-32206 -32205 0
32205 32201 -32204 0
32204 32202 32203 0
-32203 -2693 0
-32203 2707 0
-32201 -32198 0
-32201 -32200 0
32200 32198 32199 0
-32199 -2692 0
-32199 2706 0
32202 -2693 2707 0
-32207 2694 0
32212 -2695 2709 0
32217 -2696 2710 0
-2698 2712 32227 0
-6257 32134 32135 0
-32130 -32134 0
-32133 -32134 0
32129 -32132 32133 0
32132 32131 32130 0
-32131 2726 0
-32131 -10759 0
-32129 -32125 0
-32129 -32128 0
32128 32124 -32127 0
32127 32125 32126 0
-32126 2725 0
-32126 -10758 0
-32124 -32120 0
-32124 -32123 0
32123 32119 -32122 0
32122 32120 32121 0
-32121 2724 0
-32121 -10757 0
-32119 -32115 0
-32119 -32118 0
32118 32114 -32117 0
32117 32115 32116 0
-32116 2723 0
-32116 -10756 0
-32114 -32110 0
-32114 -32113 0
32113 32109 -32112 0
32112 32110 32111 0
-32111 2722 0
-32109 -32105 0
-32109 -32108 0
32108 32104 -32107 0
32107 32105 32106 0
-32106 2721 0
-32104 -32101 0
-32104 -32103 0
32103 32101 32102 0
-32102 2720 0
32110 -10755 2722 0
-32115 -2723 0
32115 -10756 2723 0
32120 -10757 2724 0
32125 -10758 2725 0
-6228 32099 32100 0
-32095 -32099 0
-32098 -32099 0
32094 -32097 32098 0
32097 32096 32095 0
-32096 2712 0
-32094 -32090 0
-32094 -32093 0
32093 32089 -32092 0
32092 32090 32091 0
-32091 2711 0
-32089 -32085 0
-32089 -32088 0
32088 32084 -32087 0
32087 32085 32086 0
-32086 2710 0
-32086 -10757 0
-32084 -32080 0
32080 -10756 2709 0
32085 -10757 2710 0
-6199 32064 32065 0
-32060 -32064 0
-32063 -32064 0
32059 -32062 32063 0
32062 32061 32060 0
-32061 2698 0
-32059 -32055 0
-32059 -32058 0
32058 32054 -32057 0
32057 32055 32056 0
-32056 2697 0
-32054 -32050 0
-32054 -32053 0
32053 32049 -32052 0
32052 32050 32051 0
-32051 2696 0
-32051 -10757 0
-32049 -32045 0
-32049 -32048 0
32048 32044 -32047 0
32047 32045 32046 0
-32046 2695 0
-32046 -10756 0
-32044 -32040 0
-32044 -32043 0
32043 32039 -32042 0
32042 32040 32041 0
-32041 2694 0
-32039 -32035 0
-32039 -32038 0
32038 32034 -32037 0
32037 32035 32036 0
-32036 2693 0
-32034 -32031 0
-32034 -32033 0
32033 32031 32032 0
-32032 2692 0
32035 -10754 2693 0
-32045 10756 0
-10756 32045 2695 0
32050 -10757 2696 0
32055 -10758 2697 0
-10759 2698 32060 0
32029 -6343 32030 0
-32025 -32029 0
-32028 -32029 0
32024 -32027 32028 0
32027 32026 32025 0
-32026 -2670 0
-32026 2684 0
-32024 -32020 0
-32024 -32023 0
32023 32019 -32022 0
32021 32020 32022 0
-32021 -2669 0
-32021 2683 0
-32019 -32015 0
-32019 -32018 0
32018 32014 -32017 0
32016 32015 32017 0
-32016 -2668 0
-32016 2682 0
-32014 -32010 0
-32014 -32013 0
32013 32009 -32012 0
32011 32010 32012 0
-32011 -2667 0
-32011 2681 0
-32009 -32005 0
-32009 -32008 0
32008 32004 -32007 0
32006 32005 32007 0
-32006 -2666 0
-32006 2680 0
-32004 -32000 0
-32004 -32003 0
32003 31999 -32002 0
32001 32000 32002 0
-32001 -2665 0
-32001 2679 0
-31999 -31996 0
-31999 -31998 0
31998 31996 31997 0
-31997 -2664 0
-31997 2678 0
2679 32000 -2665 0
2666 -32005 0
2680 32005 -2666 0
2681 -2667 32010 0
-32015 2668 0
2682 32015 -2668 0
-2669 32020 2683 0
2684 -2670 32025 0
31994 -6315 31995 0
-31990 -31994 0
-31993 -31994 0
31989 -31992 31993 0
31992 31991 31990 0
-31991 -2656 0
-31991 2684 0
-31989 -31985 0
-31989 -31988 0
31988 31984 -31987 0
31986 31985 31987 0
-31986 -2655 0
-31986 2683 0
-31984 -31980 0
-31984 -31983 0
31983 31979 -31982 0
31981 31980 31982 0
-31981 -2654 0
-31981 2682 0
-31979 -31975 0
-31979 -31978 0
31978 31974 -31977 0
31976 31975 31977 0
-31976 -2653 0
-31976 2681 0
-31974 -31970 0
-31974 -31973 0
31973 31969 -31972 0
31971 31970 31972 0
-31971 2680 0
-31969 -31965 0
-31969 -31968 0
31968 31964 -31967 0
31966 31965 31967 0
-31966 2679 0
-31964 -31961 0
-31964 -31963 0
31963 31961 31962 0
-31962 -2650 0
-2652 2680 31970 0
-2653 2681 31975 0
-2654 2682 31980 0
-2655 31985 2683 0
31959 -6286 31960 0
-31955 -31959 0
-31958 -31959 0
31954 -31957 31958 0
31957 31956 31955 0
-31956 -2656 0
-31956 2670 0
-31954 -31950 0
-31954 -31953 0
31953 31949 -31952 0
31951 31950 31952 0
-31951 -2655 0
-31951 2669 0
-31949 -31945 0
-31949 -31948 0
31948 31944 -31947 0
31946 31945 31947 0
-31946 -2654 0
-31946 2668 0
-31944 -31940 0
-31944 -31943 0
31943 31939 -31942 0
31941 31940 31942 0
-31941 -2653 0
-31941 2667 0
-31939 -31935 0
-31939 -31938 0
31938 31934 -31937 0
31936 31935 31937 0
-31936 -2652 0
-31936 2666 0
-31934 -31930 0
-31934 -31933 0
31933 31929 -31932 0
31931 31930 31932 0
-31931 -2651 0
-31931 2665 0
-31929 -31926 0
-31929 -31928 0
31928 31926 31927 0
-31927 -2650 0
-31927 2664 0
2665 -2651 31930 0
-2652 2666 31935 0
2653 -31940 0
-31940 -2667 0
2667 -2653 31940 0
2654 -31945 0
-2654 2668 31945 0
-2655 31950 2669 0
2670 -2656 31955 0
31924 -6257 31925 0
-31920 -31924 0
-31923 -31924 0
31919 -31922 31923 0
31922 31921 31920 0
-31921 -2642 0
-31921 2684 0
2642 31921 -2684 0
-31919 -31918 0
31918 31914 -31917 0
31916 31915 31917 0
-31916 -2641 0
-31916 2683 0
-31914 -31910 0
-31914 -31913 0
31913 31909 -31912 0
31911 31910 31912 0
-31911 -2640 0
-31911 2682 0
-31909 -31905 0
-31909 -31908 0
31908 31904 -31907 0
31906 31905 31907 0
-31906 -2639 0
-31906 2681 0
-31904 -31900 0
31900 -2638 2680 0
-2639 2681 31905 0
-31910 -2682 0
2682 31910 -2640 0
-31915 2641 0
-31915 -2683 0
-2641 31915 2683 0
31889 -6228 31890 0
-31885 -31889 0
-31888 -31889 0
31884 -31887 31888 0
31887 31886 31885 0
-31886 -2642 0
-31886 2670 0
-31884 -31880 0
-31884 -31883 0
31883 31879 -31882 0
31881 31880 31882 0
-31881 -2641 0
-31881 2669 0
-31879 -31875 0
-31879 -31878 0
31878 31874 -31877 0
31876 31875 31877 0
-31876 -2640 0
-31876 2668 0
-31874 -31870 0
-31874 -31873 0
31873 31869 -31872 0
31871 31870 31872 0
-31871 -2639 0
-31871 2667 0
-31869 -31865 0
-31869 -31868 0
31868 31864 -31867 0
31866 31865 31867 0
-31866 2666 0
-31864 -31860 0
-31864 -31863 0
31863 31859 -31862 0
31861 31860 31862 0
-31861 -2637 0
-31859 -31856 0
-31859 -31858 0
31858 31856 31857 0
-31857 -2636 0
2638 -31865 0
2666 -2638 31865 0
2639 -31870 0
-31870 -2667 0
-2639 2667 31870 0
2640 -31875 0
2668 31875 -2640 0
-2641 31880 2669 0
31854 -6199 31855 0
-31850 -31854 0
-31853 -31854 0
31849 -31852 31853 0
31852 31851 31850 0
-31851 -2642 0
-31851 2656 0
2642 31851 -2656 0
-31849 -31845 0
-31849 -31848 0
31848 31844 -31847 0
31846 31845 31847 0
-31846 -2641 0
-31846 2655 0
-31844 -31840 0
-31844 -31843 0
31843 31839 -31842 0
31841 31840 31842 0
-31841 -2640 0
-31841 2654 0
-31839 -31835 0
-31839 -31838 0
31838 31834 -31837 0
31836 31835 31837 0
-31836 -2639 0
-31836 2653 0
-31834 -31830 0
-31834 -31833 0
31833 31829 -31832 0
31831 31830 31832 0
-31831 -2638 0
-31831 2652 0
-31829 -31825 0
-31829 -31828 0
31828 31824 -31827 0
31826 31825 31827 0
-31826 -2637 0
-31826 2651 0
-31824 -31821 0
-31824 -31823 0
31823 31821 31822 0
-31822 -2636 0
-31822 2650 0
-2637 2651 31825 0
-2652 -31830 0
2652 -2638 31830 0
2639 -31835 0
-2639 2653 31835 0
2640 -31840 0
2654 31840 -2640 0
-2641 31845 2655 0
2656 -2642 31850 0
-6170 31819 31820 0
-31815 -31819 0
-31818 -31819 0
31814 -31817 31818 0
-31815 -31817 0
31817 31816 31815 0
-31816 2684 0
-31814 -31810 0
-31814 -31813 0
31809 -31812 31813 0
-31810 -31812 0
31812 31811 31810 0
-31811 -2627 0
-31811 2683 0
-31809 -31805 0
-31809 -31808 0
31804 -31807 31808 0
-31805 -31807 0
31807 31806 31805 0
-31806 -2626 0
-31806 2682 0
-31804 -31800 0
-31804 -31803 0
31799 -31802 31803 0
31800 31802 31801 0
-31801 -2625 0
-31799 -31795 0
-31797 -31795 0
31797 31795 31796 0
-31796 -2624 0
2680 31795 -2624 0
-31800 -2681 0
2681 31800 -2625 0
-31805 2626 0
2682 -2626 31805 0
-31810 2627 0
-2683 -31810 0
2683 -2627 31810 0
-31815 2628 0
2684 -2628 31815 0
-6141 31770 31771 0
-31766 -31770 0
-31769 -31770 0
31765 -31768 31769 0
31768 31767 31766 0
-31767 2670 0
-31765 -31761 0
-31765 -31764 0
31764 31760 -31763 0
31763 31762 31761 0
-31762 -2627 0
-31762 2669 0
-31760 -31756 0
-31760 -31759 0
31759 31755 -31758 0
31758 31757 31756 0
-31757 -2626 0
-31757 2668 0
-31755 -31751 0
31751 2667 -2625 0
-31756 2626 0
2668 -2626 31756 0
-31761 2627 0
-2669 -31761 0
2669 -2627 31761 0
2670 -2628 31766 0
-6112 31735 31736 0
-31731 -31735 0
-31734 -31735 0
31730 -31733 31734 0
31733 31732 31731 0
-31732 -2628 0
-31732 2656 0
-31730 -31726 0
-31730 -31729 0
31729 31725 -31728 0
31728 31727 31726 0
-31727 -2627 0
-31727 2655 0
-31725 -31721 0
-31725 -31724 0
31724 31720 -31723 0
31723 31722 31721 0
-31722 -2626 0
-31722 2654 0
-31720 -31716 0
31716 2653 -2625 0
-31721 2626 0
2654 -2626 31721 0
-31726 2627 0
-31726 -2655 0
2655 -2627 31726 0
2656 -2628 31731 0
-6083 31700 31701 0
-31696 -31700 0
-31699 -31700 0
31695 -31698 31699 0
31698 31697 31696 0
-31697 -2628 0
-31697 2642 0
-31695 -31691 0
-31695 -31694 0
31694 31690 -31693 0
31693 31692 31691 0
-31692 -2627 0
-31692 2641 0
-31690 -31686 0
-31690 -31689 0
31689 31685 -31688 0
31688 31686 31687 0
-31687 -2626 0
-31687 2640 0
-31685 -31681 0
-31685 -31684 0
31684 31680 -31683 0
31681 31683 31682 0
-31682 -2625 0
-31682 2639 0
-31680 -31676 0
-31680 -31679 0
31679 31675 -31678 0
31678 31676 31677 0
-31677 -2624 0
-31675 -31671 0
-31675 -31674 0
31674 31670 -31673 0
31673 31671 31672 0
-31672 -2623 0
-31670 -31667 0
-31670 -31669 0
31669 31667 31668 0
-31668 -2622 0
-2638 -31676 0
2638 31676 -2624 0
2639 31681 -2625 0
2640 31686 -2626 0
-31691 2627 0
-2641 -31691 0
2641 -2627 31691 0
-31696 2628 0
2642 -2628 31696 0
31629 -6343 31630 0
-8245 -31629 0
-31628 -31629 0
31627 -8247 31628 0
-31627 -8242 0
-31627 -31626 0
31626 31625 -8244 0
-31625 -8239 0
-31625 -31624 0
31624 31623 -8241 0
-31623 -8236 0
-31623 -31622 0
31622 31621 -8238 0
-31621 -8233 0
-31621 -31620 0
31620 31619 -8235 0
-31619 -8230 0
-31619 -31618 0
31618 31617 -8232 0
-31617 -8227 0
-31617 -8229 0
31614 -6315 31615 0
-8217 -31614 0
-31613 -31614 0
31612 -8219 31613 0
-31612 -8214 0
-31612 -31611 0
31611 31610 -8216 0
-31610 -8211 0
-31610 -31609 0
31608 -8213 31609 0
-31608 -8208 0
-31608 -31607 0
31606 -8210 31607 0
-31606 -8205 0
-31606 -31605 0
31604 -8207 31605 0
-31604 -8202 0
-31604 -31603 0
31602 -8204 31603 0
-31602 -8199 0
-31602 -8201 0
31600 -6286 31601 0
-8188 -31600 0
-31599 -31600 0
31598 -8190 31599 0
-31598 -8185 0
-31598 -31597 0
31597 31596 -8187 0
-31596 -8182 0
-31596 -31595 0
31594 -8184 31595 0
-31594 -8179 0
-31594 -31593 0
31592 -8181 31593 0
-31592 -8176 0
-31592 -31591 0
31590 -8178 31591 0
-31590 -8173 0
-31590 -31589 0
31588 -8175 31589 0
-31588 -8170 0
-31588 -8172 0
31572 -6257 31573 0
-8159 -31572 0
-31571 -31572 0
31570 -8161 31571 0
-31570 -8156 0
-31570 -31569 0
31569 31568 -8158 0
-31568 -8153 0
-31568 -31567 0
31566 -8155 31567 0
-31566 -8150 0
-31566 -31565 0
31564 -8152 31565 0
-31564 -8147 0
-31564 -31563 0
31562 -8149 31563 0
-31562 -8144 0
-31562 -31561 0
31560 -8146 31561 0
-31560 -8141 0
-31560 -8143 0
31558 -6228 31559 0
-8130 -31558 0
-31557 -31558 0
31556 -8132 31557 0
-31556 -8127 0
-31556 -31555 0
31554 -8129 31555 0
-31554 -8124 0
-31554 -31553 0
31552 -8126 31553 0
-31552 -8121 0
-31552 -31551 0
31550 -8123 31551 0
-31550 -8118 0
-31550 -31549 0
31548 -8120 31549 0
-31548 -8115 0
-31548 -31547 0
31546 -8117 31547 0
-31546 -8112 0
-31546 -8114 0
31544 -6199 31545 0
-8101 -31544 0
-31543 -31544 0
31542 -8103 31543 0
-31542 -8098 0
-31542 -31541 0
31541 31540 -8100 0
-31540 -8095 0
-31540 -31539 0
31538 -8097 31539 0
-31538 -8092 0
-31538 -31537 0
31536 -8094 31537 0
-31536 -8089 0
-31536 -31535 0
31534 -8091 31535 0
-31534 -8086 0
-31534 -31533 0
31532 -8088 31533 0
-31532 -8083 0
-31532 -8085 0
31223 -8080 31531 0
31529 -6170 31530 0
-31528 -31529 0
31527 31528 -8074 0
-31527 -31526 0
31525 31526 -8071 0
-31525 -8066 0
-31525 -31524 0
31523 -8068 31524 0
-31523 -8063 0
-31523 -31522 0
31521 31522 -8065 0
-31521 -8060 0
31207 -8052 31502 0
31500 -6141 31501 0
-8044 -31500 0
31191 -8024 31473 0
-6112 28831 31472 0
31175 -7996 31471 0
-6083 28787 31470 0
31159 -7968 31455 0
31448 31450 31449 0
-31449 2362 0
31444 31445 31443 0
-31444 2361 0
-31444 -2683 0
31439 31440 31438 0
-31439 2360 0
-31439 -2682 0
-31438 -2360 0
-31438 2682 0
-31443 -2361 0
-31443 2683 0
-31448 2684 0
31143 -7940 31418 0
-6025 21693 31417 0
31128 -7912 31416 0
-5996 21608 31415 0
31113 -7884 31414 0
-5967 21524 31413 0
-30856 -31412 0
31411 -31412 0
-30870 -31411 0
31410 -31411 0
-30871 -31410 0
31409 -31410 0
-30885 -31409 0
31408 -31409 0
31407 -31408 0
-30900 -31407 0
31406 -31407 0
-30901 -31406 0
31405 -31406 0
-30915 -31405 0
31404 -31405 0
-30929 -31404 0
31403 -31404 0
-30930 -31403 0
31402 -31403 0
-30944 -31402 0
31401 -31402 0
31400 -31401 0
-30959 -31400 0
31399 -31400 0
-30960 -31399 0
31398 -31399 0
-30974 -31398 0
31397 -31398 0
-30988 -31397 0
31396 -31397 0
-30989 -31396 0
31395 -31396 0
31394 -31395 0
31393 -31394 0
-31018 -31393 0
31392 -31393 0
-31019 -31392 0
31391 -31392 0
-31033 -31391 0
31390 -31391 0
-31047 -31390 0
31389 -31390 0
-31048 -31389 0
31388 -31389 0
31387 -31388 0
31386 -31387 0
-31077 -31386 0
31385 -31386 0
31384 -31385 0
-31098 -31384 0
31383 -31384 0
31382 -31383 0
-31100 -31382 0
31381 -31382 0
-31114 -31381 0
31380 -31381 0
-31115 -31380 0
31379 -31380 0
-31129 -31379 0
31378 -31379 0
-31130 -31378 0
31377 -31378 0
-31144 -31377 0
31376 -31377 0
-31145 -31376 0
31375 -31376 0
31374 -31375 0
-31160 -31374 0
31373 -31374 0
-31161 -31373 0
31372 -31373 0
31371 -31372 0
-31176 -31371 0
31370 -31371 0
-31177 -31370 0
31369 -31370 0
31368 -31369 0
-31192 -31368 0
31367 -31368 0
-31193 -31367 0
31366 -31367 0
31365 -31366 0
-31208 -31365 0
31364 -31365 0
-31209 -31364 0
31363 -31364 0
31362 -31363 0
-31224 -31362 0
31361 -31362 0
-31238 -31361 0
31360 -31361 0
-31252 -31360 0
31359 -31360 0
-31266 -31359 0
31358 -31359 0
31357 -31358 0
31356 -31357 0
-31282 -31356 0
31355 -31356 0
-31296 -31355 0
31354 -31355 0
31353 -31354 0
-31311 -31353 0
31352 -31353 0
31351 -31352 0
-31347 -31351 0
31350 -31351 0
-31348 -31350 0
31097 -7856 31348 0
-7542 31346 31347 0
-31342 -31346 0
-31345 -31346 0
31341 -31344 31345 0
31344 31343 31342 0
-31343 2362 0
-31343 -2628 0
-31341 -31337 0
-31341 -31340 0
31340 31336 -31339 0
31339 31338 31337 0
-31338 2361 0
-31338 -2627 0
-31336 -31332 0
-31336 -31335 0
31335 31331 -31334 0
31334 31333 31332 0
-31333 2360 0
-31333 -2626 0
-31331 -31327 0
-31331 -31330 0
31330 31326 -31329 0
31329 31328 31327 0
-31328 2359 0
-31328 -2625 0
-31326 -31322 0
2358 31322 -2624 0
-31327 2625 0
2359 -2625 31327 0
-31332 -2360 0
-31332 2626 0
2360 -2626 31332 0
-2361 -31337 0
-31337 2627 0
2361 -2627 31337 0
2362 -2628 31342 0
31310 -6343 31311 0
-10171 -31310 0
-31309 -31310 0
31308 -10173 31309 0
-31308 -10168 0
-31308 -31307 0
31307 31306 -10170 0
-31306 -10165 0
-31306 -31305 0
31305 31304 -10167 0
-31304 -10162 0
-31304 -31303 0
31303 31302 -10164 0
-31302 -10159 0
-31302 -31301 0
31301 31300 -10161 0
-31300 -10156 0
-31300 -31299 0
31299 31298 -10158 0
-31298 -10153 0
-31298 -10155 0
31295 -6315 31296 0
-10143 -31295 0
-31294 -31295 0
31293 -10145 31294 0
-31293 -10140 0
-31293 -31292 0
31292 31291 -10142 0
-31291 -10137 0
-31291 -31290 0
31289 -10139 31290 0
-31289 -10134 0
-31289 -31288 0
31287 -10136 31288 0
-31287 -10131 0
-31287 -31286 0
31285 -10133 31286 0
-31285 -10128 0
-31285 -31284 0
31283 -10130 31284 0
-31283 -10125 0
-31283 -10127 0
31281 -6286 31282 0
-10114 -31281 0
-31280 -31281 0
31279 -10116 31280 0
-31279 -10111 0
-31279 -31278 0
31278 31277 -10113 0
-31277 -10108 0
-31277 -31276 0
31275 -10110 31276 0
-31275 -10105 0
-31275 -31274 0
31273 -10107 31274 0
-31273 -10102 0
-31273 -31272 0
31271 -10104 31272 0
-31271 -10099 0
-31271 -31270 0
31269 -10101 31270 0
-31269 -10096 0
-31269 -10098 0
31265 -6257 31266 0
-10085 -31265 0
-31264 -31265 0
31263 -10087 31264 0
-31263 -10082 0
-31263 -31262 0
31262 31261 -10084 0
-31261 -10079 0
-31261 -31260 0
31259 -10081 31260 0
-31259 -10076 0
-31259 -31258 0
31257 -10078 31258 0
-31257 -10073 0
-31257 -31256 0
31255 -10075 31256 0
-31255 -10070 0
-31255 -31254 0
31253 -10072 31254 0
-31253 -10067 0
-31253 -10069 0
31251 -6228 31252 0
-10056 -31251 0
-31250 -31251 0
31249 -10058 31250 0
-31249 -31248 0
31248 31247 -10055 0
-31247 -10050 0
-31247 -31246 0
31245 -10052 31246 0
-31245 -10047 0
-31245 -31244 0
31243 -10049 31244 0
-31243 -10044 0
-31243 -31242 0
31241 -10046 31242 0
-31241 -10041 0
-31241 -31240 0
31239 -10043 31240 0
-31239 -10038 0
-31239 -10040 0
31237 -6199 31238 0
-10027 -31237 0
-31236 -31237 0
31235 -10029 31236 0
-31235 -10024 0
-31235 -31234 0
31234 31233 -10026 0
-31233 -10021 0
-31233 -31232 0
31231 -10023 31232 0
-31231 -10018 0
-31231 -31230 0
31229 -10020 31230 0
-31229 -10015 0
-31229 -31228 0
31227 -10017 31228 0
-31227 -10012 0
-31227 -31226 0
31225 -10014 31226 0
-31225 -10009 0
-31225 -10011 0
-10006 31223 31224 0
-6163 -31223 0
-31222 -31223 0
31221 -6164 31222 0
-31221 -6160 0
-31221 -31220 0
31220 31219 -6161 0
-31219 -6157 0
-31219 -31218 0
31218 31217 -6158 0
-31217 -6154 0
-31217 -31216 0
31216 31215 -6155 0
-31215 -6151 0
-31215 -31214 0
31214 31213 -6152 0
-31213 -6148 0
-31213 -31212 0
31212 31211 -6149 0
-31211 -6145 0
-31211 -6146 0
28621 -6170 31209 0
31207 -9978 31208 0
-6134 -31207 0
-31206 -31207 0
31205 -6135 31206 0
-31205 -6131 0
-31205 -31204 0
31204 31203 -6132 0
-31203 -6128 0
-31203 -31202 0
31202 31201 -6129 0
-31201 -6125 0
-31201 -31200 0
31200 31199 -6126 0
-31199 -6122 0
-31199 -31198 0
31198 31197 -6123 0
-31197 -6119 0
-31197 -31196 0
31196 31195 -6120 0
-31195 -6116 0
-31195 -6117 0
28603 -6141 31193 0
31191 -9950 31192 0
-6105 -31191 0
-31190 -31191 0
31189 -6106 31190 0
-31189 -6102 0
-31189 -31188 0
31188 31187 -6103 0
-31187 -6099 0
-31187 -31186 0
31186 31185 -6100 0
-31185 -6096 0
-31185 -31184 0
31184 31183 -6097 0
-31183 -6093 0
-31183 -31182 0
31182 31181 -6094 0
-31181 -6090 0
-31181 -31180 0
31180 31179 -6091 0
-31179 -6087 0
-31179 -6088 0
28551 -6112 31177 0
31175 -9922 31176 0
-6076 -31175 0
-31174 -31175 0
31173 -6077 31174 0
-31173 -6073 0
-31173 -31172 0
31172 31171 -6074 0
-31171 -6070 0
-31171 -31170 0
31170 31169 -6071 0
-31169 -6067 0
-31169 -31168 0
31168 31167 -6068 0
-31167 -6064 0
-31167 -31166 0
31166 31165 -6065 0
-31165 -6061 0
-31165 -31164 0
31164 31163 -6062 0
-31163 -6058 0
-31163 -6059 0
28499 -6083 31161 0
-9894 31159 31160 0
-6047 -31159 0
-31158 -31159 0
31157 -6048 31158 0
-31157 -6044 0
-31157 -31156 0
31156 31155 -6045 0
-31155 -6041 0
-31155 -31154 0
31154 31153 -6042 0
-31153 -6038 0
-31153 -31152 0
31152 31151 -6039 0
-31151 -6035 0
-31151 -31150 0
31150 31149 -6036 0
-31149 -6032 0
-31149 -31148 0
31148 31147 -6033 0
-31147 -6029 0
-31147 -6030 0
-6054 21305 31145 0
-9866 31143 31144 0
-6018 -31143 0
-31142 -31143 0
31141 -6019 31142 0
-31141 -6015 0
-31141 -31140 0
31140 31139 -6016 0
-31139 -6012 0
-31139 -31138 0
31138 31137 -6013 0
-31137 -6009 0
-31137 -31136 0
31136 31135 -6010 0
-31135 -6006 0
-31135 -31134 0
31134 31133 -6007 0
-31133 -6003 0
-31133 -31132 0
31132 31131 -6004 0
-31131 -6000 0
-31131 -6001 0
21255 -6025 31130 0
-9838 31128 31129 0
-5989 -31128 0
-31127 -31128 0
31126 -5990 31127 0
-31126 -5986 0
-31126 -31125 0
31125 31124 -5987 0
-31124 -5983 0
-31124 -31123 0
31123 31122 -5984 0
-31122 -5980 0
-31122 -31121 0
31121 31120 -5981 0
-31120 -5977 0
-31120 -31119 0
31119 31118 -5978 0
-31118 -5974 0
-31118 -31117 0
31117 31116 -5975 0
-31116 -5971 0
21206 -5996 31115 0
-9810 31113 31114 0
-5960 -31113 0
-31112 -31113 0
31111 -5961 31112 0
-31111 -5957 0
-31111 -31110 0
31110 31109 -5958 0
-31109 -5954 0
-31109 -31108 0
31108 31107 -5955 0
-31107 -5951 0
-31107 -31106 0
31106 31105 -5952 0
-31105 -5948 0
-31105 -31104 0
31104 31103 -5949 0
-31103 -5945 0
-31103 -31102 0
31102 31101 -5946 0
-31101 -5942 0
-31101 -5943 0
21092 -5967 31100 0
31097 -9782 31098 0
-19598 -31097 0
-31096 -31097 0
31095 -19599 31096 0
-31095 -19593 0
-31095 -31094 0
31094 31093 -19594 0
-31093 -19588 0
-31093 -31092 0
31091 31092 -19589 0
-31091 -19583 0
-31091 -31090 0
31089 31090 -19584 0
-31089 -19578 0
-31089 -31088 0
31087 31088 -19579 0
-31087 -19573 0
-31087 -31086 0
31085 31086 -19574 0
-31085 -19569 0
-31085 -19570 0
31076 -9754 31077 0
-5931 -31076 0
-31076 -31075 0
31075 31074 -5932 0
-31074 -5928 0
-31074 -31073 0
31073 31072 -5929 0
-31072 -5925 0
-31072 -31071 0
31071 31070 -5926 0
-31070 -5922 0
-31070 -31069 0
31069 31068 -5923 0
-31068 -5919 0
-31068 -31067 0
31067 31066 -5920 0
-31066 -5916 0
-31066 -31065 0
31065 31064 -5917 0
-31064 -5914 0
-5938 20984 31048 0
-9586 31046 31047 0
-31046 -7647 0
-31046 -31045 0
31044 31045 -7648 0
-31044 -7644 0
-31044 -31043 0
31042 31043 -7645 0
-31042 -7641 0
-31042 -31041 0
31041 31040 -7642 0
-31040 -7638 0
-7654 31032 31033 0
-31032 -9578 0
-31032 -31031 0
31031 31030 -9580 0
-31030 -9575 0
-31030 -31029 0
31029 31028 -9577 0
-31028 -9572 0
-31028 -31027 0
31027 31026 -9574 0
-31026 -9569 0
-31026 -31025 0
31025 31024 -9571 0
-31024 -9566 0
-31024 -31023 0
31023 31022 -9568 0
-31022 -9563 0
-31022 -31021 0
31021 31020 -9565 0
-31020 -9560 0
-31020 -9562 0
-18365 20955 31019 0
31017 -9726 31018 0
-5902 -31017 0
-31017 -31016 0
31016 31015 -5903 0
-5899 -31015 0
-31015 -31014 0
31014 31013 -5900 0
-5896 -31013 0
-31013 -31012 0
31012 31011 -5897 0
-5893 -31011 0
-31011 -31010 0
31010 31009 -5894 0
-5890 -31009 0
-31009 -31008 0
31008 31007 -5891 0
-5887 -31007 0
-31007 -31006 0
31006 31005 -5888 0
-31005 -5885 0
-5909 20885 30989 0
-9557 30987 30988 0
-30987 -7619 0
-30987 -30986 0
30985 30986 -7620 0
-30985 -7616 0
-30985 -30984 0
30983 30984 -7617 0
-30983 -7613 0
-30983 -30982 0
30981 30982 -7614 0
-30981 -7610 0
-7626 30973 30974 0
-30973 -9549 0
-30973 -30972 0
30972 30971 -9551 0
-30971 -9546 0
-30971 -30970 0
30970 30969 -9548 0
-30969 -9543 0
-30969 -30968 0
30968 30967 -9545 0
-30967 -9540 0
-30967 -30966 0
30966 30965 -9542 0
-30965 -9537 0
-30965 -30964 0
30964 30963 -9539 0
-30963 -9534 0
-30963 -30962 0
30962 30961 -9536 0
-30961 -9533 0
20856 -18365 30960 0
30958 -9698 30959 0
-5873 -30958 0
-30958 -30957 0
30957 30956 -5874 0
-5870 -30956 0
-30956 -30955 0
30955 30954 -5871 0
-5867 -30954 0
-30954 -30953 0
30953 30952 -5868 0
-5864 -30952 0
-30952 -30951 0
30951 30950 -5865 0
-5861 -30950 0
-30950 -30949 0
30949 30948 -5862 0
-5858 -30948 0
-30948 -30947 0
30947 30946 -5859 0
-5855 -30946 0
-30946 -5856 0
-7486 30943 30944 0
-30942 -30943 0
30941 -18805 30942 0
-30941 -18799 0
-5880 20786 30930 0
-9528 30928 30929 0
-30928 -7591 0
-30927 -30928 0
30926 30927 -7592 0
-30926 -7588 0
-30925 -30926 0
30924 30925 -7589 0
-30924 -7585 0
-30923 -30924 0
30922 30923 -7586 0
-7582 -30922 0
-30921 -30922 0
30920 30921 -7583 0
-30920 -7579 0
-7598 30914 30915 0
-9520 -30914 0
-30914 -30913 0
30913 30912 -9522 0
-30912 -9517 0
-30912 -30911 0
30911 30910 -9519 0
-30910 -9514 0
-30910 -30909 0
30909 30908 -9516 0
-30908 -9511 0
-30908 -30907 0
30907 30906 -9513 0
-30906 -9508 0
-30906 -30905 0
30905 30904 -9510 0
-30904 -9505 0
-30904 -30903 0
30903 30902 -9507 0
-30902 -9502 0
-30902 -9504 0
20757 -18365 30901 0
30899 -9670 30900 0
-5844 -30899 0
-30899 -30898 0
30898 30897 -5845 0
-30897 -5841 0
-30897 -30896 0
30896 30895 -5842 0
-30895 -5838 0
-30895 -30894 0
30894 30893 -5839 0
-30893 -5835 0
-30893 -30892 0
30892 30891 -5836 0
-30891 -5832 0
-30891 -30890 0
30890 30889 -5833 0
-30889 -5829 0
-30889 -30888 0
30888 30887 -5830 0
-30887 -5827 0
30884 -7486 30885 0
-18706 -30884 0
-30883 -30884 0
30882 -18707 30883 0
-30882 -18701 0
-30882 -30881 0
30880 30881 -18702 0
-30880 -18696 0
-30880 -30879 0
30878 30879 -18697 0
-30878 -18691 0
-30878 -30877 0
30876 30877 -18692 0
-30876 -18686 0
-30876 -30875 0
30874 -18687 30875 0
-30874 -18681 0
-30874 -30873 0
30872 -18682 30873 0
-30872 -18677 0
-30872 -18678 0
-5851 20687 30871 0
-9499 30869 30870 0
-30869 -7563 0
-30869 -30868 0
30867 30868 -7564 0
-30867 -7560 0
-7570 30855 30856 0
-30855 -9491 0
-30855 -30854 0
30854 30853 -9493 0
-30853 -9488 0
-30853 -30852 0
30852 30851 -9490 0
-30851 -9485 0
-30851 -30850 0
30850 30849 -9487 0
-30849 -9482 0
-30849 -30848 0
30848 30847 -9484 0
-30847 -9479 0
-30847 -30846 0
30846 30845 -9481 0
-30845 -30844 0
30844 30843 -9478 0
-30843 -9475 0
-30398 -30842 0
30841 -30842 0
-30412 -30841 0
30840 -30841 0
-30413 -30840 0
30839 -30840 0
30838 -30839 0
-30415 -30838 0
30837 -30838 0
30836 -30837 0
-30417 -30836 0
30835 -30836 0
30834 -30835 0
-30419 -30834 0
30833 -30834 0
-30420 -30833 0
30832 -30833 0
-30421 -30832 0
30831 -30832 0
-30422 -30831 0
30830 -30831 0
-30423 -30830 0
30829 -30830 0
-30424 -30829 0
30828 -30829 0
-30425 -30828 0
30827 -30828 0
-30426 -30827 0
30826 -30827 0
-30427 -30826 0
30825 -30826 0
-30428 -30825 0
30824 -30825 0
-30429 -30824 0
30823 -30824 0
-30430 -30823 0
30822 -30823 0
-30431 -30822 0
30821 -30822 0
-30432 -30821 0
30820 -30821 0
-30433 -30820 0
30819 -30820 0
-30434 -30819 0
30818 -30819 0
30817 -30818 0
-30436 -30817 0
30816 -30817 0
30815 -30816 0
-30438 -30815 0
30814 -30815 0
30813 -30814 0
-30440 -30813 0
30812 -30813 0
30811 -30812 0
-30442 -30811 0
30810 -30811 0
-30456 -30810 0
30809 -30810 0
-30470 -30809 0
30808 -30809 0
-30471 -30808 0
30807 -30808 0
-30485 -30807 0
30806 -30807 0
-30499 -30806 0
30805 -30806 0
-30500 -30805 0
30804 -30805 0
-30514 -30804 0
30803 -30804 0
-30528 -30803 0
30802 -30803 0
-30529 -30802 0
30801 -30802 0
-30543 -30801 0
30800 -30801 0
-30557 -30800 0
30799 -30800 0
-30558 -30799 0
30798 -30799 0
-30572 -30798 0
30797 -30798 0
-30586 -30797 0
30796 -30797 0
-30600 -30796 0
30795 -30796 0
-30614 -30795 0
30794 -30795 0
-30628 -30794 0
30793 -30794 0
-30642 -30793 0
30792 -30793 0
-30656 -30792 0
30791 -30792 0
-30657 -30791 0
30790 -30791 0
-30671 -30790 0
30789 -30790 0
-30685 -30789 0
30788 -30789 0
30787 -30788 0
-30700 -30787 0
30786 -30787 0
-30714 -30786 0
30785 -30786 0
-30715 -30785 0
30784 -30785 0
-30729 -30784 0
30783 -30784 0
-30743 -30783 0
30782 -30783 0
30781 -30782 0
-30764 -30781 0
30780 -30781 0
-30778 -30780 0
-30779 -30780 0
20659 -18365 30779 0
30777 -9642 30778 0
-19199 -30777 0
-30776 -30777 0
30775 -19200 30776 0
-30775 -19194 0
-30775 -30774 0
30774 30773 -19195 0
-30773 -19189 0
-30773 -30772 0
30771 -19190 30772 0
-30771 -19184 0
-30771 -30770 0
30769 -19185 30770 0
-30769 -19179 0
-30769 -30768 0
30767 -19180 30768 0
-30767 -19174 0
-30767 -30766 0
30765 -19175 30766 0
-30765 -19170 0
-30765 -19171 0
30763 -7486 30764 0
-18607 -30763 0
-30762 -30763 0
30761 -18608 30762 0
-30761 -18602 0
-30761 -30760 0
30760 30759 -18603 0
-30759 -18597 0
-30759 -30758 0
30757 -18598 30758 0
-30757 -18592 0
-30757 -30756 0
30755 -18593 30756 0
-30755 -18587 0
-30755 -30754 0
30753 -18588 30754 0
-30753 -18582 0
-30753 -30752 0
30752 -18583 30751 0
-30751 -18578 0
-30751 -18579 0
-9470 30742 30743 0
-30742 -7535 0
-30742 -30741 0
30741 30740 -7536 0
-30740 -7532 0
-30740 -30739 0
30739 30738 -7533 0
-30738 -7529 0
-30738 -30737 0
30737 30736 -7530 0
-30736 -7526 0
-30736 -30735 0
30735 30734 -7527 0
-30734 -7523 0
-30734 -30733 0
30733 30732 -7524 0
-30732 -30731 0
30731 30730 -7521 0
-30730 -7518 0
30728 -7542 30729 0
-9462 -30728 0
-30727 -30728 0
30726 -9464 30727 0
-30726 -9459 0
-30726 -30725 0
30725 30724 -9461 0
-30724 -9456 0
-30724 -30723 0
30723 30722 -9458 0
-30722 -9453 0
-30722 -30721 0
30721 30720 -9455 0
-30720 -9450 0
-30720 -30719 0
30719 30718 -9452 0
-30718 -9447 0
-30718 -30717 0
30717 30716 -9449 0
-30716 -9444 0
-30716 -9446 0
20580 -18365 30715 0
30713 -9614 30714 0
-19120 -30713 0
-30712 -30713 0
30711 -19121 30712 0
-30711 -19115 0
-30711 -30710 0
30709 30710 -19116 0
-30709 -19110 0
-30709 -30708 0
30707 30708 -19111 0
-30707 -19105 0
30699 -7486 30700 0
-18397 -30699 0
-30698 -30699 0
30697 -18398 30698 0
-30697 -18392 0
-30697 -30696 0
30696 30695 -18393 0
-30695 -18387 0
-30695 -30694 0
30693 30694 -18388 0
-30693 -18382 0
-9441 30684 30685 0
-30684 -7507 0
-30684 -30683 0
30683 30682 -7508 0
-30682 -7504 0
-30682 -30681 0
30681 30680 -7505 0
-30680 -7501 0
-7514 30670 30671 0
-30670 -9433 0
-30670 -30669 0
30669 30668 -9435 0
-30668 -9430 0
-30668 -30667 0
30667 30666 -9432 0
-30666 -9427 0
-30666 -30665 0
30665 30664 -9429 0
-30664 -9424 0
-30664 -30663 0
30663 30662 -9426 0
-30662 -9421 0
-30662 -30661 0
30661 30660 -9423 0
-30660 -9418 0
-30660 -30659 0
30659 30658 -9420 0
-30658 -9415 0
-30658 -9417 0
20461 -18365 30657 0
-11250 30655 30656 0
-17900 -30655 0
-30654 -30655 0
30653 -17901 30654 0
-30653 -17895 0
-30653 -30652 0
30651 30652 -17896 0
-30651 -17890 0
-30651 -30650 0
30649 30650 -17891 0
-30649 -30648 0
30647 30648 -17886 0
-30647 -17880 0
-11366 30641 30642 0
-30640 -30641 0
30639 -29897 30640 0
-30639 -30638 0
30637 -29892 30638 0
-30637 -29886 0
-30637 -30636 0
30636 -29887 30635 0
-30635 -29881 0
30627 -11250 30628 0
-17830 -30627 0
-30626 -30627 0
30625 -17831 30626 0
-30625 -17825 0
-30625 -30624 0
30624 30623 -17826 0
-30623 -17820 0
-11337 30613 30614 0
-30612 -30613 0
30611 -29848 30612 0
-30611 -30610 0
30610 30609 -29843 0
-30609 -30608 0
30607 -29838 30608 0
-30607 -29832 0
30599 -11250 30600 0
-26537 -30599 0
30585 -11250 30586 0
-17725 -30585 0
-30584 -30585 0
30583 -17726 30584 0
-30583 -17720 0
-30583 -30582 0
30582 30581 -17721 0
-30581 -17715 0
-30581 -30580 0
30579 -17716 30580 0
-30579 -17710 0
-30579 -30578 0
30577 -17711 30578 0
-30577 -17705 0
-30577 -30576 0
30575 -17706 30576 0
-30575 -17700 0
-30575 -30574 0
30574 -17701 30573 0
-30573 -17696 0
-30573 -17697 0
-11279 30571 30572 0
-29749 -30571 0
-30570 -30571 0
30569 -29750 30570 0
-30569 -29744 0
-30569 -30568 0
30568 30567 -29745 0
-30567 -29739 0
-30567 -30566 0
30565 -29740 30566 0
-30565 -29734 0
-30565 -30564 0
30564 -29735 30563 0
-30563 -29729 0
29987 -8080 30558 0
-11221 30556 30557 0
-30555 -30556 0
30554 -17564 30555 0
-30554 -17558 0
-30554 -30553 0
30552 30553 -17559 0
-30552 -17553 0
-30552 -30551 0
30550 30551 -17554 0
-30550 -17548 0
30542 -11366 30543 0
-30541 -30542 0
30540 -7452 30541 0
-30540 -7447 0
29958 -8052 30529 0
30527 -11221 30528 0
-17492 -30527 0
-30526 -30527 0
30525 -17493 30526 0
-30525 -30524 0
30523 30524 -17488 0
-30523 -17482 0
30513 -11337 30514 0
-30512 -30513 0
30511 -7424 30512 0
-30511 -7419 0
29943 -8024 30500 0
30498 -11221 30499 0
-17421 -30498 0
-30497 -30498 0
30496 -17422 30497 0
-30496 -30495 0
30495 30494 -17417 0
-30494 -30493 0
30492 30493 -17412 0
-30492 -17406 0
-30492 -30491 0
30490 -17407 30491 0
-30490 -17401 0
-30490 -30489 0
30488 -17402 30489 0
-30488 -17396 0
-30488 -30487 0
30487 -17397 30486 0
-30486 -17392 0
-30486 -17393 0
-11308 30484 30485 0
-7394 -30484 0
-30483 -30484 0
30482 -7396 30483 0
-30482 -7391 0
-30482 -30481 0
30480 -7393 30481 0
-30480 -7388 0
-30480 -30479 0
30478 -7390 30479 0
-30478 -7385 0
-30478 -30477 0
30476 -7387 30477 0
-30476 -7382 0
-30476 -30475 0
30474 -7384 30475 0
-30474 -7379 0
-30474 -30473 0
30473 -7381 30472 0
-30472 -7376 0
-30472 -7378 0
29928 -7996 30471 0
30469 -11221 30470 0
-17350 -30469 0
-30468 -30469 0
30467 -17351 30468 0
-30467 -17345 0
-30467 -30466 0
30466 30465 -17346 0
-30465 -17340 0
-30465 -30464 0
30463 30464 -17341 0
-30463 -17335 0
-30463 -30462 0
30461 -17336 30462 0
-30461 -17330 0
-30461 -30460 0
30459 -17331 30460 0
-30459 -17325 0
-30459 -30458 0
30458 -17326 30457 0
-30457 -17321 0
-30457 -17322 0
30455 -11279 30456 0
-7366 -30455 0
-30454 -30455 0
30453 -7368 30454 0
-30453 -7363 0
-30453 -30452 0
30451 -7365 30452 0
-30451 -7360 0
-30451 -30450 0
30450 -7362 30449 0
-30449 -7357 0
29913 -7968 30442 0
29864 -7940 30440 0
29815 -7912 30438 0
29766 -7884 30436 0
30411 -7856 30434 0
17203 -11221 30433 0
30332 -7346 30432 0
29987 -10006 30431 0
-11192 30296 30430 0
30281 -11366 30429 0
29958 -9978 30428 0
30265 -11192 30427 0
30250 -11337 30426 0
29943 -9950 30425 0
30234 -11192 30424 0
30219 -11308 30423 0
29928 -9922 30422 0
30203 -11192 30421 0
30188 -11279 30420 0
29913 -9894 30419 0
29864 -9866 30417 0
29815 -9838 30415 0
29766 -9810 30413 0
30411 -9782 30412 0
-17676 -30411 0
-30410 -30411 0
30409 -17677 30410 0
-30409 -17671 0
-30409 -30408 0
30407 30408 -17672 0
-30407 -17666 0
-30407 -30406 0
30405 30406 -17667 0
-30405 -17661 0
-30405 -30404 0
30403 30404 -17662 0
-30403 -17656 0
-30403 -30402 0
30401 30402 -17657 0
-30401 -17651 0
-30401 -30400 0
30399 30400 -17652 0
-30399 -17647 0
-30399 -17648 0
16671 -11192 30398 0
-29646 -30397 0
30396 -30397 0
-29660 -30396 0
30395 -30396 0
-29661 -30395 0
30394 -30395 0
-29675 -30394 0
30393 -30394 0
-29689 -30393 0
30392 -30393 0
-29690 -30392 0
30391 -30392 0
-29704 -30391 0
30390 -30391 0
-29718 -30390 0
30389 -30390 0
30388 -30389 0
-29767 -30388 0
30387 -30388 0
30386 -30387 0
-29816 -30386 0
30385 -30386 0
30384 -30385 0
-29865 -30384 0
30383 -30384 0
30382 -30383 0
-29914 -30382 0
30381 -30382 0
-29915 -30381 0
30380 -30381 0
-29929 -30380 0
30379 -30380 0
-29930 -30379 0
30378 -30379 0
-29944 -30378 0
30377 -30378 0
-29945 -30377 0
30376 -30377 0
-29959 -30376 0
30375 -30376 0
-29973 -30375 0
30374 -30375 0
-29974 -30374 0
30373 -30374 0
-29988 -30373 0
30372 -30373 0
-30002 -30372 0
30371 -30372 0
-30016 -30371 0
30370 -30371 0
-30030 -30370 0
30369 -30370 0
-30044 -30369 0
30368 -30369 0
-30058 -30368 0
30367 -30368 0
-30072 -30367 0
30366 -30367 0
-30086 -30366 0
30365 -30366 0
-30100 -30365 0
30364 -30365 0
-30114 -30364 0
30363 -30364 0
-30115 -30363 0
30362 -30363 0
30361 -30362 0
-30130 -30361 0
30360 -30361 0
-30144 -30360 0
30359 -30360 0
30358 -30359 0
-30146 -30358 0
30357 -30358 0
-30160 -30357 0
30356 -30357 0
-30161 -30356 0
30355 -30356 0
-30175 -30355 0
30354 -30355 0
30353 -30354 0
30352 -30353 0
-30204 -30352 0
30351 -30352 0
-30205 -30351 0
30350 -30351 0
30349 -30350 0
30348 -30349 0
-30221 -30348 0
30347 -30348 0
-30235 -30347 0
30346 -30347 0
-30236 -30346 0
30345 -30346 0
30344 -30345 0
30343 -30344 0
-30252 -30343 0
30342 -30343 0
-30266 -30342 0
30341 -30342 0
-30267 -30341 0
30340 -30341 0
30339 -30340 0
30338 -30339 0
-30283 -30338 0
30337 -30338 0
-30297 -30337 0
30336 -30337 0
-30298 -30336 0
30335 -30336 0
-30333 -30335 0
-9267 30332 30333 0
-30328 -30332 0
-30331 -30332 0
30327 -30330 30331 0
30330 30329 30328 0
-30329 2250 0
-30329 -2628 0
-30327 -30323 0
-30327 -30326 0
30322 -30325 30326 0
-30323 -30325 0
-30324 -30325 0
30325 30323 30324 0
-30324 2249 0
-30324 -2627 0
-2249 30324 2627 0
-30322 -30318 0
-30322 -30321 0
30317 -30320 30321 0
-30319 -30320 0
30320 30318 30319 0
-30319 2248 0
-30319 -2626 0
-2248 30319 2626 0
-30317 -30313 0
-30317 -30316 0
30312 -30315 30316 0
-30313 -30315 0
-30314 -30315 0
30315 30314 30313 0
-30314 2247 0
-30314 -2625 0
-2247 30314 2625 0
-30312 -30308 0
-30312 -30311 0
30307 -30310 30311 0
-30308 -30310 0
30310 30308 30309 0
-30309 2246 0
-30309 -2624 0
-30307 -30303 0
-30307 -30306 0
30302 -30305 30306 0
30305 30304 30303 0
-30304 2245 0
-30304 -2623 0
-30302 -30299 0
-30302 -30301 0
30300 30301 30299 0
-30300 2244 0
-30303 -2245 0
-30303 2623 0
2245 -2623 30303 0
-30308 -2246 0
30308 2246 -2624 0
-30313 -2247 0
-30313 2625 0
2247 -2625 30313 0
-30318 -2248 0
-30318 2626 0
-2626 30318 2248 0
-30323 -2249 0
-30323 2627 0
-2627 30323 2249 0
-30328 -2250 0
-30328 2628 0
2250 -2628 30328 0
29703 -9754 30298 0
-7290 30296 30297 0
-30295 -30296 0
30294 -17130 30295 0
-30294 -17124 0
-30294 -30293 0
30292 30293 -17125 0
-30292 -17119 0
-30292 -30291 0
30290 30291 -17120 0
-30290 -30289 0
30288 30289 -17115 0
-30288 -17109 0
29688 -9383 30283 0
-30280 -30281 0
30279 -9377 30280 0
-30279 -30278 0
30277 30278 -9374 0
-30277 -9369 0
29674 -9726 30267 0
-7290 30265 30266 0
-17058 -30265 0
-30264 -30265 0
30263 -17059 30264 0
-30263 -17053 0
-30263 -30262 0
30261 30262 -17054 0
-30261 -17048 0
29659 -9354 30252 0
-9346 -30250 0
-30249 -30250 0
30248 -9348 30249 0
-30248 -30247 0
30246 30247 -9345 0
-30246 -9340 0
-30246 -30245 0
30244 30245 -9342 0
-30244 -9337 0
-30244 -30243 0
30242 30243 -9339 0
-30242 -9334 0
-30242 -30241 0
30240 30241 -9336 0
-30240 -9331 0
-30240 -30239 0
30238 30239 -9333 0
-30238 -9328 0
29645 -9698 30236 0
-7290 30234 30235 0
-16987 -30234 0
-30233 -30234 0
30232 -16988 30233 0
-30232 -16982 0
-30232 -30231 0
30231 30230 -16983 0
-30230 -16977 0
-30230 -30229 0
30228 30229 -16978 0
-30228 -16972 0
-30228 -30227 0
30226 30227 -16973 0
-30226 -16967 0
-30226 -30225 0
30224 -16968 30225 0
-30224 -16962 0
-30224 -30223 0
30223 -16963 30222 0
-30222 -16958 0
-30222 -16959 0
29567 -9325 30221 0
-9317 -30219 0
-30218 -30219 0
30217 -9319 30218 0
-30217 -30216 0
30215 30216 -9316 0
-30215 -9311 0
-30215 -30214 0
30213 30214 -9313 0
-30213 -9308 0
29553 -9670 30205 0
-7290 30203 30204 0
-16916 -30203 0
-30202 -30203 0
30201 -16917 30202 0
-30201 -16911 0
-30201 -30200 0
30200 30199 -16912 0
-30199 -16906 0
-30199 -30198 0
30197 30198 -16907 0
-30197 -16901 0
-30197 -30196 0
30195 -16902 30196 0
-30195 -16896 0
-30195 -30194 0
30193 -16897 30194 0
-30193 -16891 0
-30193 -30192 0
30192 -16892 30191 0
-30191 -16887 0
-30191 -16888 0
-9288 -30188 0
-30187 -30188 0
30186 -9290 30187 0
-30186 -9285 0
-30186 -30185 0
30184 30185 -9287 0
-30184 -9282 0
-30184 -30183 0
30182 30183 -9284 0
-30182 -9279 0
-30182 -30181 0
30180 30181 -9281 0
-30180 -9276 0
-30180 -30179 0
30178 30179 -9278 0
-30178 -9273 0
-30178 -30177 0
30176 30177 -9275 0
-30176 -9270 0
-30176 -9272 0
30174 -9642 30175 0
-17301 -30174 0
-30173 -30174 0
30172 -17302 30173 0
-30172 -17296 0
-30172 -30171 0
30170 30171 -17297 0
-30170 -17291 0
-30170 -30169 0
30168 30169 -17292 0
-30168 -17286 0
-30168 -30167 0
30166 30167 -17287 0
-30166 -17281 0
-30166 -30165 0
30164 30165 -17282 0
-30164 -17276 0
-30164 -30163 0
30162 30163 -17277 0
-30162 -17272 0
-30162 -17273 0
16565 -11192 30161 0
-7290 30159 30160 0
-11184 -30159 0
-30159 -30158 0
-30158 11186 0
-30158 -30157 0
30158 30157 -11186 0
-30157 -11181 0
-30157 -30156 0
30157 30156 11181 0
-30156 11183 0
-30156 -30155 0
30156 30155 -11183 0
-30155 -11178 0
-30155 -30154 0
30155 30154 11178 0
-30154 11180 0
-30154 -30153 0
30154 30153 -11180 0
-30153 -11175 0
-30153 -30152 0
30153 30152 11175 0
-30152 11177 0
-30152 -30151 0
30152 30151 -11177 0
-30151 -11172 0
-30151 -30150 0
30151 30150 11172 0
-30150 11174 0
-30150 -30149 0
30150 30149 -11174 0
-30149 -11169 0
-30149 -30148 0
30149 30148 11169 0
-30148 11171 0
-30148 -30147 0
30148 30147 -11171 0
-30147 -11166 0
-30147 -11168 0
30147 11168 11166 0
-24049 20608 30146 0
30143 -9267 30144 0
-7339 -30143 0
-30143 -30142 0
30142 30141 -7340 0
-30141 -7336 0
-30141 -30140 0
30140 30139 -7337 0
-30139 -7333 0
-30139 -30138 0
30138 30137 -7334 0
-30137 -7330 0
-30137 -30136 0
30136 30135 -7331 0
-30135 -7327 0
-30135 -30134 0
30134 30133 -7328 0
-30133 -30132 0
30132 30131 -7325 0
-30131 -7322 0
30129 -7346 30130 0
-9259 -30129 0
-30128 -30129 0
30127 -9261 30128 0
-30127 -9256 0
-30127 -30126 0
30126 30125 -9258 0
-30125 -9253 0
-30125 -30124 0
30123 30124 -9255 0
-30123 -9250 0
-30123 -30122 0
30121 30122 -9252 0
-30121 -9247 0
-30121 -30120 0
30119 30120 -9249 0
-30119 -9244 0
-30119 -30118 0
30118 30117 -9246 0
-30117 -9241 0
-30117 -9243 0
29521 -9614 30115 0
30113 -7290 30114 0
-16668 -30113 0
-30112 -30113 0
30111 -16669 30112 0
-30111 -16663 0
-30111 -30110 0
30110 30109 -16664 0
-30109 -16658 0
-30109 -30108 0
30107 -16659 30108 0
-30107 -16653 0
-30107 -30106 0
30105 -16654 30106 0
-30105 -16648 0
-9238 30099 30100 0
-30099 -7311 0
-30099 -30098 0
30098 30097 -7312 0
-30097 -7308 0
-30097 -30096 0
30095 30096 -7309 0
-30095 -7305 0
-30095 -30094 0
30093 30094 -7306 0
-30093 -7302 0
-30093 -30092 0
30091 30092 -7303 0
-30091 -7299 0
-30091 -30090 0
30089 30090 -7300 0
-30089 -7296 0
-30089 -30088 0
30088 -7297 30087 0
-30087 -7293 0
-30087 -7294 0
-7318 30085 30086 0
-30085 -9230 0
-30085 -30084 0
30084 30083 -9232 0
-30083 -9227 0
-30083 -30082 0
30082 30081 -9229 0
-30081 -9224 0
-30081 -30080 0
30080 30079 -9226 0
-30079 -9221 0
-30079 -30078 0
30078 30077 -9223 0
-30077 -9218 0
-30077 -30076 0
30076 30075 -9220 0
-30075 -9215 0
-30075 -30074 0
30074 30073 -9217 0
-30073 -9212 0
-30073 -9214 0
30071 -6343 30072 0
-18250 -30071 0
-30070 -30071 0
30069 -18251 30070 0
-30069 -18245 0
-30069 -30068 0
30068 30067 -18246 0
-30067 -18240 0
-30067 -30066 0
30065 -18241 30066 0
-30065 -18235 0
-30065 -30064 0
30063 -18236 30064 0
-30063 -18230 0
-30063 -30062 0
30061 -18231 30062 0
-30061 -18225 0
-30061 -30060 0
30059 -18226 30060 0
-30059 -18221 0
-30059 -18222 0
30057 -6315 30058 0
-18215 -30057 0
-30056 -30057 0
30055 -18216 30056 0
-30055 -18210 0
-30055 -30054 0
30054 30053 -18211 0
-30053 -18205 0
-30053 -30052 0
30051 -18206 30052 0
-30051 -18200 0
-30051 -30050 0
30049 -18201 30050 0
-30049 -18195 0
-30049 -30048 0
30047 -18196 30048 0
-30047 -18190 0
-30047 -30046 0
30045 -18191 30046 0
-30045 -18186 0
-30045 -18187 0
30043 -6286 30044 0
-18180 -30043 0
-30042 -30043 0
30041 -18181 30042 0
-30041 -18175 0
-30041 -30040 0
30040 30039 -18176 0
-30039 -18170 0
-30039 -30038 0
30037 -18171 30038 0
-30037 -18165 0
-30037 -30036 0
30035 -18166 30036 0
-30035 -18160 0
-30035 -30034 0
30033 -18161 30034 0
-30033 -18155 0
-30033 -30032 0
30031 -18156 30032 0
-30031 -18151 0
-30031 -18152 0
30029 -6257 30030 0
-27066 -30029 0
-30028 -30029 0
30027 -27067 30028 0
-30027 -30026 0
30026 30025 -27062 0
-30025 -27056 0
-30025 -30024 0
30023 -27057 30024 0
-30023 -27051 0
-30023 -30022 0
30021 -27052 30022 0
-30021 -27046 0
-30021 -30020 0
30019 -27047 30020 0
-30019 -27041 0
-30019 -30018 0
30018 -27042 30017 0
-30017 -27037 0
-30017 -27038 0
30015 -6228 30016 0
-18145 -30015 0
-30014 -30015 0
30013 -18146 30014 0
-30013 -18140 0
-30013 -30012 0
30012 30011 -18141 0
-30011 -18135 0
-30011 -30010 0
30009 -18136 30010 0
-30009 -18130 0
-30009 -30008 0
30007 -18131 30008 0
-30007 -18125 0
-30007 -30006 0
30005 -18126 30006 0
-30005 -18120 0
-30005 -30004 0
30003 -18121 30004 0
-30003 -18116 0
-30003 -18117 0
30001 -6199 30002 0
-18110 -30001 0
-30000 -30001 0
29999 -18111 30000 0
-29999 -18105 0
-29999 -29998 0
29997 -18106 29998 0
-29997 -18100 0
-29997 -29996 0
29995 -18101 29996 0
-29995 -18095 0
-29995 -29994 0
29993 -18096 29994 0
-29993 -18090 0
-29993 -29992 0
29991 -18091 29992 0
-29991 -18085 0
-29991 -29990 0
29989 -18086 29990 0
-29989 -18081 0
-29989 -18082 0
29987 -6170 29988 0
-26931 -29987 0
-29986 -29987 0
29985 -26932 29986 0
-29985 -26926 0
-29985 -29984 0
29983 29984 -26927 0
-29983 -26921 0
-29983 -29982 0
29981 29982 -26922 0
-29981 -26916 0
-29981 -29980 0
29979 29980 -26917 0
-29979 -26911 0
-29979 -29978 0
29977 -26912 29978 0
-29977 -26906 0
-29977 -29976 0
29975 -26907 29976 0
-29975 -26902 0
-29975 -26903 0
-11163 29457 29974 0
-5706 29972 29973 0
-11359 -29972 0
-29971 -29972 0
-29971 11360 0
-29971 -29970 0
-11360 29970 29971 0
-29970 -11356 0
-29970 -29969 0
29970 29969 11356 0
-29969 11357 0
-29969 -29968 0
-11357 29968 29969 0
-29968 -11353 0
-29968 -29967 0
29968 29967 11353 0
-29967 11354 0
-29967 -29966 0
-11354 29966 29967 0
-29966 -11350 0
-29966 -29965 0
29966 29965 11350 0
-29965 11351 0
-29965 -29964 0
-11351 29964 29965 0
-29964 -11347 0
-29964 -29963 0
29964 29963 11347 0
-29963 11348 0
-29963 -29962 0
-11348 29962 29963 0
-29962 -11344 0
-29962 -29961 0
29962 29961 11344 0
-29961 11345 0
-29961 -29960 0
-11345 29960 29961 0
-29960 -11341 0
-29960 -11342 0
29960 11342 11341 0
29958 -6141 29959 0
-26825 -29958 0
-29957 -29958 0
29956 -26826 29957 0
-29956 -26820 0
-29956 -29955 0
29955 29954 -26821 0
-29954 -26815 0
-29954 -29953 0
29952 29953 -26816 0
-29952 -26810 0
-29952 -29951 0
29950 29951 -26811 0
-29950 -26805 0
-29950 -29949 0
29948 29949 -26806 0
-29948 -26800 0
-29948 -29947 0
29946 29947 -26801 0
-29946 -26796 0
-29946 -26797 0
29394 -11163 29945 0
29943 -6112 29944 0
-26719 -29943 0
-29942 -29943 0
29941 -26720 29942 0
-29941 -26714 0
-29941 -29940 0
29939 29940 -26715 0
-29939 -26709 0
-29939 -29938 0
29937 29938 -26710 0
-29937 -26704 0
-29937 -29936 0
29935 29936 -26705 0
-29935 -26699 0
-29935 -29934 0
29933 29934 -26700 0
-29933 -26694 0
-29933 -29932 0
29931 29932 -26695 0
-29931 -26690 0
-29931 -26691 0
29331 -11163 29930 0
29928 -6083 29929 0
-26613 -29928 0
-29927 -29928 0
29926 -26614 29927 0
-29926 -26608 0
-29926 -29925 0
29925 29924 -26609 0
-29924 -26603 0
-29924 -29923 0
29922 29923 -26604 0
-29922 -26598 0
-29922 -29921 0
29920 29921 -26599 0
-29920 -26593 0
-29920 -29919 0
29918 29919 -26594 0
-29918 -26588 0
-29918 -29917 0
29916 29917 -26589 0
-29916 -26584 0
-29916 -26585 0
29268 -11163 29915 0
29913 -6054 29914 0
-17935 -29913 0
-29912 -29913 0
29911 -17936 29912 0
-29911 -17930 0
-29911 -29910 0
29909 29910 -17931 0
-29909 -17925 0
-29909 -29908 0
29907 29908 -17926 0
-29907 -17920 0
-29907 -29906 0
29905 29906 -17921 0
-29905 -17915 0
-29905 -29904 0
29903 -17916 29904 0
-29903 -17910 0
-29895 -29897 0
29895 29897 29896 0
-29896 2250 0
29892 29890 29891 0
-29891 2249 0
-29891 -2683 0
29887 29885 29886 0
-29886 2248 0
-29886 -2682 0
2682 -2248 29886 0
29881 2681 -2247 0
-29885 -2248 0
-29885 2682 0
-29890 -2249 0
-29890 2683 0
-29895 2684 0
29895 2250 -2684 0
29864 -6025 29865 0
-17865 -29864 0
-29863 -29864 0
29862 -17866 29863 0
-29862 -17860 0
-29862 -29861 0
29860 29861 -17861 0
-29860 -17855 0
-29860 -29859 0
29858 29859 -17856 0
-29858 -17850 0
-29858 -29857 0
29856 29857 -17851 0
-29856 -17845 0
29846 29848 29847 0
-29847 2250 0
29841 29843 29842 0
-29842 2249 0
-29842 -2669 0
29836 29838 29837 0
-29837 2248 0
29832 2667 -2247 0
-29836 2668 0
-29841 -2249 0
-29841 2669 0
-29846 2670 0
29815 -5996 29816 0
-17795 -29815 0
-29814 -29815 0
29813 -17796 29814 0
-29813 -17790 0
-29813 -29812 0
29811 29812 -17791 0
-29811 -17785 0
-29811 -29810 0
29809 29810 -17786 0
-29809 -17780 0
-29809 -29808 0
29807 29808 -17781 0
-29807 -17775 0
29766 -5967 29767 0
-17760 -29766 0
-29765 -29766 0
29764 -17761 29765 0
-29764 -17755 0
-29764 -29763 0
29762 29763 -17756 0
-29762 -17750 0
-29762 -29761 0
29760 29761 -17751 0
-29760 -17745 0
-29760 -29759 0
29758 29759 -17746 0
-29758 -17740 0
-29758 -29757 0
29756 29757 -17741 0
-29756 -17735 0
-29756 -29755 0
29755 -17736 29754 0
-29754 -17731 0
-29754 -17732 0
29750 29748 29749 0
-29749 2250 0
-29743 -29745 0
-29745 -29744 0
29743 29745 29744 0
-29744 2249 0
-2641 -29744 0
2641 -2249 29744 0
-29738 -29740 0
29738 29740 29739 0
-29739 2248 0
-29739 -2640 0
2640 -2248 29739 0
-29735 -29734 0
29734 29733 29735 0
-29734 2247 0
-2639 -29734 0
29734 2639 -2247 0
2638 29729 -2246 0
-29733 -2247 0
-29733 2639 0
-29738 -2248 0
-29738 2640 0
29738 -2640 2248 0
-29743 -2249 0
-29743 2641 0
29743 -2641 2249 0
-29748 -2250 0
-29748 2642 0
29717 -11163 29718 0
-29152 -29717 0
-29716 -29717 0
29715 -29153 29716 0
-29715 -29147 0
-29715 -29714 0
29714 29713 -29148 0
-29713 -29142 0
-29713 -29712 0
29711 -29143 29712 0
-29711 -29137 0
-29711 -29710 0
29709 -29138 29710 0
-29709 -29132 0
-29709 -29708 0
29707 -29133 29708 0
-29707 -29127 0
-29707 -29706 0
29706 -29128 29705 0
-29705 -29123 0
-29705 -29124 0
29703 -5938 29704 0
-17599 -29703 0
-29702 -29703 0
29701 -17600 29702 0
-29701 -17594 0
-29701 -29700 0
29699 29700 -17595 0
-29699 -17589 0
-29699 -29698 0
29697 29698 -17590 0
-29697 -17584 0
-29697 -29696 0
29695 29696 -17585 0
-29695 -17579 0
-29695 -29694 0
29693 -17580 29694 0
-29693 -17574 0
-29693 -29692 0
29691 -17575 29692 0
-29691 -17570 0
-29691 -17571 0
-7262 29457 29690 0
-5706 29688 29689 0
-7451 -29688 0
-29687 -29688 0
29686 -7452 29687 0
-29686 -7448 0
-29686 -29685 0
29684 -7449 29685 0
-29684 -7445 0
-29684 -29683 0
29682 -7446 29683 0
-29682 -7442 0
-29682 -29681 0
29680 -7443 29681 0
-29680 -7439 0
-29680 -29679 0
29678 -7440 29679 0
-29678 -7436 0
-29678 -29677 0
29676 -7437 29677 0
-29676 -7433 0
-29676 -7434 0
29674 -5909 29675 0
-17528 -29674 0
-29673 -29674 0
29672 -17529 29673 0
-29672 -17523 0
-29672 -29671 0
29670 29671 -17524 0
-29670 -17518 0
-29670 -29669 0
29668 29669 -17519 0
-29668 -17513 0
-7262 29394 29661 0
-5677 29659 29660 0
-7423 -29659 0
-29658 -29659 0
29657 -7424 29658 0
-29657 -29656 0
29655 -7421 29656 0
-29655 -7417 0
-29655 -29654 0
29653 -7418 29654 0
-29653 -7414 0
-29653 -29652 0
29651 -7415 29652 0
-29651 -29650 0
29649 -7412 29650 0
-29649 -7408 0
-29649 -29648 0
29647 -7409 29648 0
-29647 -7406 0
29645 -5880 29646 0
-17457 -29645 0
-29644 -29645 0
29643 -17458 29644 0
-29643 -17452 0
-29643 -29642 0
29641 29642 -17453 0
-29641 -17447 0
-29641 -29640 0
29639 29640 -17448 0
-29639 -17442 0
-29639 -29638 0
29637 -17443 29638 0
-29637 -17437 0
-29637 -29636 0
29635 -17438 29636 0
-29635 -17432 0
-29635 -29634 0
29633 -17433 29634 0
-29633 -17428 0
-29633 -17429 0
-28758 -29632 0
29631 -29632 0
-28759 -29631 0
29630 -29631 0
-28760 -29630 0
29629 -29630 0
-28774 -29629 0
29628 -29629 0
-28788 -29628 0
29627 -29628 0
-28802 -29627 0
29626 -29627 0
-28803 -29626 0
29625 -29626 0
-28804 -29625 0
29624 -29625 0
-28818 -29624 0
29623 -29624 0
29622 -29623 0
-28846 -29622 0
29621 -29622 0
-28847 -29621 0
29620 -29621 0
-28848 -29620 0
29619 -29620 0
-28862 -29619 0
29618 -29619 0
-28876 -29618 0
29617 -29618 0
-28877 -29617 0
29616 -29617 0
-28878 -29616 0
29615 -29616 0
-28892 -29615 0
29614 -29615 0
29613 -29614 0
-28907 -29613 0
29612 -29613 0
-28908 -29612 0
29611 -29612 0
-28922 -29611 0
29610 -29611 0
-28957 -29610 0
29609 -29610 0
-28992 -29609 0
29608 -29609 0
-29006 -29608 0
29607 -29608 0
29606 -29607 0
-29021 -29606 0
29605 -29606 0
-29035 -29605 0
29604 -29605 0
29603 -29604 0
-29050 -29603 0
29602 -29603 0
-29064 -29602 0
29601 -29602 0
29600 -29601 0
-29079 -29600 0
29599 -29600 0
-29093 -29599 0
29598 -29599 0
-29107 -29598 0
29597 -29598 0
29596 -29597 0
-29156 -29596 0
29595 -29596 0
29594 -29595 0
29593 -29594 0
-29219 -29593 0
29592 -29593 0
-29220 -29592 0
29591 -29592 0
-29234 -29591 0
29590 -29591 0
-29269 -29590 0
29589 -29590 0
-29283 -29589 0
29588 -29589 0
-29297 -29588 0
29587 -29588 0
-29332 -29587 0
29586 -29587 0
-29346 -29586 0
29585 -29586 0
-29360 -29585 0
29584 -29585 0
-29395 -29584 0
29583 -29584 0
-29409 -29583 0
29582 -29583 0
-29423 -29582 0
29581 -29582 0
-29458 -29581 0
29580 -29581 0
-29472 -29580 0
29579 -29580 0
29578 -29579 0
-29508 -29578 0
29577 -29578 0
-29522 -29577 0
29576 -29577 0
-29523 -29576 0
29575 -29576 0
-29524 -29575 0
29574 -29575 0
-29525 -29574 0
29573 -29574 0
-29539 -29573 0
29572 -29573 0
-29540 -29572 0
29571 -29572 0
-29554 -29571 0
29570 -29571 0
-29568 -29570 0
-29569 -29570 0
-7262 29331 29569 0
-5648 29567 29568 0
-7395 -29567 0
-29566 -29567 0
29565 -7396 29566 0
-29565 -7392 0
-29565 -29564 0
29563 29564 -7393 0
-29563 -7389 0
-29563 -29562 0
29561 29562 -7390 0
-29561 -7386 0
-29561 -29560 0
29559 29560 -7387 0
-29559 -7383 0
-29559 -29558 0
29557 29558 -7384 0
-29557 -7380 0
-29557 -29556 0
29555 29556 -7381 0
-29555 -7377 0
-29555 -7378 0
29553 -5851 29554 0
-17386 -29553 0
-29552 -29553 0
29551 -17387 29552 0
-29551 -17381 0
-29551 -29550 0
29550 29549 -17382 0
-29549 -17376 0
-29549 -29548 0
29547 29548 -17377 0
-29547 -17371 0
-29547 -29546 0
29545 -17372 29546 0
-29545 -17366 0
-29545 -29544 0
29543 -17367 29544 0
-29543 -17361 0
-29543 -29542 0
29542 -17362 29541 0
-29541 -17357 0
-29541 -17358 0
-7262 29268 29540 0
-10261 29538 29539 0
-29537 -29538 0
29536 -7368 29537 0
-29536 -29535 0
29534 29535 -7365 0
-29534 -7361 0
-29534 -29533 0
29532 29533 -7362 0
-29532 -7358 0
-29532 -29531 0
29530 -7359 29531 0
-29530 -29529 0
29528 -7356 29529 0
-29528 -29527 0
29526 -7353 29527 0
-29526 -7350 0
25827 -11163 29525 0
29218 -7262 29524 0
19202 -24049 29523 0
-19131 29521 29522 0
-17236 -29521 0
-29520 -29521 0
29519 -17237 29520 0
-29519 -17231 0
-29519 -29518 0
29517 29518 -17232 0
-29517 -17226 0
-29517 -29516 0
29515 29516 -17227 0
-29515 -17221 0
29155 -7262 29508 0
-5822 29471 29472 0
-17165 -29471 0
-29470 -29471 0
29469 -17166 29470 0
-29469 -17160 0
-29469 -29468 0
29468 29467 -17161 0
-29467 -17155 0
-29467 -29466 0
29465 -17156 29466 0
-29465 -17150 0
-29465 -29464 0
29464 -17151 29463 0
-29463 -17145 0
-9180 29457 29458 0
-29453 -29457 0
-29456 -29457 0
29452 -29455 29456 0
29455 29454 29453 0
-29454 -2320 0
-29454 2432 0
-29452 -29448 0
-29452 -29451 0
29451 29447 -29450 0
29449 29448 29450 0
-29449 -2319 0
-29449 2431 0
-29447 -29443 0
-29447 -29446 0
29446 29442 -29445 0
29444 29443 29445 0
-29444 -2318 0
-29444 2430 0
-29442 -29438 0
-29442 -29441 0
29441 29437 -29440 0
29439 29438 29440 0
-29439 2429 0
-29437 -29433 0
29433 2428 -2316 0
-29438 2317 0
2429 29438 -2317 0
2430 29443 -2318 0
-29453 2320 0
-29453 -2432 0
2432 -2320 29453 0
29422 -5706 29423 0
-9376 -29422 0
-5793 29408 29409 0
-29407 -29408 0
29406 -17095 29407 0
-29406 -17089 0
-29406 -29405 0
29404 -17090 29405 0
-29404 -17084 0
-29404 -29403 0
29402 -17085 29403 0
-29402 -17079 0
-29402 -29401 0
29400 -17080 29401 0
-29400 -29399 0
29398 -17075 29399 0
-29398 -17069 0
-29398 -29397 0
29397 -17070 29396 0
-29396 -17065 0
-29396 -17066 0
-9180 29394 29395 0
-29390 -29394 0
-29393 -29394 0
29389 -29392 29393 0
29392 29391 29390 0
-29391 -2306 0
-29391 2418 0
-29389 -29385 0
-29389 -29388 0
29388 29384 -29387 0
29386 29385 29387 0
-29386 -2305 0
-29386 2417 0
-29384 -29380 0
-29384 -29383 0
29383 29379 -29382 0
29381 29382 29380 0
-29381 -2304 0
-29381 2416 0
-29379 -29375 0
-29379 -29378 0
29378 29374 -29377 0
29376 29375 29377 0
-29376 -2303 0
-29376 2415 0
-29374 -29370 0
29370 2414 -2302 0
2415 29375 -2303 0
-29380 2304 0
-2416 -29380 0
-29390 2306 0
-29390 -2418 0
29359 -5677 29360 0
-9347 -29359 0
-29359 -29358 0
29358 29357 -9348 0
-29357 -9344 0
-29357 -29356 0
29356 29355 -9345 0
-29355 -9341 0
-29355 -29354 0
29354 29353 -9342 0
-29353 -9338 0
-29353 -29352 0
29352 29351 -9339 0
-29351 -9335 0
-29351 -29350 0
29350 29349 -9336 0
-29349 -9332 0
-29349 -29348 0
29348 29347 -9333 0
-29347 -9329 0
-29347 -9330 0
-5764 29345 29346 0
-17023 -29345 0
-29344 -29345 0
29343 -17024 29344 0
-29343 -17018 0
-29343 -29342 0
29342 29341 -17019 0
-29341 -17013 0
-29341 -29340 0
29339 29340 -17014 0
-29339 -17008 0
-29339 -29338 0
29337 -17009 29338 0
-29337 -17003 0
-29337 -29336 0
29335 -17004 29336 0
-29335 -16998 0
-29335 -29334 0
29334 -16999 29333 0
-29333 -16994 0
-29333 -16995 0
-9180 29331 29332 0
-29327 -29331 0
-29330 -29331 0
29326 -29329 29330 0
29329 29328 29327 0
-29328 -2292 0
-29328 2404 0
2292 29328 -2404 0
-29326 -29322 0
-29326 -29325 0
29325 29321 -29324 0
29323 29322 29324 0
-29323 -2291 0
-29323 2403 0
29323 -2403 2291 0
-29321 -29317 0
-29321 -29320 0
29320 29316 -29319 0
29318 29319 29317 0
-29318 -2290 0
-29318 2402 0
-2402 29318 2290 0
-29316 -29312 0
-29316 -29315 0
29315 29311 -29314 0
29313 29312 29314 0
-29313 -2289 0
-29313 2401 0
-29311 -29307 0
-29311 -29310 0
29310 29306 -29309 0
29308 29307 29309 0
-29308 -2288 0
-29306 -29302 0
-29306 -29305 0
29305 29301 -29304 0
29303 29302 29304 0
-29303 2399 0
-29301 -29298 0
-29301 -29300 0
29300 29298 29299 0
-29299 2398 0
2400 29307 -2288 0
2401 29312 -2289 0
-29317 2290 0
-29317 -2402 0
2402 -2290 29317 0
-29327 -2404 0
2404 -2292 29327 0
29296 -5648 29297 0
-9318 -29296 0
-29295 -29296 0
29294 29295 -9319 0
-29294 -9315 0
-29294 -29293 0
29293 29292 -9316 0
-29292 -9312 0
-5735 29282 29283 0
-16952 -29282 0
-29281 -29282 0
29280 -16953 29281 0
-29280 -16947 0
-29280 -29279 0
29278 -16948 29279 0
-29278 -16942 0
-29278 -29277 0
29276 -16943 29277 0
-29276 -16937 0
-29276 -29275 0
29274 -16938 29275 0
-29274 -16932 0
-29274 -29273 0
29272 -16933 29273 0
-29272 -16927 0
-29272 -29271 0
29270 -16928 29271 0
-29270 -16923 0
-29270 -16924 0
-9180 29268 29269 0
-29264 -29268 0
-29267 -29268 0
29263 -29266 29267 0
29266 29265 29264 0
-29265 -2278 0
-29265 2390 0
-29263 -29259 0
-29263 -29262 0
29262 29258 -29261 0
29260 29261 29259 0
-29260 -2277 0
-29260 2389 0
29260 -2389 2277 0
-29258 -29254 0
-29258 -29257 0
29257 29253 -29256 0
29255 29256 29254 0
-29255 -2276 0
-29255 2388 0
29255 -2388 2276 0
-29253 -29249 0
-29253 -29252 0
29252 29248 -29251 0
29250 29249 29251 0
-29250 -2275 0
-29250 2387 0
-29248 -29244 0
-29248 -29247 0
29247 29243 -29246 0
29245 29244 29246 0
-29245 -2274 0
-29245 2386 0
-29243 -29239 0
-29243 -29242 0
29242 29238 -29241 0
29240 29239 29241 0
-29240 -2273 0
-29240 2385 0
-29238 -29235 0
-29238 -29237 0
29237 29235 29236 0
-29236 -2272 0
-29236 2384 0
2385 29239 -2273 0
2386 29244 -2274 0
-29249 2275 0
-29249 -2387 0
2387 29249 -2275 0
-29254 2276 0
-29254 -2388 0
2388 -2276 29254 0
-29259 2277 0
-29259 -2389 0
2389 -2277 29259 0
-29264 -2390 0
2390 -2278 29264 0
29233 -10261 29234 0
-9289 -29233 0
-29232 -29233 0
29231 -9290 29232 0
-29231 -9286 0
-29231 -29230 0
29229 -9287 29230 0
-29229 -9283 0
-29229 -29228 0
29227 -9284 29228 0
-29227 -9280 0
-29227 -29226 0
29225 -9281 29226 0
-29225 -9277 0
-29225 -29224 0
29223 -9278 29224 0
-29223 -9274 0
-29223 -29222 0
29222 -9275 29221 0
-29221 -9271 0
29106 -11163 29220 0
-9180 29218 29219 0
-11155 -29218 0
-29217 -29218 0
29217 29218 11155 0
-29217 11157 0
-29217 -29216 0
29216 -11157 29217 0
-29216 -11152 0
-29216 -29215 0
29216 29215 11152 0
-29215 11154 0
-29215 -29214 0
-11154 29215 29214 0
-29214 -11149 0
-29214 -29213 0
29214 29213 11149 0
-29213 11151 0
-29213 -29212 0
-11151 29213 29212 0
-29212 -11146 0
-29212 -29211 0
29212 29211 11146 0
-29211 11148 0
-29211 -29210 0
-11148 29211 29210 0
-29210 -11143 0
-29210 -29209 0
29210 29209 11143 0
-29209 11145 0
-29209 -29208 0
-11145 29209 29208 0
-29208 -11140 0
-29208 -29207 0
29208 29207 11140 0
-29207 11142 0
-29207 -29206 0
-11142 29207 29206 0
-29206 -11137 0
-29206 -11139 0
29206 11139 11137 0
-9180 29155 29156 0
-29151 -29155 0
-29154 -29155 0
29150 -29153 29154 0
-29151 -29153 0
-29153 -29152 0
29153 29151 29152 0
-29152 -2250 0
2362 -29152 0
2250 -2362 29152 0
-29150 -29146 0
-29150 -29149 0
29145 29149 -29148 0
-29148 -29147 0
29147 29148 29146 0
-29147 -2249 0
-29147 2361 0
29147 -2361 2249 0
-29145 -29141 0
-29145 -29144 0
29140 29144 -29143 0
-29141 -29143 0
-29143 -29142 0
29142 29143 29141 0
-29142 -2248 0
-29142 2360 0
29142 -2360 2248 0
-29140 -29136 0
-29140 -29139 0
29135 29139 -29138 0
-29138 -29137 0
29137 29136 29138 0
-29137 -2247 0
2359 -29137 0
29137 -2359 2247 0
-29135 -29131 0
-29135 -29134 0
29130 29134 -29133 0
-29131 -29133 0
-29133 -29132 0
29132 29133 29131 0
-29132 -2246 0
2358 -29132 0
29132 -2358 2246 0
-29130 -29126 0
-29130 -29129 0
29125 29129 -29128 0
29127 29126 29128 0
-29127 -2245 0
2357 -29127 0
29127 -2357 2245 0
-29125 -29122 0
-29125 -29124 0
29123 29122 29124 0
-29123 2356 0
-29122 2244 0
-2356 -29122 0
-29126 2245 0
-2357 -29126 0
29126 2357 -2245 0
-29131 2246 0
-29131 -2358 0
29131 2358 -2246 0
-29136 2247 0
-29136 -2359 0
29136 2359 -2247 0
-29141 2248 0
-29141 -2360 0
2360 -2248 29141 0
-29146 2249 0
-2361 -29146 0
2361 -2249 29146 0
-29151 2250 0
-29151 -2362 0
2362 -2250 29151 0
29106 -7262 29107 0
-9173 -29106 0
-29105 -29106 0
29104 -9174 29105 0
-29104 -9170 0
-29104 -29103 0
29103 29102 -9171 0
-29102 -9167 0
-29102 -29101 0
29101 29100 -9168 0
-29100 -9164 0
-29100 -29099 0
29099 29098 -9165 0
-29098 -9161 0
-29098 -29097 0
29097 29096 -9162 0
-29096 -9158 0
-29096 -29095 0
29095 29094 -9159 0
-29094 -9155 0
-29094 -9156 0
29092 -9180 29093 0
-7254 -29092 0
-29092 -29091 0
29091 29090 -7256 0
-29090 -7251 0
-29090 -29089 0
29089 29088 -7253 0
-29088 -7248 0
-29088 -29087 0
29087 29086 -7250 0
-29086 -7245 0
-29086 -29085 0
29085 29084 -7247 0
-29084 -7242 0
-29084 -29083 0
29083 29082 -7244 0
-29082 -7239 0
-29082 -29081 0
29081 29080 -7241 0
-29080 -7236 0
-29080 -7238 0
16160 -7486 29079 0
-11134 29063 29064 0
-29062 -29063 0
29061 -27915 29062 0
-29061 -27909 0
-29061 -29060 0
29060 29059 -27910 0
-29059 -27904 0
-29059 -29058 0
29057 -27905 29058 0
-29057 -27899 0
-29057 -29056 0
29055 -27900 29056 0
-29055 -27894 0
-4800 22024 29050 0
-11105 29034 29035 0
-29033 -29034 0
29032 -27865 29033 0
-29032 -27859 0
-29032 -29031 0
29031 29030 -27860 0
-29030 -27854 0
-29030 -29029 0
29028 -27855 29029 0
-29028 -27849 0
-29028 -29027 0
29027 -27850 29026 0
-29026 -27844 0
-4800 21989 29021 0
-11076 29005 29006 0
-29004 -29005 0
29003 -27816 29004 0
-29003 -27810 0
-29003 -29002 0
29002 29001 -27811 0
-29001 -27805 0
-29001 -29000 0
29000 -27806 28999 0
-28999 -27800 0
-4800 28991 28992 0
-28990 -28991 0
-28989 28986 28990 0
28988 28989 28987 0
-28988 2656 0
-28986 -28982 0
-28986 -28985 0
28981 -28984 28985 0
28984 28983 28982 0
-28983 2655 0
-28983 -2697 0
-28981 -28977 0
-28981 -28980 0
28976 -28979 28980 0
28979 28977 28978 0
-28978 2654 0
-28978 -2696 0
-28976 -28972 0
-28976 -28975 0
28971 -28974 28975 0
28974 28973 28972 0
-28973 2653 0
-28973 -2695 0
-28971 -28967 0
28967 2652 -2694 0
-2653 -28972 0
-28972 2695 0
2653 -2695 28972 0
-28977 -2654 0
-28982 2697 0
-28987 2698 0
-11018 28956 28957 0
-28952 -28956 0
-28955 -28956 0
28951 -28954 28955 0
28954 28953 28952 0
-28953 -2166 0
-28953 2642 0
-28951 -28947 0
-28951 -28950 0
28950 28946 -28949 0
28949 28948 28947 0
-28948 -2165 0
-28948 2641 0
-28946 -28942 0
-28946 -28945 0
28945 28941 -28944 0
28944 28943 28942 0
-28943 -2164 0
-28943 2640 0
-28941 -28937 0
-28941 -28940 0
28940 28936 -28939 0
28939 28937 28938 0
-28938 -2163 0
-28938 2639 0
-28936 -28932 0
2638 -2162 28932 0
2639 28937 -2163 0
-28947 2165 0
-28952 2166 0
2642 -2166 28952 0
-11047 28921 28922 0
-28920 -28921 0
28919 -27767 28920 0
-28919 -27761 0
-28919 -28918 0
28918 28917 -27762 0
-28917 -27756 0
-28917 -28916 0
28916 -27757 28915 0
-28915 -27751 0
-4800 21954 28908 0
28076 -8080 28907 0
28891 -11134 28892 0
-28890 -28891 0
28889 -7228 28890 0
-28889 -7223 0
-28889 -28888 0
28887 28888 -7225 0
-28887 -7220 0
-28887 -28886 0
28885 28886 -7222 0
-28885 -7217 0
-28885 -28884 0
28884 28883 -7219 0
-28883 -7214 0
-4660 21918 28878 0
28047 -8052 28877 0
-10989 28875 28876 0
-28874 -28875 0
28873 -15624 28874 0
-28873 -15618 0
-28873 -28872 0
28872 28871 -15619 0
-28871 -15613 0
28861 -11105 28862 0
-7198 -28861 0
-28860 -28861 0
28859 -7200 28860 0
-28859 -7195 0
-28859 -28858 0
28857 28858 -7197 0
-28857 -7192 0
-28857 -28856 0
28855 28856 -7194 0
-28855 -7189 0
21848 -4660 28848 0
28004 -8024 28847 0
28845 -10989 28846 0
-28844 -28845 0
28843 -15574 28844 0
-28843 -15568 0
-28843 -28842 0
28842 28841 -15569 0
-28841 -15563 0
-8016 -28831 0
-28830 -28831 0
28829 28830 -8018 0
-28828 -28829 0
28827 28828 -8015 0
-8010 -28827 0
-28826 -28827 0
28825 -8012 28826 0
-28825 -8007 0
28817 -11076 28818 0
-28816 -28817 0
28815 -7172 28816 0
-28815 -28814 0
28813 28814 -7169 0
-28813 -7164 0
-28813 -28812 0
28811 28812 -7166 0
-28811 -7161 0
21813 -4660 28804 0
27961 -7996 28803 0
28801 -10989 28802 0
-15523 -28801 0
-28800 -28801 0
28799 -15524 28800 0
-28799 -15518 0
-28799 -28798 0
28797 28798 -15519 0
-28797 -15513 0
-28797 -28796 0
28795 -15514 28796 0
-28795 -15508 0
-28795 -28794 0
28793 -15509 28794 0
-28793 -15503 0
-4941 28787 28788 0
-7988 -28787 0
-28786 -28787 0
28785 28786 -7990 0
-28785 -7985 0
-28785 -28784 0
28783 28784 -7987 0
-28783 -7982 0
-28783 -28782 0
28781 28782 -7984 0
-28781 -7979 0
-28781 -28780 0
28779 28780 -7981 0
-28779 -7976 0
-28779 -28778 0
28777 28778 -7978 0
-28777 -7973 0
-28777 -28776 0
28775 28776 -7975 0
-28775 -7970 0
-28775 -7972 0
28773 -11047 28774 0
-7141 -28773 0
-28772 -28773 0
28771 -7143 28772 0
-28771 -7138 0
-28771 -28770 0
28770 28769 -7140 0
-28769 -7135 0
-28769 -28768 0
28768 28767 -7137 0
-28767 -7132 0
-28767 -28766 0
28766 28765 -7134 0
-28765 -7129 0
-28765 -28764 0
28764 28763 -7131 0
-28763 -7126 0
-28763 -28762 0
28762 28761 -7128 0
-28761 -7123 0
-28761 -7125 0
-4660 21778 28760 0
27932 -7968 28759 0
27917 -7234 28758 0
-28419 -28757 0
28756 -28757 0
-28420 -28756 0
28755 -28756 0
-28434 -28755 0
28754 -28755 0
28753 -28754 0
28752 -28753 0
-28450 -28752 0
28751 -28752 0
-28451 -28751 0
28750 -28751 0
28749 -28750 0
-28453 -28749 0
28748 -28749 0
-28454 -28748 0
28747 -28748 0
-28468 -28747 0
28746 -28747 0
-28469 -28746 0
28745 -28746 0
-28470 -28745 0
28744 -28745 0
-28471 -28744 0
28743 -28744 0
-28472 -28743 0
28742 -28743 0
-28473 -28742 0
28741 -28742 0
-28474 -28741 0
28740 -28741 0
-28475 -28740 0
28739 -28740 0
28738 -28739 0
-28477 -28738 0
28737 -28738 0
-28478 -28737 0
28736 -28737 0
-28479 -28736 0
28735 -28736 0
-28480 -28735 0
28734 -28735 0
-28481 -28734 0
28733 -28734 0
-28482 -28733 0
28732 -28733 0
-28483 -28732 0
28731 -28732 0
-28484 -28731 0
28730 -28731 0
-28485 -28730 0
28729 -28730 0
-28486 -28729 0
28728 -28729 0
-28500 -28728 0
28727 -28728 0
-28501 -28727 0
28726 -28727 0
-28502 -28726 0
28725 -28726 0
28724 -28725 0
28723 -28724 0
-28552 -28723 0
28722 -28723 0
-28553 -28722 0
28721 -28722 0
-28554 -28721 0
28720 -28721 0
-28589 -28720 0
28719 -28720 0
-28590 -28719 0
28718 -28719 0
-28604 -28718 0
28717 -28718 0
-28605 -28717 0
28716 -28717 0
-28606 -28716 0
28715 -28716 0
-28607 -28715 0
28714 -28715 0
28713 -28714 0
-28622 -28713 0
28712 -28713 0
-28623 -28712 0
28711 -28712 0
-28624 -28711 0
28710 -28711 0
-28625 -28710 0
28709 -28710 0
28708 -28709 0
-28680 -28708 0
28707 -28708 0
-28681 -28707 0
28706 -28707 0
-28682 -28706 0
28705 -28706 0
-28683 -28705 0
28704 -28705 0
-28684 -28704 0
28703 -28704 0
-28685 -28703 0
28702 -28703 0
-28686 -28702 0
28701 -28702 0
-28687 -28701 0
28700 -28701 0
-28688 -28700 0
28699 -28700 0
-28689 -28699 0
28698 -28699 0
-28690 -28698 0
28697 -28698 0
28696 -28697 0
-28692 -28696 0
28695 -28696 0
-28693 -28695 0
-28694 -28695 0
-4632 21728 28694 0
27882 -7940 28693 0
-4884 21693 28692 0
-4632 21678 28690 0
27832 -7912 28689 0
-4856 21608 28688 0
27818 -7178 28687 0
-4632 21594 28686 0
27783 -7884 28685 0
-4828 21524 28684 0
27769 -7149 28683 0
-4632 21510 28682 0
28467 -7856 28681 0
28679 -10989 28680 0
-28678 -28679 0
28677 -28646 28678 0
-28677 -28676 0
28676 28675 -28643 0
-28675 -28639 0
-28675 -28674 0
28673 -28640 28674 0
-28673 -28636 0
-28673 -28672 0
28671 -28637 28672 0
-28671 -28633 0
-28671 -28670 0
28669 -28634 28670 0
-28669 -28630 0
-28669 -28668 0
28667 -28631 28668 0
-28667 -28627 0
-28667 -28628 0
28631 28629 28630 0
-28630 -2133 0
-28629 -2539 0
28628 28627 28626 0
-28627 -2132 0
-28626 2132 0
-28626 -2538 0
-28634 -28633 0
28634 28632 28633 0
-28633 -2134 0
-2540 28633 2134 0
-28632 -2540 0
-28637 -28636 0
28637 28636 28635 0
-28636 -2135 0
-28636 2541 0
-2541 28636 2135 0
-28635 2135 0
-28635 -2541 0
-28640 -28639 0
28640 28639 28638 0
-28639 -2136 0
-28639 2542 0
-2542 28639 2136 0
-28638 2136 0
-28638 -2542 0
28643 28642 28641 0
-28642 -2137 0
-28642 2543 0
-28641 2137 0
-28641 -2543 0
-28645 -28646 0
28646 28645 28644 0
-28645 -2138 0
-28645 2544 0
2138 28645 -2544 0
-28644 2138 0
-28644 -2544 0
-4800 21419 28625 0
26466 -7057 28624 0
-4632 21390 28623 0
-5028 28621 28622 0
-9998 -28621 0
-28620 -28621 0
28619 -10000 28620 0
-28619 -9995 0
-28619 -28618 0
28618 28617 -9997 0
-28617 -9992 0
-28617 -28616 0
28616 28615 -9994 0
-28615 -9989 0
-28615 -28614 0
28614 28613 -9991 0
-28613 -9986 0
-28613 -28612 0
28612 28611 -9988 0
-28611 -28610 0
28610 28609 -9985 0
-28609 -9982 0
-4548 21376 28607 0
28047 -9978 28606 0
-10960 28354 28605 0
-4999 28603 28604 0
-9970 -28603 0
-28603 -28602 0
28602 28601 -9972 0
-28601 -9967 0
-28601 -28600 0
28600 28599 -9969 0
-28599 -9964 0
-28599 -28598 0
28598 28597 -9966 0
-28597 -9961 0
-28597 -28596 0
28596 28595 -9963 0
-28595 -9958 0
-28595 -28594 0
28594 28593 -9960 0
-28593 -28592 0
28592 28591 -9957 0
-28591 -9954 0
28338 -11105 28590 0
28588 -4548 28589 0
-28584 -28588 0
-28587 -28588 0
28583 -28586 28587 0
28585 28586 28584 0
-28585 2516 0
-28583 -28579 0
28004 -9950 28554 0
28322 -10960 28553 0
-4970 28551 28552 0
-9942 -28551 0
-28551 -28550 0
28550 28549 -9944 0
-28549 -9939 0
-28549 -28548 0
28548 28547 -9941 0
-28547 -9936 0
-28547 -28546 0
28546 28545 -9938 0
-28545 -9933 0
-28545 -28544 0
28544 28543 -9935 0
-28543 -28542 0
28542 28541 -9932 0
-28541 -28540 0
28540 28539 -9929 0
-28539 -9926 0
27961 -9922 28502 0
28290 -10960 28501 0
-4941 28499 28500 0
-9914 -28499 0
-28499 -28498 0
28498 28497 -9916 0
-28497 -9911 0
-28497 -28496 0
28496 28495 -9913 0
-28495 -9908 0
-28495 -28494 0
28494 28493 -9910 0
-28493 -9905 0
-28493 -28492 0
28492 28491 -9907 0
-28491 -9902 0
-28491 -28490 0
28490 28489 -9904 0
-28489 -9899 0
-28489 -28488 0
28488 28487 -9901 0
-28487 -9896 0
-28487 -9898 0
28274 -11047 28486 0
21340 -4548 28485 0
27932 -9894 28484 0
-4912 21305 28483 0
-9151 27917 28482 0
-4520 21290 28481 0
27882 -9866 28480 0
-4884 21255 28479 0
-9122 27867 28478 0
21241 -4520 28477 0
-4856 21206 28475 0
-9093 27818 28474 0
21191 -4520 28473 0
27783 -9810 28472 0
-4828 21092 28471 0
-9064 27769 28470 0
21078 -4520 28469 0
28467 -9782 28468 0
-4793 -28467 0
-28466 -28467 0
28465 -4794 28466 0
-28465 -4790 0
-28465 -28464 0
28464 28463 -4791 0
-28463 -4787 0
-28463 -28462 0
28462 28461 -4788 0
-28461 -4784 0
-28461 -28460 0
28460 28459 -4785 0
-28459 -4781 0
-28459 -28458 0
28458 28457 -4782 0
-28457 -28456 0
28456 28455 -4779 0
-28455 -4775 0
-28455 -4776 0
14915 -10960 28454 0
-4800 21027 28453 0
-9035 26466 28451 0
27656 -9754 28450 0
28433 -7234 28434 0
-9143 -28433 0
-4492 20955 28420 0
27591 -9726 28419 0
-27721 -28418 0
28417 -28418 0
-27735 -28417 0
28416 -28417 0
-27770 -28416 0
28415 -28416 0
-27784 -28415 0
28414 -28415 0
-27819 -28414 0
28413 -28414 0
-27833 -28413 0
28412 -28413 0
-27868 -28412 0
28411 -28412 0
-27869 -28411 0
28410 -28411 0
28409 -28410 0
-27918 -28409 0
28408 -28409 0
-27919 -28408 0
28407 -28408 0
28406 -28407 0
-27947 -28406 0
28405 -28406 0
-27948 -28405 0
28404 -28405 0
-27962 -28404 0
28403 -28404 0
-27976 -28403 0
28402 -28403 0
-27990 -28402 0
28401 -28402 0
-27991 -28401 0
28400 -28401 0
-28005 -28400 0
28399 -28400 0
-28019 -28399 0
28398 -28399 0
-28033 -28398 0
28397 -28398 0
-28034 -28397 0
28396 -28397 0
-28048 -28396 0
28395 -28396 0
-28062 -28395 0
28394 -28395 0
-28063 -28394 0
28393 -28394 0
-28077 -28393 0
28392 -28393 0
-28091 -28392 0
28391 -28392 0
-28105 -28391 0
28390 -28391 0
-28119 -28390 0
28389 -28390 0
-28133 -28389 0
28388 -28389 0
-28147 -28388 0
28387 -28388 0
-28161 -28387 0
28386 -28387 0
-28162 -28386 0
28385 -28386 0
-28176 -28385 0
28384 -28385 0
28383 -28384 0
28382 -28383 0
-28198 -28382 0
28381 -28382 0
-28212 -28381 0
28380 -28381 0
-28226 -28380 0
28379 -28380 0
-28227 -28379 0
28378 -28379 0
-28241 -28378 0
28377 -28378 0
28376 -28377 0
28375 -28376 0
-28244 -28375 0
28374 -28375 0
-28258 -28374 0
28373 -28374 0
-28259 -28373 0
28372 -28373 0
-28260 -28372 0
28371 -28372 0
-28261 -28371 0
28370 -28371 0
-28275 -28370 0
28369 -28370 0
-28276 -28369 0
28368 -28369 0
-28277 -28368 0
28367 -28368 0
-28291 -28367 0
28366 -28367 0
-28292 -28366 0
28365 -28366 0
-28293 -28365 0
28364 -28365 0
-28307 -28364 0
28363 -28364 0
-28308 -28363 0
28362 -28363 0
-28309 -28362 0
28361 -28362 0
-28323 -28361 0
28360 -28361 0
-28324 -28360 0
28359 -28360 0
-28325 -28359 0
28358 -28359 0
-28339 -28358 0
28357 -28358 0
-28340 -28357 0
28356 -28357 0
-28341 -28356 0
-28355 -28356 0
-7001 28354 28355 0
-15238 -28354 0
-28353 -28354 0
28352 -15239 28353 0
-28352 -28351 0
28351 28350 -15234 0
-28350 -28349 0
28348 28349 -15229 0
-28348 -28347 0
28346 -15224 28347 0
-28346 -28345 0
28344 -15219 28345 0
-28344 -15213 0
-28344 -28343 0
28343 -15214 28342 0
-28342 -15209 0
-28342 -15210 0
-4744 20885 28341 0
27541 -9122 28340 0
-7206 28338 28339 0
-9114 -28338 0
-28337 -28338 0
28336 -9116 28337 0
-28336 -9111 0
-28336 -28335 0
28334 28335 -9113 0
-28334 -9108 0
-28334 -28333 0
28332 28333 -9110 0
-28332 -9105 0
-28332 -28331 0
28330 28331 -9107 0
-28330 -9102 0
-4492 20856 28325 0
27527 -9698 28324 0
-7001 28322 28323 0
-15167 -28322 0
-28321 -28322 0
28320 -15168 28321 0
-28320 -28319 0
28318 28319 -15163 0
-28318 -15157 0
-4716 20786 28309 0
27504 -9093 28308 0
28306 -7178 28307 0
-9085 -28306 0
-28305 -28306 0
28304 -9087 28305 0
-28304 -9082 0
-28304 -28303 0
28302 28303 -9084 0
-28302 -9079 0
-28302 -28301 0
28300 28301 -9081 0
-28300 -9076 0
-4492 20757 28293 0
27490 -9670 28292 0
-7001 28290 28291 0
-15117 -28290 0
-28289 -28290 0
-15118 28288 28289 0
-28288 -15112 0
-28288 -28287 0
28287 28286 -15113 0
-28286 -15107 0
-28286 -28285 0
28284 -15108 28285 0
-28284 -15102 0
-4688 20687 28277 0
27467 -9064 28276 0
28274 -7149 28275 0
-9056 -28274 0
-28273 -28274 0
28272 -9058 28273 0
-28272 -9053 0
-28272 -28271 0
28270 28271 -9055 0
-28270 -9050 0
-28270 -28269 0
28268 28269 -9052 0
-28268 -9047 0
-4492 20659 28261 0
26405 -9642 28260 0
14789 -10960 28259 0
28257 -7001 28258 0
-10952 -28257 0
-28256 -28257 0
28255 -10954 28256 0
-28255 -10949 0
-28255 -28254 0
28254 -10951 28253 0
-28253 -10946 0
-28253 -28252 0
28252 -10948 28251 0
-28251 -10943 0
-28251 -28250 0
28250 -10945 28249 0
-28249 -10940 0
-28249 -28248 0
28248 -10942 28247 0
-28247 -10937 0
-28247 -28246 0
28246 -10939 28245 0
-28245 -10934 0
-28245 -10936 0
-4660 20608 28244 0
28240 -7057 28241 0
-9027 -28240 0
-28239 -28240 0
28238 -9029 28239 0
-28238 -9024 0
-28237 -28238 0
28236 28237 -9026 0
-9021 -28236 0
-28235 -28236 0
28234 -9023 28235 0
-28234 -9018 0
-28234 -28233 0
28232 28233 -9020 0
-28232 -9015 0
-28232 -28231 0
28230 28231 -9017 0
-28230 -9012 0
-28230 -28229 0
28228 28229 -9014 0
-28228 -9009 0
-28228 -9011 0
-4492 20580 28227 0
28225 -9614 28226 0
-4625 -28225 0
-28224 -28225 0
28223 -4626 28224 0
-28223 -4622 0
-28223 -28222 0
28222 28221 -4623 0
-28221 -4619 0
-28221 -28220 0
28220 28219 -4620 0
-28219 -4616 0
-28219 -28218 0
28218 28217 -4617 0
-28217 -4613 0
-28217 -28216 0
28216 28215 -4614 0
-28215 -4610 0
-28215 -28214 0
28214 28213 -4611 0
-28213 -4607 0
-28213 -4608 0
28211 -7001 28212 0
-14912 -28211 0
-28210 -28211 0
28209 -14913 28210 0
-28209 -14907 0
-28209 -28208 0
28207 28208 -14908 0
-28207 -14902 0
-28207 -28206 0
28205 28206 -14903 0
-28205 -14897 0
-4632 20489 28198 0
-7029 28175 28176 0
-8935 -28175 0
-28174 -28175 0
28173 -8937 28174 0
-28173 -8932 0
-28173 -28172 0
28172 28171 -8934 0
-28171 -8929 0
-28171 -28170 0
28170 28169 -8931 0
-28169 -8926 0
-28169 -28168 0
28168 28167 -8928 0
-28167 -8923 0
-28167 -28166 0
28166 28165 -8925 0
-28165 -8920 0
-28165 -28164 0
28164 28163 -8922 0
-28163 -8917 0
-28163 -8919 0
-4492 20461 28162 0
28160 -6343 28161 0
-5194 -28160 0
-28159 -28160 0
28158 -5195 28159 0
-28158 -5191 0
-28158 -28157 0
28156 28157 -5192 0
-28156 -5188 0
-28156 -28155 0
28154 28155 -5189 0
-28154 -5185 0
-28154 -28153 0
28152 28153 -5186 0
-28152 -5182 0
-28152 -28151 0
28150 28151 -5183 0
-28150 -5179 0
-28150 -28149 0
28148 28149 -5180 0
-28148 -5176 0
-28148 -5177 0
28146 -6315 28147 0
-5166 -28146 0
-28145 -28146 0
28144 -5167 28145 0
-28144 -5163 0
-28144 -28143 0
28142 -5164 28143 0
-28142 -5160 0
-28142 -28141 0
28140 -5161 28141 0
-28140 -5157 0
-28140 -28139 0
28138 -5158 28139 0
-28138 -5154 0
-28138 -28137 0
28136 -5155 28137 0
-28136 -28135 0
28135 -5152 28134 0
-28134 -5149 0
28132 -6286 28133 0
-5137 -28132 0
-28131 -28132 0
28130 -5138 28131 0
-28130 -5134 0
-28130 -28129 0
28128 -5135 28129 0
-28128 -5131 0
-28128 -28127 0
28126 -5132 28127 0
-28126 -5128 0
-28126 -28125 0
28124 -5129 28125 0
-28124 -5125 0
-28124 -28123 0
28122 -5126 28123 0
-28122 -5122 0
-28122 -28121 0
28121 -5123 28120 0
-28120 -5119 0
-28120 -5120 0
28118 -6257 28119 0
-5108 -28118 0
-28117 -28118 0
28116 -5109 28117 0
-28116 -5105 0
-28116 -28115 0
28114 -5106 28115 0
-28114 -5102 0
-28114 -28113 0
28112 -5103 28113 0
-28112 -5099 0
-28112 -28111 0
28110 -5100 28111 0
-28110 -5096 0
-28110 -28109 0
28108 -5097 28109 0
-28108 -28107 0
28107 -5094 28106 0
-28106 -5091 0
28104 -6228 28105 0
-5079 -28104 0
-28103 -28104 0
28102 -5080 28103 0
-28102 -5076 0
-28102 -28101 0
28100 -5077 28101 0
-28100 -5073 0
-28100 -28099 0
28098 -5074 28099 0
-28098 -5070 0
-28098 -28097 0
28096 -5071 28097 0
-28096 -5067 0
-28096 -28095 0
28094 -5068 28095 0
-28094 -5064 0
-28094 -28093 0
28092 -5065 28093 0
-28092 -5061 0
-28092 -5062 0
28090 -6199 28091 0
-5050 -28090 0
-28089 -28090 0
28088 -5051 28089 0
-28088 -5047 0
-28088 -28087 0
28086 -5048 28087 0
-28086 -5044 0
-28086 -28085 0
28084 -5045 28085 0
-28084 -5041 0
-28084 -28083 0
28082 -5042 28083 0
-28082 -5038 0
-28082 -28081 0
28080 -5039 28081 0
-28080 -5035 0
-28080 -28079 0
28078 -5036 28079 0
-28078 -5032 0
-28078 -5033 0
28076 -6170 28077 0
-28075 -28076 0
28074 -5022 28075 0
-28074 -28073 0
28073 28072 -5019 0
-28072 -28071 0
28071 28070 -5016 0
-28070 -28069 0
28069 28068 -5013 0
-28068 -5009 0
-28068 -28067 0
28067 28066 -5010 0
-28066 -5006 0
-28066 -28065 0
28065 28064 -5007 0
-28064 -5003 0
-28064 -5004 0
-10931 27642 28063 0
-5612 28061 28062 0
-11127 -28061 0
-28060 -28061 0
28059 -11128 28060 0
-28059 -11124 0
-28059 -28058 0
28058 -11125 28057 0
-28057 -11121 0
-28057 -28056 0
28056 -11122 28055 0
-28055 -11118 0
-28055 -28054 0
28054 -11119 28053 0
-28053 -11115 0
-28053 -28052 0
28052 -11116 28051 0
-28051 -11112 0
-28051 -28050 0
28050 -11113 28049 0
-28049 -11109 0
-28049 -11110 0
28047 -6141 28048 0
-4992 -28047 0
-28046 -28047 0
28045 -4993 28046 0
-28045 -4989 0
-28045 -28044 0
28044 28043 -4990 0
-28043 -4986 0
-28043 -28042 0
28042 28041 -4987 0
-28041 -28040 0
28040 28039 -4984 0
-28039 -4980 0
-28039 -28038 0
28038 28037 -4981 0
-28037 -4977 0
-28037 -28036 0
28036 28035 -4978 0
-28035 -4974 0
-28035 -4975 0
27577 -10931 28034 0
28032 -4999 28033 0
-6133 -28032 0
-28031 -28032 0
28030 28031 -6135 0
-28030 -6130 0
-28030 -28029 0
28029 28028 -6132 0
-28028 -6127 0
-28028 -28027 0
28026 28027 -6129 0
-28026 -6124 0
-28026 -28025 0
28025 28024 -6126 0
-28024 -6121 0
-5583 28018 28019 0
-11098 -28018 0
-28017 -28018 0
-28017 11099 0
-28017 -28016 0
28016 28017 -11099 0
-28016 -11095 0
-28016 -28015 0
28016 28015 11095 0
-28015 11096 0
-28015 -28014 0
-11096 28014 28015 0
-28014 -11092 0
-28014 -28013 0
28014 28013 11092 0
-28013 11093 0
-28013 -28012 0
-11093 28012 28013 0
-28012 -11089 0
-28012 -28011 0
28012 28011 11089 0
-28011 11090 0
-28011 -28010 0
-11090 28010 28011 0
-28010 -11086 0
-28010 -28009 0
28010 28009 11086 0
-28009 11087 0
-28009 -28008 0
-11087 28008 28009 0
-28008 -11083 0
-28008 -28007 0
28008 28007 11083 0
-28007 11084 0
-28007 -28006 0
-11084 28007 28006 0
-28006 -11080 0
-28006 -11081 0
28006 11081 11080 0
28004 -6112 28005 0
-4963 -28004 0
-28003 -28004 0
28002 -4964 28003 0
-28002 -4960 0
-28002 -28001 0
28001 28000 -4961 0
-28000 -27999 0
27999 27998 -4958 0
-27998 -4954 0
-27998 -27997 0
27997 27996 -4955 0
-27996 -4951 0
-27996 -27995 0
27995 27994 -4952 0
-27994 -27993 0
27993 27992 -4949 0
-27992 -4946 0
27333 -10931 27991 0
27989 -4970 27990 0
-6104 -27989 0
-27988 -27989 0
27987 27988 -6106 0
-27987 -6101 0
-27987 -27986 0
27986 27985 -6103 0
-27985 -6098 0
-27985 -27984 0
27983 27984 -6100 0
-27983 -6095 0
-27983 -27982 0
27982 27981 -6097 0
-27981 -6092 0
-5554 27975 27976 0
-11069 -27975 0
-27974 -27975 0
-27974 11070 0
-27974 -27973 0
27973 -11070 27974 0
-27973 -11066 0
-27973 -27972 0
27973 27972 11066 0
-27972 11067 0
-27972 -27971 0
-11067 27971 27972 0
-27971 -11063 0
-27971 -27970 0
27971 27970 11063 0
-27970 11064 0
-27970 -27969 0
-11064 27969 27970 0
-27969 -11060 0
-27969 -27968 0
27969 27968 11060 0
-27968 11061 0
-27968 -27967 0
-11061 27967 27968 0
-27967 -11057 0
-27967 -27966 0
27967 27966 11057 0
-27966 11058 0
-27966 -27965 0
-11058 27965 27966 0
-27965 -11054 0
-27965 -27964 0
27965 27964 11054 0
-27964 11055 0
-27964 -27963 0
-11055 27963 27964 0
-27963 -11051 0
-27963 -11052 0
27963 11052 11051 0
27961 -6083 27962 0
-4934 -27961 0
-27960 -27961 0
27959 -4935 27960 0
-27959 -4931 0
-27959 -27958 0
27958 27957 -4932 0
-27957 -4928 0
-27957 -27956 0
27956 27955 -4929 0
-27955 -4925 0
-27955 -27954 0
27954 27953 -4926 0
-27953 -27952 0
27952 27951 -4923 0
-27951 -27950 0
27950 27949 -4920 0
-27949 -4917 0
27255 -10931 27948 0
-4941 27946 27947 0
-6075 -27946 0
-27946 -27945 0
27945 27944 -6077 0
-27944 -6072 0
-27944 -27943 0
27943 27942 -6074 0
-27942 -6069 0
-27942 -27941 0
27941 27940 -6071 0
-27940 -6066 0
-27940 -27939 0
27939 27938 -6068 0
-27938 -27937 0
27937 27936 -6065 0
-27936 -27935 0
27935 27934 -6062 0
-27934 -6059 0
-27931 -27932 0
27930 -4906 27931 0
-27930 -27929 0
27928 27929 -4903 0
-27928 -27927 0
27926 27927 -4900 0
-27926 -27925 0
27924 27925 -4897 0
-27924 -4893 0
-4912 20007 27919 0
-5612 27917 27918 0
-27913 -27917 0
-27916 -27917 0
27912 -27915 27916 0
27915 27914 27913 0
-27914 2138 0
-27914 -2684 0
-27912 -27908 0
-27912 -27911 0
27907 27911 -27910 0
-27908 -27910 0
-27910 -27909 0
27910 27908 27909 0
-27909 2137 0
-2683 -27909 0
2683 -2137 27909 0
-27907 -27903 0
-27907 -27906 0
27902 27906 -27905 0
-27903 -27905 0
-27905 -27904 0
27905 27903 27904 0
-27904 2136 0
-27904 -2682 0
2682 -2136 27904 0
-27902 -27898 0
-27902 -27901 0
27897 27901 -27900 0
-27898 -27900 0
27900 27898 27899 0
-27899 2135 0
-27899 -2681 0
2681 -2135 27899 0
-27897 -27893 0
-27897 -27896 0
27892 -27895 27896 0
-27893 -27895 0
-27895 -27894 0
27895 27893 27894 0
-27894 2134 0
-2680 -27894 0
2680 -2134 27894 0
-27892 -27888 0
-27892 -27891 0
27887 -27890 27891 0
27890 27889 27888 0
-27889 -2679 0
-27887 -27884 0
-27887 -27886 0
27886 27884 27885 0
-27885 -2678 0
-27888 -2133 0
-2679 27888 2133 0
2680 -27893 0
-2680 27893 2134 0
2681 -27898 0
-2681 27898 2135 0
-27903 -2136 0
-27903 2682 0
-2682 27903 2136 0
-27908 -2137 0
-27908 2683 0
-2683 27908 2137 0
-27913 -2138 0
2684 -27913 0
2138 -2684 27913 0
-27881 -27882 0
27880 -4878 27881 0
-27880 -27879 0
27879 27878 -4875 0
-27878 -27877 0
27877 27876 -4872 0
-27876 -27875 0
27875 27874 -4869 0
-27874 -4865 0
-4884 19923 27869 0
-5583 27867 27868 0
-27866 -27867 0
27862 -27865 27866 0
-27863 -27865 0
27865 27863 27864 0
-27864 2138 0
-27864 -2670 0
-27862 -27861 0
27857 27861 -27860 0
-27860 -27859 0
27860 27858 27859 0
-27859 2137 0
-2669 -27859 0
2669 -2137 27859 0
-27857 -27856 0
27852 27856 -27855 0
27855 27853 27854 0
-27854 2136 0
-27854 -2668 0
2668 -2136 27854 0
-27852 -27848 0
-27852 -27851 0
27847 27851 -27850 0
27850 27848 27849 0
-27849 2135 0
-27849 -2667 0
2667 -2135 27849 0
-27847 -27843 0
-27847 -27846 0
27842 -27845 27846 0
-27843 -27845 0
-27845 -27844 0
27845 27843 27844 0
-27844 2134 0
-27844 -2666 0
2666 -2134 27844 0
-27842 -27838 0
-27842 -27841 0
27837 -27840 27841 0
27840 27839 27838 0
-27839 -2665 0
-27837 -27834 0
-27837 -27836 0
27836 27834 27835 0
-27835 -2664 0
-27838 -2133 0
-2665 27838 2133 0
-27843 -2134 0
2666 -27843 0
-2666 27843 2134 0
-27848 -2135 0
2667 -27848 0
-2667 27848 2135 0
-27853 -2136 0
-27853 2668 0
-27858 -2137 0
-27858 2669 0
-27863 -2138 0
-27863 2670 0
2138 27863 -2670 0
27832 -5996 27833 0
-27831 -27832 0
27830 -4850 27831 0
-27830 -4846 0
-27830 -27829 0
27829 27828 -4847 0
-27828 -27827 0
27827 27826 -4844 0
-27826 -27825 0
27825 27824 -4841 0
-27824 -4837 0
-27824 -27823 0
27823 27822 -4838 0
-27822 -27821 0
27821 27820 -4835 0
-27820 -4832 0
-5554 27818 27819 0
-27814 -27818 0
-27817 -27818 0
27813 -27816 27817 0
-27814 -27816 0
27816 27815 27814 0
-27815 2138 0
-27815 -2656 0
-27813 -27812 0
27808 27812 -27811 0
-27809 -27811 0
27811 27809 27810 0
-27810 2137 0
-2655 -27810 0
2655 -2137 27810 0
-27808 -27807 0
27803 27807 -27806 0
-27806 -27805 0
27806 27804 27805 0
-27805 2136 0
-27805 -2654 0
2654 -2136 27805 0
-27803 -27799 0
-27801 -27799 0
27801 27799 27800 0
-2653 -27800 0
2653 27800 -2135 0
-2653 27799 2135 0
-27804 -2136 0
-27804 2654 0
-27809 -2137 0
-27809 2655 0
-2655 27809 2137 0
-27814 -2138 0
2656 -27814 0
2138 -2656 27814 0
27783 -5967 27784 0
-27782 -27783 0
27781 -4822 27782 0
-27781 -4818 0
-27781 -27780 0
27780 27779 -4819 0
-27779 -27778 0
27778 27777 -4816 0
-27777 -27776 0
27776 27775 -4813 0
-27775 -27774 0
27774 27773 -4810 0
-27773 -27772 0
27772 27771 -4807 0
-27771 -4803 0
-27771 -4804 0
-5525 27769 27770 0
-27768 -27769 0
27764 -27767 27768 0
-27766 -27767 0
27767 27765 27766 0
-27766 2138 0
-27766 -2642 0
2642 27766 -2138 0
-27764 -27760 0
-27764 -27763 0
27759 27763 -27762 0
-27762 -27761 0
27762 27760 27761 0
-27761 2137 0
-2641 -27761 0
2641 -2137 27761 0
-27759 -27755 0
-27755 -27757 0
-27757 -27756 0
27757 27755 27756 0
-27756 2136 0
-27756 -2640 0
2640 -2136 27756 0
2639 27751 -2135 0
-27755 -2136 0
-27755 2640 0
-2640 27755 2136 0
-27760 -2137 0
-27760 2641 0
-2641 27760 2137 0
-27765 -2138 0
-27765 2642 0
27734 -10931 27735 0
-27733 -27734 0
27732 -27173 27733 0
-27732 -27167 0
-27732 -27731 0
27731 27730 -27168 0
-27730 -27162 0
-27730 -27729 0
27728 -27163 27729 0
-27728 -27157 0
-27728 -27727 0
27726 -27158 27727 0
-27726 -27152 0
-27726 -27725 0
27724 -27153 27725 0
-27724 -27147 0
-27724 -27723 0
27722 -27148 27723 0
-27722 -27143 0
-27722 -27144 0
19601 -4800 27721 0
27719 -27720 0
27718 -27719 0
27717 -27718 0
27716 -27717 0
27715 -27716 0
27714 -27715 0
-27087 -27714 0
27713 -27714 0
27712 -27713 0
-27089 -27712 0
27711 -27712 0
-27090 -27711 0
27710 -27711 0
-27104 -27710 0
27709 -27710 0
-27118 -27709 0
27708 -27709 0
27707 -27708 0
-27133 -27707 0
27706 -27707 0
27705 -27706 0
-27141 -27705 0
27704 -27705 0
-27176 -27704 0
27703 -27704 0
-27190 -27703 0
27702 -27703 0
-27191 -27702 0
27701 -27702 0
-27205 -27701 0
27700 -27701 0
-27206 -27700 0
27699 -27700 0
-27220 -27699 0
27698 -27699 0
27697 -27698 0
-27256 -27697 0
27696 -27697 0
-27270 -27696 0
27695 -27696 0
27694 -27695 0
-27298 -27694 0
27693 -27694 0
27692 -27693 0
-27334 -27692 0
27691 -27692 0
-27348 -27691 0
27690 -27691 0
-27362 -27690 0
27689 -27690 0
-27376 -27689 0
27688 -27689 0
27687 -27688 0
-27391 -27687 0
27686 -27687 0
-27405 -27686 0
27685 -27686 0
-27419 -27685 0
27684 -27685 0
27683 -27684 0
-27434 -27683 0
27682 -27683 0
-27435 -27682 0
27681 -27682 0
-27436 -27681 0
27680 -27681 0
-27437 -27680 0
27679 -27680 0
-27438 -27679 0
27678 -27679 0
-27439 -27678 0
27677 -27678 0
-27440 -27677 0
27676 -27677 0
-27454 -27676 0
27675 -27676 0
-27468 -27675 0
27674 -27675 0
27673 -27674 0
-27476 -27673 0
27672 -27673 0
-27477 -27672 0
27671 -27672 0
-27491 -27671 0
27670 -27671 0
-27505 -27670 0
27669 -27670 0
27668 -27669 0
-27513 -27668 0
27667 -27668 0
-27514 -27667 0
27666 -27667 0
-27528 -27666 0
27665 -27666 0
-27542 -27665 0
27664 -27665 0
-27543 -27664 0
27663 -27664 0
-27578 -27663 0
27662 -27663 0
-27592 -27662 0
27661 -27662 0
-27593 -27661 0
27660 -27661 0
-27607 -27660 0
27659 -27660 0
-27608 -27659 0
27658 -27659 0
-27643 -27658 0
-27657 -27658 0
27656 -5938 27657 0
-27655 -27656 0
27654 -4766 27655 0
-27654 -27653 0
27653 27652 -4763 0
-27652 -27651 0
27651 27650 -4760 0
-27650 -27649 0
27649 27648 -4757 0
-27648 -4753 0
-27648 -27647 0
27647 27646 -4754 0
-27646 -4750 0
-27646 -27645 0
27645 27644 -4751 0
-27644 -4748 0
-6973 27642 27643 0
-27638 -27642 0
-27641 -27642 0
27637 -27640 27641 0
27639 27640 27638 0
-27639 2432 0
-27637 -27633 0
-27637 -27636 0
27636 27632 -27635 0
27634 27633 27635 0
-27634 -2207 0
-27634 2431 0
-27632 -27628 0
-27632 -27631 0
27631 27627 -27630 0
27629 27628 27630 0
-27629 -2206 0
-27629 2430 0
-27627 -27623 0
2430 -2206 27628 0
-4772 19517 27608 0
-5612 27606 27607 0
-7227 -27606 0
-27606 -27605 0
27605 27604 -7228 0
-27604 -7224 0
-27604 -27603 0
27603 27602 -7225 0
-27602 -7221 0
-27602 -27601 0
27601 27600 -7222 0
-27600 -7218 0
-27600 -27599 0
27599 27598 -7219 0
-27598 -7215 0
-27598 -27597 0
27597 27596 -7216 0
-27596 -7212 0
-27596 -27595 0
27595 27594 -7213 0
-27594 -7209 0
-27594 -7210 0
27404 -7234 27593 0
27591 -5909 27592 0
-27590 -27591 0
27589 -4738 27590 0
-27589 -27588 0
27587 27588 -4735 0
-27587 -4731 0
-27587 -27586 0
27585 27586 -4732 0
-27585 -27584 0
27583 27584 -4729 0
-27583 -4725 0
-27583 -27582 0
27581 27582 -4726 0
-27581 -4722 0
-6973 27577 27578 0
-27573 -27577 0
-27576 -27577 0
27572 -27575 27576 0
27575 27574 27573 0
-27574 2418 0
27574 2194 -2418 0
-27572 -27568 0
-27572 -27571 0
27571 27567 -27570 0
27570 27569 27568 0
-27569 -2193 0
-27569 2417 0
-27567 -27563 0
-27567 -27566 0
27566 27562 -27565 0
27565 27564 27563 0
-27564 -2192 0
-27564 2416 0
-27562 -27558 0
-27562 -27561 0
27561 27557 -27560 0
27560 27558 27559 0
-27559 2415 0
-27557 -27553 0
2418 -2194 27573 0
-4744 19439 27543 0
-5583 27541 27542 0
-27540 -27541 0
27539 -7200 27540 0
-27539 -7196 0
-27539 -27538 0
27538 27537 -7197 0
-27537 -7193 0
-27537 -27536 0
27536 27535 -7194 0
-27535 -7190 0
-27535 -27534 0
27534 27533 -7191 0
-27533 -7187 0
-27533 -27532 0
27532 27531 -7188 0
-27531 -7184 0
-27531 -27530 0
27530 27529 -7185 0
-27529 -7181 0
-27529 -7182 0
27527 -5880 27528 0
-27526 -27527 0
27525 -4710 27526 0
-27525 -27524 0
27523 27524 -4707 0
-27523 -4703 0
-27523 -27522 0
27521 27522 -4704 0
-27521 -27520 0
27519 27520 -4701 0
-27519 -4697 0
-27519 -27518 0
27517 27518 -4698 0
-27517 -27516 0
27515 -4695 27516 0
-27515 -4691 0
-27515 -4692 0
-6973 27333 27514 0
-4716 19360 27513 0
-5554 27504 27505 0
-7171 -27504 0
-27504 -27503 0
27503 27502 -7172 0
-27502 -7168 0
-27502 -27501 0
27501 27500 -7169 0
-27500 -27499 0
27499 27498 -7166 0
-27498 -7162 0
-27498 -27497 0
27497 27496 -7163 0
-27496 -7159 0
-27496 -27495 0
27495 27494 -7160 0
-27494 -7156 0
-27494 -27493 0
27493 27492 -7157 0
-27492 -7153 0
-27492 -7154 0
27490 -5851 27491 0
-4681 -27490 0
-27489 -27490 0
27488 -4682 27489 0
-27488 -27487 0
27487 27486 -4679 0
-27486 -27485 0
27485 -4676 27484 0
-27484 -27483 0
27483 27482 -4673 0
-27482 -4669 0
-27482 -27481 0
27481 27480 -4670 0
-27480 -27479 0
27479 27478 -4667 0
-27478 -4663 0
-27478 -4664 0
-6973 27255 27477 0
-4688 19281 27476 0
-5525 27467 27468 0
-7142 -27467 0
-27467 -27466 0
27466 27465 -7143 0
-27465 -7139 0
-27465 -27464 0
27464 27463 -7140 0
-27463 -7136 0
-27463 -27462 0
27462 27461 -7137 0
-27461 -7133 0
-27461 -27460 0
27460 27459 -7134 0
-27459 -7130 0
-27459 -27458 0
27458 27457 -7131 0
-27457 -7127 0
-27457 -27456 0
27456 27455 -7128 0
-27455 -7124 0
-27455 -7125 0
27453 -10931 27454 0
-27452 -27453 0
27451 -6967 27452 0
-27451 -27450 0
27449 27450 -6964 0
-27449 -6960 0
-27449 -27448 0
27447 27448 -6961 0
-27447 -6957 0
-27447 -27446 0
27445 27446 -6958 0
-27445 -6954 0
27204 -6973 27440 0
-4660 19202 27439 0
27189 -7057 27438 0
27175 -6973 27437 0
19123 -4632 27436 0
27132 -7029 27435 0
27433 -5822 27434 0
-4597 -27433 0
-27432 -27433 0
27431 -4598 27432 0
-27431 -4594 0
-27431 -27430 0
27430 27429 -4595 0
-27429 -27428 0
27428 27427 -4592 0
-27427 -27426 0
27426 27425 -4589 0
-27425 -27424 0
27424 27423 -4586 0
-27423 -27422 0
27422 27421 -4583 0
-27421 -4580 0
27418 -5612 27419 0
-9144 -27418 0
-27417 -27418 0
27416 27417 -9145 0
-27416 -9141 0
-27416 -27415 0
27415 27414 -9142 0
-27414 -9138 0
-27414 -27413 0
27413 27412 -9139 0
-27412 -9135 0
-27412 -27411 0
27411 27410 -9136 0
-27410 -9132 0
-27410 -27409 0
27409 27408 -9133 0
-27408 -9129 0
-27408 -27407 0
27407 27406 -9130 0
-27406 -9126 0
27404 -9151 27405 0
-27403 -27404 0
27402 -5606 27403 0
-27402 -27401 0
27401 27400 -5603 0
-27400 -27399 0
27399 27398 -5600 0
-27398 -27397 0
27397 27396 -5597 0
-27396 -27395 0
27395 27394 -5594 0
-27394 -27393 0
27393 27392 -5591 0
-27392 -5588 0
27390 -5793 27391 0
-27389 -27390 0
27388 -15275 27389 0
-27388 -15269 0
27375 -5583 27376 0
-27375 -27374 0
27374 27373 -9116 0
-27373 -9112 0
-27373 -27372 0
27372 27371 -9113 0
-27371 -9109 0
-27371 -27370 0
27370 27369 -9110 0
-27369 -9106 0
-27369 -27368 0
27368 27367 -9107 0
-27367 -9103 0
-27367 -27366 0
27366 27365 -9104 0
-27365 -27364 0
27364 27363 -9101 0
-27363 -9098 0
27361 -9122 27362 0
-27360 -27361 0
27359 -5577 27360 0
-27359 -27358 0
27358 27357 -5574 0
-27357 -27356 0
27356 27355 -5571 0
-27355 -27354 0
27354 27353 -5568 0
-27353 -27352 0
27352 27351 -5565 0
-27351 -27350 0
27350 27349 -5562 0
-27349 -5557 0
-27349 -5559 0
27347 -5764 27348 0
-15203 -27347 0
-27346 -27347 0
27345 -15204 27346 0
-27345 -15198 0
-27345 -27344 0
27344 27343 -15199 0
-27343 -15193 0
-27343 -27342 0
27341 27342 -15194 0
-27341 -15188 0
-27341 -27340 0
27339 -15189 27340 0
-27339 -15183 0
-27339 -27338 0
27337 -15184 27338 0
-27337 -15178 0
-27337 -27336 0
27336 -15179 27335 0
-27335 -15174 0
-27335 -15175 0
-8885 27333 27334 0
-27329 -27333 0
-27332 -27333 0
27328 -27331 27332 0
27331 27330 27329 0
-27330 2404 0
27330 2180 -2404 0
-27328 -27324 0
-27328 -27327 0
27327 27323 -27326 0
27326 27325 27324 0
-27325 -2179 0
-27325 2403 0
-27323 -27319 0
-27323 -27322 0
27322 27318 -27321 0
27321 27320 27319 0
-27320 -2178 0
-27320 2402 0
-27318 -27314 0
-27318 -27317 0
27317 27313 -27316 0
27316 27314 27315 0
-27315 2401 0
-27313 -27309 0
27297 -5554 27298 0
-9086 -27297 0
-27297 -27296 0
27296 27295 -9087 0
-27295 -9083 0
-27295 -27294 0
27294 27293 -9084 0
-27293 -9080 0
-27293 -27292 0
27292 27291 -9081 0
-27291 -9077 0
-27291 -27290 0
27290 27289 -9078 0
-27289 -9074 0
-27289 -27288 0
27288 27287 -9075 0
-27287 -27286 0
27286 27285 -9072 0
-27285 -9069 0
27269 -5735 27270 0
-4569 -27269 0
-27268 -27269 0
27267 -4570 27268 0
-27267 -4566 0
-27267 -27266 0
27266 27265 -4567 0
-27265 -4563 0
-27265 -27264 0
27264 27263 -4564 0
-27263 -27262 0
27262 27261 -4561 0
-27261 -27260 0
27260 27259 -4558 0
-27259 -27258 0
27258 27257 -4555 0
-27257 -4552 0
-8885 27255 27256 0
-27251 -27255 0
-27254 -27255 0
27250 -27253 27254 0
27253 27252 27251 0
-27252 2390 0
27252 2166 -2390 0
-27250 -27246 0
-27250 -27249 0
27249 27245 -27248 0
27248 27247 27246 0
-27247 -2165 0
-27247 2389 0
-27245 -27241 0
-27245 -27244 0
27244 27240 -27243 0
27243 27242 27241 0
-27242 -2164 0
-27242 2388 0
-27240 -27236 0
-27240 -27239 0
27239 27235 -27238 0
27238 27236 27237 0
-27237 -2163 0
-27237 2387 0
-27235 -27231 0
-27235 -27234 0
27234 27230 -27233 0
27233 27232 27231 0
-27232 2386 0
-27230 -27226 0
-27230 -27229 0
27229 27225 -27228 0
27228 27227 27226 0
-27227 -2161 0
-27225 -27222 0
-27225 -27224 0
27224 27222 27223 0
-27223 -2160 0
2386 -2162 27231 0
2388 -2164 27241 0
2389 -2165 27246 0
2390 -2166 27251 0
27219 -5525 27220 0
-9057 -27219 0
-27219 -27218 0
27218 -9058 27217 0
-27217 -9054 0
-27217 -27216 0
27216 27215 -9055 0
-27215 -9051 0
-27215 -27214 0
27214 27213 -9052 0
-27213 -9048 0
-27213 -27212 0
27212 27211 -9049 0
-27211 -9045 0
-27211 -27210 0
27210 27209 -9046 0
-27209 -27208 0
27208 27207 -9043 0
-27207 -9039 0
-27207 -9040 0
27117 -10931 27206 0
-8885 27204 27205 0
-10923 -27204 0
-27203 -27204 0
27202 -10925 27203 0
-27202 -10920 0
-27202 -27201 0
27201 -10922 27200 0
-27200 -10917 0
-27200 -27199 0
27199 -10919 27198 0
-27198 -10914 0
-27198 -27197 0
27197 -10916 27196 0
-27196 -10911 0
-27196 -27195 0
27195 -10913 27194 0
-27194 -10908 0
-27194 -27193 0
27193 -10910 27192 0
-27192 -10905 0
-27192 -10907 0
18659 -4548 27191 0
27189 -9035 27190 0
-8885 27175 27176 0
-27171 -27175 0
-27174 -27175 0
27170 -27173 27174 0
-27171 -27173 0
-27172 -27173 0
27173 27172 27171 0
-27172 -2138 0
-27172 2362 0
2138 27172 -2362 0
-27170 -27166 0
-27170 -27169 0
27165 27169 -27168 0
-27166 -27168 0
-27168 -27167 0
27168 27167 27166 0
-27167 -2137 0
-27167 2361 0
-2361 27167 2137 0
-27165 -27161 0
-27165 -27164 0
27160 27164 -27163 0
-27161 -27163 0
-27163 -27162 0
27163 27162 27161 0
-27162 -2136 0
-27162 2360 0
-2360 27162 2136 0
-27160 -27156 0
-27160 -27159 0
27155 27159 -27158 0
-27156 -27158 0
-27158 -27157 0
27158 27157 27156 0
-27157 -2135 0
2359 -27157 0
-2359 27157 2135 0
-27155 -27151 0
-27155 -27154 0
27150 27154 -27153 0
-27151 -27153 0
-27153 -27152 0
27153 27152 27151 0
-27152 -2134 0
2358 -27152 0
-2358 27152 2134 0
-27150 -27149 0
27145 27149 -27148 0
27148 27147 27146 0
-27147 -2133 0
2357 -27147 0
-2357 27147 2133 0
-27145 -27142 0
-27145 -27144 0
27144 27143 27142 0
-27143 -2132 0
-27142 2132 0
-2356 -27142 0
-27146 2133 0
-27146 -2357 0
-27151 2134 0
-27151 -2358 0
2358 -2134 27151 0
-27156 2135 0
-27156 -2359 0
2359 -2135 27156 0
-27161 2136 0
-27161 -2360 0
2360 -2136 27161 0
-27166 2137 0
-27166 -2361 0
2361 -2137 27166 0
-27171 2138 0
-27171 -2362 0
2362 -2138 27171 0
18470 -4520 27141 0
-8943 27132 27133 0
-25889 -27132 0
-27131 -27132 0
27130 -25891 27131 0
-27130 -25886 0
27117 -6973 27118 0
-8878 -27117 0
-27116 -27117 0
27115 -8879 27116 0
-27115 -8875 0
-27115 -27114 0
27114 27113 -8876 0
-27113 -8872 0
-27113 -27112 0
27112 27111 -8873 0
-27111 -8869 0
-27111 -27110 0
27110 27109 -8870 0
-27109 -8866 0
-27109 -27108 0
27108 27107 -8867 0
-27107 -8863 0
-27107 -27106 0
27106 27105 -8864 0
-27105 -8860 0
-27105 -8861 0
27103 -8885 27104 0
-6965 -27103 0
-27102 -27103 0
27101 27102 -6967 0
-27101 -6962 0
-27101 -27100 0
27099 27100 -6964 0
-27099 -6959 0
-27099 -27098 0
27097 27098 -6961 0
-27097 -6956 0
-27097 -27096 0
27095 27096 -6958 0
-27095 -6953 0
18330 -4492 27090 0
14347 -7486 27089 0
-8914 27086 27087 0
-10216 -27086 0
-27065 -27067 0
27067 27065 27066 0
-27060 -27062 0
-27061 -27062 0
27062 27060 27061 0
-27061 -2277 0
-27061 2319 0
27061 -2319 2277 0
-27055 -27057 0
27057 27055 27056 0
-27056 -2276 0
-27056 2318 0
27056 -2318 2276 0
27050 27052 27051 0
-27051 -2275 0
-27051 2317 0
27051 2275 -2317 0
27045 27047 27046 0
-27046 2316 0
27046 2274 -2316 0
27041 27040 27042 0
27037 27036 27038 0
-27036 2272 0
-27040 -2315 0
-27045 2274 0
-27050 2275 0
-27050 -2317 0
-27055 2276 0
-27055 -2318 0
27055 -2276 2318 0
-27060 2277 0
-27060 -2319 0
27060 -2277 2319 0
-27065 2278 0
-27065 -2320 0
27065 2320 -2278 0
-26311 -27033 0
27032 -27033 0
-26312 -27032 0
27031 -27032 0
-26347 -27031 0
27030 -27031 0
-26348 -27030 0
27029 -27030 0
-26349 -27029 0
27028 -27029 0
27027 -27028 0
-26351 -27027 0
27026 -27027 0
-26352 -27026 0
27025 -27026 0
-26353 -27025 0
27024 -27025 0
-26354 -27024 0
27023 -27024 0
-26355 -27023 0
27022 -27023 0
-26356 -27022 0
27021 -27022 0
27020 -27021 0
-26358 -27020 0
27019 -27020 0
-26359 -27019 0
27018 -27019 0
-26360 -27018 0
27017 -27018 0
-26361 -27017 0
27016 -27017 0
-26362 -27016 0
27015 -27016 0
-26376 -27015 0
27014 -27015 0
-26377 -27014 0
27013 -27014 0
-26378 -27013 0
27012 -27013 0
-26392 -27012 0
27011 -27012 0
27010 -27011 0
-26407 -27010 0
27009 -27010 0
-26408 -27009 0
27008 -27009 0
-26409 -27008 0
27007 -27008 0
-26410 -27007 0
27006 -27007 0
-26411 -27006 0
27005 -27006 0
-26412 -27005 0
27004 -27005 0
-26413 -27004 0
27003 -27004 0
-26414 -27003 0
27002 -27003 0
-26415 -27002 0
27001 -27002 0
-26416 -27001 0
27000 -27001 0
-26417 -27000 0
26999 -27000 0
-26418 -26999 0
26998 -26999 0
26997 -26998 0
-26467 -26997 0
26996 -26997 0
-26468 -26996 0
26995 -26996 0
-26469 -26995 0
26994 -26995 0
-26504 -26994 0
26993 -26994 0
-26505 -26993 0
26992 -26993 0
-26506 -26992 0
26991 -26992 0
-26541 -26991 0
26990 -26991 0
-26542 -26990 0
26989 -26990 0
-26543 -26989 0
26988 -26989 0
-26544 -26988 0
26987 -26988 0
-26545 -26987 0
26986 -26987 0
-26546 -26986 0
26985 -26986 0
-26581 -26985 0
26984 -26985 0
-26582 -26984 0
26983 -26984 0
-26617 -26983 0
26982 -26983 0
-26652 -26982 0
26981 -26982 0
-26687 -26981 0
26980 -26981 0
-26688 -26980 0
26979 -26980 0
-26723 -26979 0
26978 -26979 0
-26758 -26978 0
26977 -26978 0
-26793 -26977 0
26976 -26977 0
-26794 -26976 0
26975 -26976 0
-26829 -26975 0
26974 -26975 0
-26864 -26974 0
26973 -26974 0
-26899 -26973 0
26972 -26973 0
-26900 -26972 0
26971 -26972 0
-26935 -26971 0
-26970 -26971 0
26969 26970 -10902 0
-26965 -26969 0
-26968 -26969 0
26964 -26967 26968 0
26967 26966 26965 0
-26966 -2208 0
-26966 2320 0
-26960 -26964 0
-26963 -26964 0
26959 -26962 26963 0
26962 26961 26960 0
-26961 -2207 0
-26961 2319 0
26961 -2319 2207 0
-26955 -26959 0
-26958 -26959 0
26954 -26957 26958 0
26957 26955 26956 0
-26956 -2206 0
-26956 2318 0
-26950 -26954 0
-26953 -26954 0
26949 -26952 26953 0
26951 26952 26950 0
-26951 -2205 0
-26951 2317 0
-26949 -26945 0
-26949 -26948 0
26948 26944 -26947 0
26946 26945 26947 0
-26946 -2204 0
-26946 2316 0
-26944 -26940 0
-26944 -26943 0
26943 26939 -26942 0
26941 26940 26942 0
-26941 -2203 0
-26941 2315 0
-26939 -26936 0
-26939 -26938 0
26938 26936 26937 0
-26937 -2202 0
-26937 2314 0
26940 -2203 2315 0
-26945 2204 0
-26945 -2316 0
26945 -2204 2316 0
-2205 2317 26950 0
-2206 26955 2318 0
-2207 26960 2319 0
2320 -2208 26965 0
26934 -5028 26935 0
-26933 -26934 0
26929 -26932 26933 0
-26932 -26930 0
-26932 -26931 0
26932 26930 26931 0
-26931 -2264 0
-26931 2320 0
2264 -2320 26931 0
-26929 -26925 0
-26929 -26928 0
26928 26924 -26927 0
-26927 -26925 0
26927 26925 26926 0
-26926 -2263 0
-26926 2319 0
-2319 2263 26926 0
-26924 -26920 0
-26924 -26923 0
26919 -26922 26923 0
-26922 -26920 0
26922 26920 26921 0
-26921 -2262 0
-26921 2318 0
-2318 2262 26921 0
-26919 -26915 0
-26919 -26918 0
26918 -26917 26914 0
-26917 -26915 0
26917 26915 26916 0
-26916 -2261 0
2317 -26916 0
-2317 2261 26916 0
-26914 -26910 0
-26912 -26910 0
-26912 -26911 0
26912 26910 26911 0
-26911 -2260 0
2316 -26911 0
-2316 2260 26911 0
26907 26905 26906 0
-26906 -2259 0
2315 -26906 0
-2315 2259 26906 0
26903 26901 26902 0
-26901 -2314 0
-26905 2259 0
-26905 -2315 0
-26910 2260 0
-26910 -2316 0
2316 26910 -2260 0
-26915 2261 0
-26915 -2317 0
2317 26915 -2261 0
-26920 2262 0
-26920 -2318 0
26920 -2262 2318 0
-26925 2263 0
-26925 -2319 0
26925 -2263 2319 0
-26930 2264 0
-26930 -2320 0
26930 2320 -2264 0
26169 -11134 26900 0
-4377 26898 26899 0
-26894 -26898 0
-26897 -26898 0
26893 -26896 26897 0
26896 26895 26894 0
-26895 2320 0
-26895 -2726 0
-26893 -26889 0
-26893 -26892 0
26892 26888 -26891 0
26891 26889 26890 0
-26890 2319 0
-26890 -2725 0
-26888 -26884 0
-26888 -26887 0
26887 26883 -26886 0
26886 26884 26885 0
-26885 2318 0
-26885 -2724 0
-26883 -26879 0
-26883 -26882 0
26882 26878 -26881 0
26881 26879 26880 0
-26880 2317 0
-26878 -26874 0
26874 2316 -2722 0
26879 2317 -2723 0
-26884 -2318 0
-26884 2724 0
-2724 26884 2318 0
-26889 -2319 0
-26889 2725 0
-2725 26889 2319 0
-26894 -2320 0
2320 -2726 26894 0
26863 26864 -10902 0
-26859 -26863 0
-26862 -26863 0
26858 -26861 26862 0
26861 26860 26859 0
-26860 -2194 0
-26860 2306 0
-26854 -26858 0
-26857 -26858 0
26853 -26856 26857 0
26856 26855 26854 0
-26855 -2193 0
-26855 2305 0
-2305 26855 2193 0
-26849 -26853 0
-26852 -26853 0
26848 -26851 26852 0
26851 26849 26850 0
-26850 -2192 0
-26850 2304 0
-26844 -26848 0
-26847 -26848 0
26843 -26846 26847 0
26846 26845 26844 0
-26845 -2191 0
-26845 2303 0
-26843 -26839 0
-26843 -26842 0
26842 26838 -26841 0
26841 26840 26839 0
-26840 -2190 0
-26840 2302 0
-26838 -26834 0
-26838 -26837 0
26837 26833 -26836 0
26836 26834 26835 0
-26835 -2189 0
-26835 2301 0
-26833 -26830 0
-26833 -26832 0
26832 26830 26831 0
-26831 -2188 0
-26831 2300 0
26834 2301 -2189 0
2302 -2190 26839 0
2303 -2191 26844 0
-26849 2192 0
-2192 26849 2304 0
-2193 26854 2305 0
2306 -2194 26859 0
26828 -4999 26829 0
-26824 -26828 0
-26827 -26828 0
26823 -26826 26827 0
-26826 -26824 0
-26826 -26825 0
26826 26824 26825 0
-26825 -2264 0
-26825 2306 0
2264 -2306 26825 0
-26823 -26819 0
-26823 -26822 0
26822 26818 -26821 0
-26821 -26820 0
26821 26819 26820 0
-26820 -2263 0
-26820 2305 0
-2305 2263 26820 0
-26818 -26814 0
-26818 -26817 0
26813 -26816 26817 0
-26816 -26814 0
-26816 -26815 0
26816 26814 26815 0
-26815 -2262 0
-26815 2304 0
-2304 2262 26815 0
-26813 -26809 0
-26813 -26812 0
26808 -26811 26812 0
-26811 -26809 0
-26811 -26810 0
26811 26809 26810 0
-26810 -2261 0
2303 -26810 0
-2303 2261 26810 0
-26808 -26804 0
-26808 -26807 0
26803 -26806 26807 0
-26806 -26805 0
26806 26804 26805 0
-26805 -2260 0
2302 -26805 0
-2302 2260 26805 0
-26803 -26799 0
-26803 -26802 0
26798 -26801 26802 0
26801 26799 26800 0
-26800 2301 0
-2301 2259 26800 0
-26798 -26795 0
-26798 -26797 0
26797 26795 26796 0
-26796 -2258 0
-26795 2258 0
-2300 -26795 0
-26799 2259 0
-26799 -2301 0
2301 26799 -2259 0
-26804 2260 0
-26804 -2302 0
2302 26804 -2260 0
-26809 2261 0
-26809 -2303 0
2303 26809 -2261 0
-26814 2262 0
-26814 -2304 0
26814 -2262 2304 0
-26819 2263 0
-26819 -2305 0
26819 -2263 2305 0
-26824 2264 0
-26824 -2306 0
2306 -2264 26824 0
26134 -11105 26794 0
26792 -4377 26793 0
-26788 -26792 0
-26791 -26792 0
26787 -26790 26791 0
26790 26789 26788 0
-26789 2306 0
-26787 -26783 0
-26787 -26786 0
26786 26782 -26785 0
26785 26783 26784 0
-26784 2305 0
-26782 -26778 0
-26782 -26781 0
26781 26777 -26780 0
26780 26778 26779 0
-26779 2304 0
-26779 -2710 0
-26777 -26773 0
26773 2303 -2709 0
-2712 2306 26788 0
26757 26758 -10902 0
-26753 -26757 0
-26756 -26757 0
26752 -26755 26756 0
26755 26754 26753 0
-26754 -2180 0
-26754 2292 0
-26748 -26752 0
-26751 -26752 0
26747 -26750 26751 0
26750 26749 26748 0
-26749 -2179 0
-26749 2291 0
-26743 -26747 0
-26746 -26747 0
26742 -26745 26746 0
26745 26743 26744 0
-26744 -2178 0
-26744 2290 0
-26738 -26742 0
-26741 -26742 0
26737 -26740 26741 0
26740 26739 26738 0
-26739 -2177 0
-26739 2289 0
-26737 -26733 0
-26737 -26736 0
26736 26732 -26735 0
26735 26734 26733 0
-26734 -2176 0
-26732 -26728 0
-26732 -26731 0
26731 26727 -26730 0
26730 26729 26728 0
-26729 -2175 0
-26729 2287 0
-26727 -26724 0
-26727 -26726 0
26726 26725 26724 0
-26725 -2174 0
-26725 2286 0
2287 -2175 26728 0
2288 -2176 26733 0
-26738 2177 0
2289 -2177 26738 0
-2178 26743 2290 0
-2179 26748 2291 0
2292 -2180 26753 0
26722 -4970 26723 0
-26718 -26722 0
-26721 -26722 0
26717 -26720 26721 0
-26720 -26718 0
-26720 -26719 0
26720 26718 26719 0
-26719 -2264 0
-26719 2292 0
2264 -2292 26719 0
-26717 -26716 0
26716 26712 -26715 0
-26715 -26714 0
26715 26713 26714 0
-26714 -2263 0
-26714 2291 0
-2291 2263 26714 0
-26712 -26708 0
-26712 -26711 0
26707 -26710 26711 0
-26710 -26708 0
-26710 -26709 0
26710 26708 26709 0
-26709 -2262 0
-26709 2290 0
-2290 2262 26709 0
-26707 -26703 0
-26707 -26706 0
26702 -26705 26706 0
-26705 -26703 0
-26705 -26704 0
26705 26703 26704 0
-26704 -2261 0
2289 -26704 0
-2289 2261 26704 0
-26702 -26698 0
-26702 -26701 0
26697 -26700 26701 0
-26700 -26698 0
-26700 -26699 0
26700 26698 26699 0
-26699 -2260 0
2288 -26699 0
-2288 2260 26699 0
-26697 -26693 0
-26697 -26696 0
26692 -26695 26696 0
26695 26693 26694 0
-26694 -2259 0
2287 -26694 0
-2287 2259 26694 0
-26692 -26689 0
-26692 -26691 0
26691 26689 26690 0
-26690 -2258 0
2286 -26690 0
-26689 2258 0
-2286 -26689 0
-26693 2259 0
-26693 -2287 0
-26698 2260 0
-26698 -2288 0
2288 26698 -2260 0
-26703 2261 0
-26703 -2289 0
2289 26703 -2261 0
-26708 2262 0
-26708 -2290 0
26708 -2262 2290 0
-26713 2263 0
-26713 -2291 0
-26718 2264 0
-26718 -2292 0
2292 -2264 26718 0
26099 -11076 26688 0
26686 -4377 26687 0
-26682 -26686 0
-26685 -26686 0
26681 -26684 26685 0
26684 26683 26682 0
-26683 2292 0
-26681 -26677 0
-26681 -26680 0
26680 26676 -26679 0
26679 26677 26678 0
-26678 2291 0
-26676 -26672 0
-26676 -26675 0
26675 26671 -26674 0
26674 26672 26673 0
-26673 2290 0
-26673 -2696 0
-26671 -26667 0
26667 2289 -2695 0
-26672 -2290 0
-26672 2696 0
26651 26652 -10902 0
-26647 -26651 0
-26650 -26651 0
26646 -26649 26650 0
26649 26648 26647 0
-26648 -2166 0
-26648 2278 0
-26642 -26646 0
-26645 -26646 0
26641 -26644 26645 0
26644 26643 26642 0
-26643 -2165 0
-26643 2277 0
-2277 26643 2165 0
-26637 -26641 0
-26640 -26641 0
26636 -26639 26640 0
26639 26637 26638 0
-26638 -2164 0
-26638 2276 0
-2276 26638 2164 0
-26632 -26636 0
-26635 -26636 0
26631 -26634 26635 0
26634 26633 26632 0
-26633 -2163 0
-26633 2275 0
-26631 -26627 0
-26631 -26630 0
26630 26626 -26629 0
26629 26628 26627 0
-26628 -2162 0
-26628 2274 0
-26626 -26622 0
-26626 -26625 0
26625 26621 -26624 0
26624 26623 26622 0
-26623 -2161 0
-26623 2273 0
-26621 -26618 0
-26621 -26620 0
26620 26619 26618 0
-26619 -2160 0
-26619 2272 0
2273 -2161 26622 0
-26627 2162 0
-26627 -2274 0
2274 -2162 26627 0
-26632 -2275 0
2275 -2163 26632 0
-26637 2164 0
-26637 -2276 0
-2164 26637 2276 0
-26642 2165 0
-2165 26642 2277 0
2278 -2166 26647 0
26616 -4941 26617 0
-26612 -26616 0
-26615 -26616 0
26611 -26614 26615 0
-26614 -26612 0
26614 26612 26613 0
-26613 -2264 0
-26613 2278 0
2264 -2278 26613 0
-26611 -26610 0
26606 -26609 26610 0
-26609 -26608 0
26609 26607 26608 0
-26608 -2263 0
-26608 2277 0
-2277 2263 26608 0
-26606 -26602 0
-26606 -26605 0
26601 -26604 26605 0
-26604 -26602 0
-26604 -26603 0
26604 26602 26603 0
-26603 -2262 0
-26603 2276 0
-2276 2262 26603 0
-26601 -26597 0
-26601 -26600 0
26596 -26599 26600 0
-26599 -26597 0
-26599 -26598 0
26599 26597 26598 0
-26598 -2261 0
2275 -26598 0
-2275 2261 26598 0
-26596 -26592 0
-26596 -26595 0
26591 -26594 26595 0
-26594 -26592 0
26594 26592 26593 0
-26593 -2260 0
2274 -26593 0
-2274 2260 26593 0
-26591 -26587 0
-26591 -26590 0
26586 -26589 26590 0
26589 26587 26588 0
-26588 2273 0
-2273 2259 26588 0
-26586 -26583 0
-26586 -26585 0
26585 26583 26584 0
-26584 -2258 0
-26583 2258 0
-2272 -26583 0
-26587 2259 0
-26587 -2273 0
2273 26587 -2259 0
-26592 2260 0
-26592 -2274 0
2274 26592 -2260 0
-26597 2261 0
-26597 -2275 0
2275 26597 -2261 0
-26602 2262 0
-26602 -2276 0
26602 -2262 2276 0
-26607 2263 0
-26607 -2277 0
-26612 2264 0
-26612 -2278 0
2278 -2264 26612 0
26064 -11047 26582 0
26580 -4377 26581 0
-26576 -26580 0
-26579 -26580 0
26575 -26578 26579 0
26578 26577 26576 0
-26577 2278 0
-26575 -26571 0
-26575 -26574 0
26574 26570 -26573 0
26573 26571 26572 0
-26572 2277 0
-26570 -26566 0
-26570 -26569 0
26569 26565 -26568 0
26568 26566 26567 0
-26567 2276 0
-26567 -10757 0
-26565 -26561 0
-26565 -26564 0
26564 26560 -26563 0
26563 26561 26562 0
-26562 -10756 0
-26560 -26559 0
26559 26555 -26558 0
26558 26557 26556 0
-26557 2274 0
-26555 -26551 0
-26555 -26554 0
26554 26550 -26553 0
26553 26551 26552 0
-26552 -10754 0
-26550 -26547 0
-26550 -26549 0
26549 26547 26548 0
-26548 2272 0
-26556 10755 0
-26561 -2275 0
-26566 -2276 0
-10759 2278 26576 0
17938 -4912 26546 0
-4349 17903 26545 0
17868 -4884 26544 0
17833 -4349 26543 0
17798 -4856 26542 0
26540 -4349 26541 0
-26536 -26540 0
-26539 -26540 0
26535 -26538 26539 0
26538 26536 26537 0
-26537 2292 0
-26537 -2656 0
2656 -2292 26537 0
-26535 -26531 0
-26535 -26534 0
26534 26530 -26533 0
-26533 -26531 0
26531 26533 26532 0
-26532 2291 0
-26530 -26526 0
-26530 -26529 0
26525 -26528 26529 0
-26528 -26526 0
26526 26528 26527 0
-26527 2290 0
-26527 -2654 0
-26525 -26521 0
-26523 -26521 0
26521 26523 26522 0
-26522 -2653 0
26521 -2653 2289 0
-26526 -2290 0
2654 -26526 0
26526 -2654 2290 0
-26531 2655 0
-2655 26531 2291 0
-26536 -2292 0
2656 -26536 0
2292 -2656 26536 0
17763 -4828 26506 0
17728 -4349 26505 0
26503 26504 -10902 0
-26499 -26503 0
-26502 -26503 0
26498 -26501 26502 0
26501 26500 26499 0
-26500 2138 0
-26500 -2250 0
2250 26500 -2138 0
-26494 -26498 0
-26497 -26498 0
26493 -26496 26497 0
26496 26494 26495 0
-26495 2137 0
-26495 -2249 0
-26489 -26493 0
-26492 -26493 0
26488 -26491 26492 0
26491 26489 26490 0
-26490 2136 0
-26490 -2248 0
-2136 26490 2248 0
-26484 -26488 0
-26487 -26488 0
26483 -26486 26487 0
26486 26485 26484 0
-26485 2135 0
-26485 -2247 0
-26483 -26479 0
-26483 -26482 0
26482 26478 -26481 0
26481 26479 26480 0
-26480 2134 0
-26480 -2246 0
-26478 -26474 0
-26478 -26477 0
26477 26473 -26476 0
26476 26474 26475 0
-26475 2133 0
-26475 -2245 0
-26473 -26470 0
-26473 -26472 0
26472 26470 26471 0
-26471 2132 0
-26471 -2244 0
26474 -2245 2133 0
-26479 -2134 0
-26479 2246 0
-2246 26479 2134 0
-26484 -2135 0
-26484 2247 0
-2247 2135 26484 0
-26489 -2136 0
-26489 2248 0
-2248 26489 2136 0
-26494 2249 0
-2249 26494 2137 0
2138 -2250 26499 0
17679 -4800 26469 0
14159 -11250 26468 0
-25959 26466 26467 0
-26465 -26466 0
26461 -26464 26465 0
26464 26462 26463 0
-26463 2138 0
-26461 -26457 0
-26461 -26460 0
26456 -26459 26460 0
-26457 -26459 0
26459 26457 26458 0
-26458 2137 0
-26458 -2627 0
-26456 -26455 0
26451 -26454 26455 0
26454 26453 26452 0
-26453 -2626 0
-26451 -26450 0
26446 -26449 26450 0
26449 26447 26448 0
-26448 2135 0
-26446 -26445 0
26441 -26444 26445 0
26444 26443 26442 0
-26443 -2624 0
-26441 -26437 0
-26441 -26440 0
26436 -26439 26440 0
26439 26437 26438 0
-26438 2133 0
-26436 -26433 0
-26436 -26435 0
26435 26433 26434 0
-26434 2132 0
-26437 2623 0
-2623 26437 2133 0
-26442 -2134 0
-26447 2625 0
-26452 -2136 0
-26457 -2137 0
-2627 26457 2137 0
-26462 2628 0
17602 -4772 26418 0
26169 -7234 26417 0
-4321 17566 26416 0
17531 -4744 26415 0
26134 -7206 26414 0
17495 -4321 26413 0
17460 -4716 26412 0
26099 -7178 26411 0
17424 -4321 26410 0
17389 -4688 26409 0
26064 -7149 26408 0
17353 -4321 26407 0
-4653 -26405 0
-26404 -26405 0
26403 -4654 26404 0
-26403 -26402 0
26402 26401 -4651 0
-26401 -4647 0
-26401 -26400 0
26400 26399 -4648 0
-26399 -4644 0
-26399 -26398 0
26398 26397 -4645 0
-26397 -4641 0
-26397 -26396 0
26396 26395 -4642 0
-26395 -4638 0
-26395 -26394 0
26394 26393 -4639 0
-26393 -4635 0
-26393 -4636 0
26391 -10902 26392 0
-6938 -26391 0
-26390 -26391 0
26389 -6939 26390 0
-6935 -26389 0
-26388 -26389 0
26387 -6936 26388 0
-6932 -26387 0
-26386 -26387 0
26385 -6933 26386 0
-6929 -26385 0
-26384 -26385 0
26383 -6930 26384 0
-26383 -6926 0
-26383 -26382 0
26381 -6927 26382 0
-26381 -6923 0
-26381 -26380 0
26379 -6924 26380 0
-26379 -6920 0
-26379 -6921 0
17304 -4660 26378 0
14131 -11221 26377 0
26375 -25959 26376 0
-7050 -26375 0
-26374 -26375 0
26373 26374 -7051 0
-26373 -7047 0
-26373 -26372 0
26371 26372 -7048 0
-26371 -7044 0
26232 -7057 26362 0
17254 -4321 26361 0
17239 -4632 26360 0
25931 -7029 26359 0
-4321 17203 26358 0
26169 -9151 26356 0
-4293 17132 26355 0
26134 -9122 26354 0
17061 -4293 26353 0
26099 -9093 26352 0
16990 -4293 26351 0
26064 -9064 26349 0
16919 -4293 26348 0
26346 -10902 26347 0
-26342 -26346 0
-26345 -26346 0
26341 -26344 26345 0
26344 26343 26342 0
-26343 2110 0
-26343 -2222 0
2222 26343 -2110 0
-26337 -26341 0
-26340 -26341 0
26336 -26339 26340 0
26339 26337 26338 0
-26338 2109 0
-26338 -2221 0
-2109 26338 2221 0
-26332 -26336 0
-26335 -26336 0
26331 -26334 26335 0
26334 26332 26333 0
-26333 2108 0
-26333 -2220 0
-2108 26333 2220 0
-26327 -26331 0
-26330 -26331 0
26326 -26329 26330 0
26329 26328 26327 0
-26328 2107 0
-26328 -2219 0
2219 -2107 26328 0
-26326 -26322 0
-26326 -26325 0
26325 26321 -26324 0
26324 26322 26323 0
-26323 2106 0
-26323 -2218 0
-26321 -26317 0
-26321 -26320 0
26320 26316 -26319 0
26319 26317 26318 0
-26318 2105 0
-26318 -2217 0
-26316 -26313 0
-26316 -26315 0
26315 26313 26314 0
-26314 2104 0
-26314 -2216 0
-2217 26317 2105 0
-26322 -2106 0
-26322 2218 0
26322 -2218 2106 0
-26327 -2107 0
-2219 2107 26327 0
-2220 26332 2108 0
-2221 26337 2109 0
2110 -2222 26342 0
16793 -4548 26312 0
14068 -11192 26311 0
-25436 -26310 0
26309 -26310 0
26308 -26309 0
-25438 -26308 0
26307 -26308 0
-25439 -26307 0
26306 -26307 0
-25440 -26306 0
26305 -26306 0
26304 -26305 0
-25442 -26304 0
26303 -26304 0
-25443 -26303 0
26302 -26303 0
-25444 -26302 0
26301 -26302 0
26300 -26301 0
-25446 -26300 0
26299 -26300 0
-25447 -26299 0
26298 -26299 0
-25448 -26298 0
26297 -26298 0
-25449 -26297 0
26296 -26297 0
-25450 -26296 0
26295 -26296 0
26294 -26295 0
-25486 -26294 0
26293 -26294 0
-25487 -26293 0
26292 -26293 0
26291 -26292 0
-25489 -26291 0
26290 -26291 0
26289 -26290 0
-25491 -26289 0
26288 -26289 0
26287 -26288 0
26286 -26287 0
-25507 -26286 0
26285 -26286 0
-25521 -26285 0
26284 -26285 0
-25535 -26284 0
26283 -26284 0
26282 -26283 0
-25563 -26282 0
26281 -26282 0
-25577 -26281 0
26280 -26281 0
-25578 -26280 0
26279 -26280 0
-25592 -26279 0
26278 -26279 0
-25606 -26278 0
26277 -26278 0
-25641 -26277 0
26276 -26277 0
-25655 -26276 0
26275 -26276 0
-25669 -26275 0
26274 -26275 0
-25683 -26274 0
26273 -26274 0
26272 -26273 0
-25711 -26272 0
26271 -26272 0
26270 -26271 0
-25808 -26270 0
26269 -26270 0
26268 -26269 0
26267 -26268 0
-25870 -26267 0
26266 -26267 0
26265 -26266 0
-25994 -26265 0
26264 -26265 0
-25995 -26264 0
26263 -26264 0
-26030 -26263 0
26262 -26263 0
-26065 -26262 0
26261 -26262 0
-26100 -26261 0
26260 -26261 0
-26135 -26260 0
26259 -26260 0
-26170 -26259 0
26258 -26259 0
-26171 -26258 0
26257 -26258 0
-26185 -26257 0
26256 -26257 0
26255 -26256 0
-26200 -26255 0
26254 -26255 0
-26201 -26254 0
26253 -26254 0
26252 -26253 0
-26216 -26252 0
26251 -26252 0
-26217 -26251 0
26250 -26251 0
-26218 -26250 0
26249 -26250 0
-26219 -26249 0
26248 -26249 0
-26233 -26248 0
-26247 -26248 0
26246 -25959 26247 0
-9028 -26246 0
-26245 -26246 0
26244 26245 -9029 0
-26244 -9025 0
-26244 -26243 0
26242 26243 -9026 0
-26242 -9022 0
-26242 -26241 0
26240 26241 -9023 0
-26240 -9019 0
-26240 -26239 0
26238 26239 -9020 0
-26238 -9016 0
-26238 -26237 0
26236 -9017 26237 0
-26236 -9013 0
-26236 -26235 0
26234 -9014 26235 0
-26234 -9010 0
-26234 -9011 0
26232 -9035 26233 0
-25952 -26232 0
-26231 -26232 0
-26231 25953 0
-26231 -26230 0
-25953 26230 26231 0
-26230 -25949 0
-26230 -26229 0
26230 26229 25949 0
-26229 25950 0
-26229 -26228 0
-25950 26229 26228 0
-26228 -25946 0
-26228 -26227 0
26228 26227 25946 0
-26227 25947 0
-26227 -26226 0
-25947 26226 26227 0
-26226 -25943 0
-26226 -26225 0
26226 26225 25943 0
-26225 25944 0
-26225 -26224 0
26224 26225 -25944 0
-26224 -25940 0
-26224 -26223 0
26224 26223 25940 0
-26223 25941 0
-26223 -26222 0
26222 26223 -25941 0
-26222 -25937 0
-26222 -26221 0
26222 26221 25937 0
-26221 25938 0
-26221 -26220 0
26221 -25938 26220 0
-26220 -25934 0
-26220 -25935 0
26220 25935 25934 0
-4293 16756 26219 0
16741 -4520 26218 0
25931 -8943 26217 0
-4293 16671 26216 0
16615 -4492 26201 0
14068 -7290 26200 0
26184 -8914 26185 0
-26183 -26184 0
26182 -25849 26183 0
-26182 -26181 0
26181 26180 -25846 0
-26180 -25842 0
-26180 -26179 0
26178 -25843 26179 0
-26178 -25839 0
-26178 -26177 0
26176 -25840 26177 0
-26176 -25836 0
-26176 -26175 0
26174 -25837 26175 0
-26174 -25833 0
-26174 -26173 0
26172 -25834 26173 0
-26172 -25830 0
-26172 -25831 0
-4293 16565 26171 0
26169 -5612 26170 0
-26165 -26169 0
-26168 -26169 0
26164 -26167 26168 0
26167 26166 26165 0
-26166 -2019 0
-26166 2320 0
-26164 -26160 0
-26164 -26163 0
26159 -26162 26163 0
-26162 -26161 0
26162 26160 26161 0
-26161 -2018 0
-26161 2319 0
-2319 26161 2018 0
-26159 -26155 0
-26159 -26158 0
26154 -26157 26158 0
26157 26155 26156 0
-26156 -2017 0
-26156 2318 0
-26154 -26150 0
-26154 -26153 0
-26149 -26153 0
26149 -26152 26153 0
-26152 -26151 0
26152 26150 26151 0
-26151 -2016 0
-26151 2317 0
-2317 2016 26151 0
-26149 -26145 0
-26149 -26148 0
26149 26148 26145 0
-26144 -26148 0
26147 -26148 0
26144 -26147 26148 0
-26147 -26146 0
26147 26145 26146 0
-26146 -2015 0
-26146 2316 0
-2316 2015 26146 0
-26144 -26140 0
-26144 -26143 0
26144 26143 26140 0
-26139 -26143 0
26142 -26143 0
26139 -26142 26143 0
-26142 -26141 0
26142 26140 26141 0
-26141 -2014 0
2315 -26141 0
-2315 2014 26141 0
-26139 -26136 0
-26139 -26138 0
26139 26138 26136 0
-26138 -26137 0
26138 26136 26137 0
-26137 -2013 0
2314 -26137 0
-2314 2013 26137 0
-26136 -2314 0
-26140 -2315 0
2315 26140 -2014 0
-26145 2015 0
-26145 -2316 0
2316 26145 -2015 0
-26150 2016 0
-26150 -2317 0
2317 26150 -2016 0
26155 -2017 2318 0
-26160 2018 0
-26160 -2319 0
-2018 26160 2319 0
-26165 2019 0
-26165 -2320 0
2320 -2019 26165 0
26134 -5583 26135 0
-26130 -26134 0
-26133 -26134 0
26129 -26132 26133 0
-26132 -26130 0
26132 26131 26130 0
-26131 -2019 0
-26131 2306 0
-26129 -26125 0
-26129 -26128 0
26124 26128 -26127 0
26127 26125 26126 0
-26126 -2018 0
-26126 2305 0
-26124 -26120 0
-26124 -26123 0
26119 -26122 26123 0
26122 26120 26121 0
-26121 -2017 0
-26121 2304 0
-26119 -26115 0
-26119 -26118 0
26114 -26117 26118 0
26117 26115 26116 0
-26116 -2016 0
-26116 2303 0
-26114 -26110 0
-26114 -26113 0
26109 -26112 26113 0
26112 26110 26111 0
-26111 -2015 0
-26111 2302 0
-26109 -26105 0
-26109 -26108 0
26104 -26107 26108 0
26107 26105 26106 0
-26106 -2014 0
-26106 2301 0
-26104 -26101 0
-26104 -26103 0
26103 26101 26102 0
-26102 -2013 0
2300 -26102 0
-26110 2015 0
-26110 -2302 0
2302 26110 -2015 0
-26115 2016 0
-26115 -2303 0
2303 26115 -2016 0
26120 -2017 2304 0
-26125 2018 0
-26125 -2305 0
-2018 26125 2305 0
-26130 2019 0
2306 -2019 26130 0
26099 -5554 26100 0
-26095 -26099 0
-26098 -26099 0
26094 -26097 26098 0
-26097 -26095 0
26097 26096 26095 0
-26096 -2019 0
-26096 2292 0
-26094 -26090 0
-26094 -26093 0
26089 26093 -26092 0
26092 26090 26091 0
-26091 -2018 0
-26091 2291 0
-26089 -26085 0
-26089 -26088 0
26084 -26087 26088 0
26087 26085 26086 0
-26086 -2017 0
-26086 2290 0
-26084 -26080 0
-26084 -26083 0
-26079 -26083 0
26079 -26082 26083 0
26082 26080 26081 0
-26081 -2016 0
-26081 2289 0
-26079 -26075 0
-26079 -26078 0
26079 26078 26075 0
-26074 -26078 0
26074 -26077 26078 0
26077 26075 26076 0
-26076 -2015 0
-26076 2288 0
-26074 -26070 0
-26074 -26073 0
26074 26073 26070 0
-26069 -26073 0
26072 -26073 0
26069 -26072 26073 0
-26072 -26071 0
26072 26070 26071 0
-26071 -2014 0
2287 -26071 0
-2287 2014 26071 0
-26069 -26066 0
-26069 -26068 0
26069 26068 26066 0
-26068 -26067 0
26068 26066 26067 0
-26067 -2013 0
2286 -26067 0
-2286 2013 26067 0
-26066 -2286 0
-26070 2014 0
2287 26070 -2014 0
-26075 2015 0
-26075 -2288 0
2288 26075 -2015 0
-26080 2016 0
-26080 -2289 0
2289 26080 -2016 0
26085 -2017 2290 0
-26090 2018 0
-26090 -2291 0
-2018 26090 2291 0
-26095 2019 0
-26095 -2292 0
2292 -2019 26095 0
26064 -5525 26065 0
-26060 -26064 0
-26063 -26064 0
26059 -26062 26063 0
-26062 -26060 0
26062 26061 26060 0
-26061 -2019 0
-26061 2278 0
-26059 -26055 0
-26059 -26058 0
26054 26058 -26057 0
26057 26055 26056 0
-26056 -2018 0
-26056 2277 0
-26054 -26050 0
-26054 -26053 0
26049 -26052 26053 0
26052 26050 26051 0
-26051 -2017 0
-26051 2276 0
-26049 -26045 0
-26049 -26048 0
26044 -26047 26048 0
26047 26045 26046 0
-26046 -2016 0
-26046 2275 0
-26044 -26040 0
-26044 -26043 0
26039 -26042 26043 0
-26042 -26040 0
26042 26040 26041 0
-26041 -2015 0
-26041 2274 0
-26039 -26035 0
-26039 -26038 0
26034 -26037 26038 0
26037 26035 26036 0
-26036 -2014 0
-26036 2273 0
-26034 -26031 0
-26034 -26033 0
26033 26031 26032 0
-26032 -2013 0
2272 -26032 0
2273 26035 -2014 0
-26040 2015 0
-26040 -2274 0
2274 26040 -2015 0
-26045 2016 0
-26045 -2275 0
2275 26045 -2016 0
26050 -2017 2276 0
-26055 2018 0
-26055 -2277 0
-2018 26055 2277 0
-26060 2019 0
-26060 -2278 0
2278 -2019 26060 0
26029 26030 -10902 0
-26025 -26029 0
-26028 -26029 0
-26027 26024 26028 0
26026 26027 26025 0
-26026 2033 0
-26020 -26024 0
-26023 -26024 0
26019 -26022 26023 0
26022 26020 26021 0
-26021 2032 0
-26021 -5620 0
-26019 -26015 0
-26019 -26018 0
26018 26014 -26017 0
26015 26017 26016 0
-26016 2031 0
-26016 -5619 0
-26014 -26010 0
-26014 -26013 0
26013 26009 -26012 0
26011 26010 26012 0
-26011 2030 0
-26011 -5618 0
-26009 -26005 0
-26009 -26008 0
26008 26004 -26007 0
26006 26005 26007 0
-26006 2029 0
-26006 -5617 0
-26004 -26000 0
-26004 -26003 0
26003 25999 -26002 0
26001 26000 26002 0
-26001 2028 0
-26001 -5616 0
-25999 -25996 0
-25999 -25998 0
25998 25996 25997 0
-25997 2027 0
-25997 -5615 0
-5616 26000 2028 0
-5617 26005 2029 0
-5618 26010 2030 0
-5619 26015 2031 0
-5620 26020 2032 0
2033 -5621 26025 0
25807 -11163 25995 0
25993 -25959 25994 0
-25989 -25993 0
-25992 -25993 0
25988 -25991 25992 0
-25991 -25989 0
-25990 -25991 0
25991 25990 25989 0
-25990 2033 0
-25990 -2376 0
2376 25990 -2033 0
-25988 -25984 0
-25988 -25987 0
25983 -25986 25987 0
-25986 -25984 0
-25985 -25986 0
25986 25984 25985 0
-25985 2032 0
-25985 -2375 0
-2032 25985 2375 0
-25983 -25979 0
-25983 -25982 0
25978 -25981 25982 0
-25981 -25979 0
-25980 -25981 0
25981 25979 25980 0
-25980 2031 0
-25980 -2374 0
-2031 25980 2374 0
-25978 -25974 0
-25978 -25977 0
25973 -25976 25977 0
-25976 -25974 0
-25975 -25976 0
25976 25975 25974 0
-25975 2030 0
-25975 -2373 0
-2030 25975 2373 0
-25973 -25969 0
-25973 -25972 0
25968 -25971 25972 0
-25971 -25969 0
-25970 -25971 0
25971 25970 25969 0
-25970 2029 0
-25970 -2372 0
-2029 25970 2372 0
-25968 -25964 0
-25968 -25967 0
25963 -25966 25967 0
25966 25964 25965 0
-25965 2028 0
-25965 -2371 0
-25963 -25960 0
-25963 -25962 0
25962 25960 25961 0
-25961 2027 0
-25961 -2370 0
25964 2028 -2371 0
-25969 -2029 0
-25969 2372 0
2029 -2372 25969 0
-25974 -2030 0
-25974 2373 0
2030 -2373 25974 0
-25979 -2031 0
-25979 2374 0
-2374 25979 2031 0
-25984 -2032 0
-25984 2375 0
-2375 25984 2032 0
-25989 -2033 0
-25989 2376 0
2033 -2376 25989 0
-25958 -25953 25959 0
-25957 -25950 25958 0
-25956 -25947 25957 0
-25955 25956 -25944 0
-25954 25955 -25941 0
-25935 25954 -25938 0
-25938 -25936 0
-25938 -25937 0
25938 25936 25937 0
-25937 2014 0
-25937 -2259 0
-2014 2259 25937 0
-25936 -2014 0
-25936 2259 0
2014 25936 -2259 0
-25935 -25933 0
-25935 -25934 0
25935 25933 25934 0
-25934 2013 0
-25934 -2258 0
-2013 2258 25934 0
-25933 -2013 0
-25933 2258 0
2013 25933 -2258 0
-25941 -25939 0
-25941 -25940 0
25941 25939 25940 0
-25940 2015 0
-25940 -2260 0
-2015 2260 25940 0
-25939 -2015 0
-25939 2260 0
2015 25939 -2260 0
-25944 -25942 0
-25944 -25943 0
25944 25942 25943 0
-25943 2016 0
-25943 -2261 0
-2016 2261 25943 0
-25942 -2016 0
-25942 2261 0
2016 25942 -2261 0
-25947 -25945 0
-25947 -25946 0
25947 25945 25946 0
-25946 2017 0
-25946 -2262 0
-2017 2262 25946 0
-25945 -2017 0
-25945 2262 0
25945 -2262 2017 0
-25950 -25948 0
-25950 -25949 0
25950 25948 25949 0
-25949 2018 0
-25949 -2263 0
-2018 2263 25949 0
-25948 -2018 0
-25948 2263 0
25948 -2263 2018 0
-25953 -25951 0
-25953 -25952 0
25953 25951 25952 0
-25952 2019 0
-25952 -2264 0
2264 -2019 25952 0
-25951 -2019 0
-25951 2264 0
2019 25951 -2264 0
-25930 -25931 0
25926 -25929 25930 0
25929 25928 25927 0
-25928 -2019 0
-25928 2250 0
-25926 -25925 0
25921 -25924 25925 0
-25924 -25922 0
25924 25922 25923 0
-25923 -2018 0
-25923 2249 0
-25921 -25917 0
-25921 -25920 0
25916 -25919 25920 0
25919 25917 25918 0
-25918 -2017 0
-25918 2248 0
-25916 -25912 0
-25916 -25915 0
25911 -25914 25915 0
25914 25912 25913 0
-25913 -2016 0
2247 -25913 0
-25911 -25907 0
-25911 -25910 0
25906 -25909 25910 0
25909 25907 25908 0
-25908 -2015 0
2246 -25908 0
-25906 -25902 0
-25906 -25905 0
25901 -25904 25905 0
25904 25902 25903 0
-25903 -2014 0
2245 -25903 0
-25901 -25898 0
-25901 -25900 0
25900 25898 25899 0
-25899 -2013 0
2244 -25899 0
2245 25902 -2014 0
-25907 2015 0
-2246 -25907 0
2246 25907 -2015 0
-25912 2016 0
-2247 -25912 0
2247 25912 -2016 0
25917 -2017 2248 0
-25922 2018 0
-2249 -25922 0
-2018 25922 2249 0
-25927 2019 0
-25927 -2250 0
-25888 -25886 0
25887 25886 25888 0
-25887 2361 0
25886 2361 -2032 0
-25889 -25891 0
25891 25890 25889 0
-25890 -2033 0
-25890 2362 0
-25889 2033 0
2362 -2033 25889 0
25807 -7262 25870 0
-25834 -25833 0
25834 25833 25832 0
-25833 2014 0
2231 25833 -2014 0
-25832 -2014 0
-25832 2231 0
25831 25829 25830 0
-25830 2013 0
2230 25830 -2013 0
-25829 2230 0
-25837 -25836 0
25837 25836 25835 0
-25836 2015 0
-2232 -25836 0
2232 25836 -2015 0
-25835 -2015 0
-25835 2232 0
25840 25839 25838 0
-25839 2016 0
-2233 -25839 0
2233 25839 -2016 0
-25838 -2016 0
-25838 2233 0
-25843 -25842 0
25843 25842 25841 0
-25842 2017 0
-2234 -25842 0
25842 -2017 2234 0
-25841 -2017 0
-25841 2234 0
25846 25845 25844 0
-25845 2018 0
-2235 -25845 0
-25844 -2018 0
-25844 2235 0
-25849 -25848 0
25849 25847 25848 0
-25848 2019 0
-25848 -2236 0
2236 25848 -2019 0
-25847 -2019 0
-25847 2236 0
-7255 -25827 0
-25826 -25827 0
25825 -7256 25826 0
-25825 -7252 0
-25825 -25824 0
25824 25823 -7253 0
-25823 -7249 0
-25823 -25822 0
25822 25821 -7250 0
-25821 -7246 0
-25821 -25820 0
25820 25819 -7247 0
-25819 -7243 0
-25819 -25818 0
25818 25817 -7244 0
-25817 -7240 0
-25817 -25816 0
25816 25815 -7241 0
-25815 -7237 0
-25815 -7238 0
25807 -9180 25808 0
-25803 -25807 0
-25806 -25807 0
-25805 25802 25806 0
-25805 -25803 0
25805 25804 25803 0
-25804 -2019 0
-25804 2033 0
-25802 -25798 0
-25802 -25801 0
25801 25797 -25800 0
-25800 -25798 0
25800 25798 25799 0
-25799 -2018 0
-25799 2032 0
-25797 -25793 0
-25797 -25796 0
25792 -25795 25796 0
25795 25793 25794 0
-25794 -2017 0
-25794 2031 0
-25792 -25788 0
-25792 -25791 0
25787 -25790 25791 0
-25790 -25788 0
25790 25788 25789 0
-25789 -2016 0
2030 -25789 0
-25787 -25783 0
-25787 -25786 0
25782 -25785 25786 0
25785 25783 25784 0
-25784 -2015 0
2029 -25784 0
-25782 -25778 0
-25782 -25781 0
25777 -25780 25781 0
25780 25778 25779 0
-25779 -2014 0
2028 -25779 0
-25777 -25774 0
-25777 -25776 0
25776 25775 25774 0
-25775 2027 0
-25778 -2028 0
2028 25778 -2014 0
-25783 2015 0
-2029 -25783 0
2029 25783 -2015 0
-25788 2016 0
-2030 -25788 0
2030 25788 -2016 0
-25793 2017 0
-2031 -25793 0
-2017 25793 2031 0
-25798 2018 0
-2032 -25798 0
-2018 25798 2032 0
-25803 2019 0
-25803 -2033 0
2033 -2019 25803 0
-10873 25710 25711 0
-23449 -25710 0
-25709 -25710 0
25708 -23450 25709 0
-25708 -23444 0
-25708 -25707 0
25706 -23445 25707 0
-25706 -23439 0
-25706 -25705 0
25704 -23440 25705 0
-25704 -23434 0
-25704 -25703 0
25702 -23435 25703 0
-25702 -23429 0
-25702 -25701 0
25700 -23430 25701 0
-25700 -23424 0
-25700 -25699 0
25698 -23425 25699 0
-25698 -23420 0
-25698 -23421 0
-10844 25682 25683 0
-23414 -25682 0
-25681 -25682 0
25680 -23415 25681 0
-25680 -23409 0
-25680 -25679 0
25679 25678 -23410 0
-25678 -23404 0
-25678 -25677 0
25676 -23405 25677 0
-25676 -23399 0
-25676 -25675 0
25674 -23400 25675 0
-25674 -23394 0
-25674 -25673 0
25672 -23395 25673 0
-25672 -23389 0
-25672 -25671 0
25670 -23390 25671 0
-25670 -23385 0
-25670 -23386 0
-10750 25668 25669 0
-13673 -25668 0
-25667 -25668 0
25666 -13674 25667 0
-25666 -13668 0
-25666 -25665 0
25665 25664 -13669 0
-25664 -13663 0
-25664 -25663 0
25662 25663 -13664 0
-25662 -13658 0
-25662 -25661 0
25660 25661 -13659 0
-25660 -13653 0
-25660 -25659 0
25658 25659 -13654 0
-25658 -13648 0
-25658 -25657 0
25656 25657 -13649 0
-25656 -13644 0
-25656 -13645 0
-10815 25654 25655 0
-23379 -25654 0
-25653 -25654 0
25652 -23380 25653 0
-25652 -23374 0
-25652 -25651 0
25651 25650 -23375 0
-25650 -23369 0
-25650 -25649 0
25648 -23370 25649 0
-25648 -23364 0
-25648 -25647 0
25646 -23365 25647 0
-25646 -23359 0
-25646 -25645 0
25644 -23360 25645 0
-25644 -23354 0
-25644 -25643 0
25642 -23355 25643 0
-25642 -23350 0
-25642 -23351 0
25640 -10750 25641 0
-25636 -25640 0
-25639 -25640 0
25635 -25638 25639 0
25637 25638 25636 0
-25637 2642 0
-25635 -25631 0
-25635 -25634 0
25634 25630 -25633 0
25632 25633 25631 0
-25632 -1962 0
-25632 2641 0
-25630 -25626 0
-25627 -1961 0
-25626 1961 0
-25631 1962 0
-1962 25631 2641 0
-25636 1963 0
-10786 25605 25606 0
-23344 -25605 0
-25604 -25605 0
25603 -23345 25604 0
-25603 -23339 0
-25603 -25602 0
25602 25601 -23340 0
-25601 -23334 0
-25601 -25600 0
25599 -23335 25600 0
-25599 -23329 0
-25599 -25598 0
25597 -23330 25598 0
-25597 -23324 0
-25597 -25596 0
25595 -23325 25596 0
-25595 -23319 0
-25595 -25594 0
25593 -23320 25594 0
-25593 -23315 0
-25593 -23316 0
25591 -10873 25592 0
-6908 -25591 0
-25590 -25591 0
25589 -6910 25590 0
-25589 -25588 0
25588 25587 -6907 0
-25587 -6902 0
-25587 -25586 0
25586 25585 -6904 0
-25585 -6899 0
-25585 -25584 0
25584 25583 -6901 0
-25583 -6896 0
-25583 -25582 0
25582 25581 -6898 0
-25581 -6893 0
-25581 -25580 0
25580 25579 -6895 0
-25579 -6890 0
-25579 -6892 0
24900 -8052 25578 0
-10721 25576 25577 0
-13448 -25576 0
25562 -10844 25563 0
-6880 -25562 0
-25561 -25562 0
25560 -6882 25561 0
-25560 -6877 0
-25560 -25559 0
25559 25558 -6879 0
-25558 -6874 0
-25558 -25557 0
25557 25556 -6876 0
-25556 -6871 0
-25556 -25555 0
25555 25554 -6873 0
-25554 -6868 0
-25554 -25553 0
25553 25552 -6870 0
-25552 -6865 0
-25552 -25551 0
25551 25550 -6867 0
-25550 -6862 0
-25550 -6864 0
25534 -10815 25535 0
-6852 -25534 0
-25533 -25534 0
25532 -6854 25533 0
-25532 -6849 0
-25532 -25531 0
25531 25530 -6851 0
-25530 -25529 0
25529 25528 -6848 0
-25528 -6843 0
-25528 -25527 0
25527 25526 -6845 0
-25526 -6840 0
-25526 -25525 0
25525 25524 -6842 0
-25524 -6837 0
-25524 -25523 0
25523 25522 -6839 0
-25522 -6834 0
-25522 -6836 0
25520 -10721 25521 0
-13308 -25520 0
-25519 -25520 0
25518 -13309 25519 0
-25518 -25517 0
25517 25516 -13304 0
-25516 -25515 0
25514 -13299 25515 0
-25514 -13293 0
-25514 -25513 0
25513 -13294 25512 0
-25512 -13288 0
25506 -10786 25507 0
-6824 -25506 0
-25505 -25506 0
25504 -6826 25505 0
-25504 -6821 0
-25504 -25503 0
25503 25502 -6823 0
-25502 -6818 0
-25502 -25501 0
25501 25500 -6820 0
-25500 -6815 0
-25500 -25499 0
25499 25498 -6817 0
-25498 -6812 0
-25498 -25497 0
25497 25496 -6814 0
-25496 -6809 0
-25496 -25495 0
25495 25494 -6811 0
-25494 -6806 0
-25494 -6808 0
24714 -7912 25491 0
24699 -7884 25489 0
23312 -7856 25487 0
25485 -10721 25486 0
-25481 -25485 0
-25484 -25485 0
25480 -25483 25484 0
25483 25482 25481 0
-25482 1935 0
-25482 -2544 0
-25480 -25476 0
-25480 -25479 0
25479 25475 -25478 0
25476 25478 25477 0
-25477 1934 0
-25477 -2543 0
-25475 -25471 0
-25475 -25474 0
25474 25470 -25473 0
25471 25473 25472 0
-25472 1933 0
-25472 -2542 0
-25470 -25466 0
-25470 -25469 0
25469 25465 -25468 0
25467 25466 25468 0
-25467 1932 0
-25465 -25461 0
25461 1931 -2540 0
1932 25466 -2541 0
-25471 -1933 0
-25471 2542 0
-25476 -1934 0
-25476 2543 0
-25481 -1935 0
-25481 2544 0
1935 -2544 25481 0
25371 -10873 25450 0
25342 -10844 25449 0
24816 -9950 25448 0
-10692 25328 25447 0
25313 -10815 25446 0
25298 -10692 25444 0
25283 -10786 25443 0
-8856 23452 25442 0
24699 -9810 25440 0
23312 -9782 25439 0
12751 -10692 25438 0
23227 -8856 25436 0
-24558 -25435 0
25434 -25435 0
-24559 -25434 0
25433 -25434 0
-24560 -25433 0
25432 -25433 0
25431 -25432 0
-24575 -25431 0
25430 -25431 0
-24576 -25430 0
25429 -25430 0
-24590 -25429 0
25428 -25429 0
25427 -25428 0
-24605 -25427 0
25426 -25427 0
25425 -25426 0
25424 -25425 0
-24634 -25424 0
25423 -25424 0
25422 -25423 0
25421 -25422 0
-24656 -25421 0
25420 -25421 0
-24657 -25420 0
25419 -25420 0
-24671 -25419 0
25418 -25419 0
-24685 -25418 0
25417 -25418 0
-24686 -25417 0
25416 -25417 0
-24700 -25416 0
25415 -25416 0
-24701 -25415 0
25414 -25415 0
-24715 -25414 0
25413 -25414 0
-24716 -25413 0
25412 -25413 0
25411 -25412 0
-24731 -25411 0
25410 -25411 0
25409 -25410 0
-24733 -25409 0
25408 -25409 0
-24747 -25408 0
25407 -25408 0
25406 -25407 0
-24817 -25406 0
25405 -25406 0
-24831 -25405 0
25404 -25405 0
25403 -25404 0
-24901 -25403 0
25402 -25403 0
-24902 -25402 0
25401 -25402 0
25400 -25401 0
25399 -25400 0
-24986 -25399 0
25398 -25399 0
-25021 -25398 0
25397 -25398 0
-25056 -25397 0
25396 -25397 0
-25091 -25396 0
25395 -25396 0
-25126 -25395 0
25394 -25395 0
25393 -25394 0
-25196 -25393 0
25392 -25393 0
-25210 -25392 0
25391 -25392 0
-25211 -25391 0
25390 -25391 0
-25225 -25390 0
25389 -25390 0
-25226 -25389 0
25388 -25389 0
-25240 -25388 0
25387 -25388 0
25386 -25387 0
25385 -25386 0
-25268 -25385 0
25384 -25385 0
-25269 -25384 0
25383 -25384 0
-25270 -25383 0
25382 -25383 0
-25284 -25382 0
25381 -25382 0
25380 -25381 0
-25299 -25380 0
25379 -25380 0
-25300 -25379 0
25378 -25379 0
-25314 -25378 0
25377 -25378 0
-25315 -25377 0
25376 -25377 0
25375 -25376 0
-25343 -25375 0
25374 -25375 0
25373 -25374 0
-25358 -25373 0
-25372 -25373 0
-6916 25371 25372 0
-8848 -25371 0
-25370 -25371 0
25369 -8850 25370 0
-25369 -8845 0
-25369 -25368 0
25368 25367 -8847 0
-25367 -8842 0
-25367 -25366 0
25365 25366 -8844 0
-25365 -8839 0
-25365 -25364 0
25363 25364 -8841 0
-25363 -8836 0
-25363 -25362 0
25361 25362 -8838 0
-25361 -8833 0
-25361 -25360 0
25360 25359 -8835 0
-25359 -8830 0
-25359 -8832 0
-6748 25357 25358 0
-13056 -25357 0
-6888 25342 25343 0
-8820 -25342 0
-25341 -25342 0
25340 -8822 25341 0
-25340 -8817 0
-25340 -25339 0
25339 25338 -8819 0
-25338 -8814 0
-25338 -25337 0
25337 25336 -8816 0
-25336 -8811 0
-25336 -25335 0
25335 25334 -8813 0
-25334 -8808 0
-25334 -25333 0
25333 25332 -8810 0
-25332 -8805 0
-25332 -25331 0
25331 25330 -8807 0
-25330 -8802 0
-25330 -8804 0
-12986 -25328 0
-25327 -25328 0
25326 -12987 25327 0
-25326 -12981 0
23190 -8800 25315 0
-6860 25313 25314 0
-8792 -25313 0
-25312 -25313 0
25311 -8794 25312 0
-25311 -8789 0
-25311 -25310 0
25310 25309 -8791 0
-25309 -8786 0
-25309 -25308 0
25308 25307 -8788 0
-25307 -8783 0
-25307 -25306 0
25306 25305 -8785 0
-25305 -8780 0
-25305 -25304 0
25304 25303 -8782 0
-25303 -8777 0
-25303 -25302 0
25302 25301 -8779 0
-25301 -8774 0
-25301 -8776 0
24589 -9670 25300 0
-6748 25298 25299 0
-12916 -25298 0
-25297 -25298 0
25296 -12917 25297 0
-25296 -12911 0
-6832 25283 25284 0
-8764 -25283 0
-25282 -25283 0
25281 -8766 25282 0
-25281 -8761 0
-25281 -25280 0
25280 25279 -8763 0
-25279 -8758 0
-25279 -25278 0
25278 25277 -8760 0
-25277 -8755 0
-25277 -25276 0
25276 25275 -8757 0
-25275 -8752 0
-25275 -25274 0
25274 25273 -8754 0
-25273 -8749 0
-25273 -25272 0
25272 25271 -8751 0
-25271 -8746 0
-25271 -8748 0
23160 -9642 25270 0
12667 -10692 25269 0
-6748 25267 25268 0
-10684 -25267 0
-25267 -25266 0
25266 25267 10684 0
-25266 10686 0
-25266 -25265 0
25266 25265 -10686 0
-25265 -10681 0
-25265 -25264 0
25265 25264 10681 0
-25264 10683 0
-25264 -25263 0
25264 25263 -10683 0
-25263 -10678 0
-25263 -25262 0
25263 25262 10678 0
-25262 10680 0
-25262 -25261 0
25262 25261 -10680 0
-25261 -10675 0
-25261 -25260 0
25261 25260 10675 0
-25260 10677 0
-25260 -25259 0
25260 25259 -10677 0
-25259 -10672 0
-25259 -25258 0
25259 25258 10672 0
-25258 10674 0
-25258 -25257 0
25258 25257 -10674 0
-25257 -10669 0
-25257 -25256 0
25257 25256 10669 0
-25256 10671 0
-25256 -25255 0
25256 25255 -10671 0
-25255 -10666 0
-25255 -10668 0
10668 25255 10666 0
-6804 25239 25240 0
-8735 -25239 0
-25238 -25239 0
25237 -8737 25238 0
-8732 -25237 0
-25237 -25236 0
25236 25235 -8734 0
-25235 -8729 0
-25235 -25234 0
25234 25233 -8731 0
-25233 -8726 0
-25233 -25232 0
25232 25231 -8728 0
-8723 -25231 0
-25231 -25230 0
25230 25229 -8725 0
-25229 -8720 0
-25229 -25228 0
25228 25227 -8722 0
-25227 -8717 0
-25227 -8719 0
23096 -9614 25226 0
25224 -6748 25225 0
-12748 -25224 0
-25223 -25224 0
25222 -12749 25223 0
-25222 -12743 0
-25222 -25221 0
25221 25220 -12744 0
-25220 -12738 0
-25220 -25219 0
25218 -12739 25219 0
-25218 -12733 0
-25218 -25217 0
25216 -12734 25217 0
-25216 -12728 0
23082 -8715 25211 0
-6776 25209 25210 0
-8707 -25209 0
-25208 -25209 0
25207 25208 -8709 0
-8704 -25207 0
-25206 -25207 0
25205 25206 -8706 0
-25205 -8701 0
-25204 -25205 0
25203 25204 -8703 0
-25203 -8698 0
-25202 -25203 0
25201 25202 -8700 0
-25201 -8695 0
-25200 -25201 0
25199 25200 -8697 0
-25199 -8692 0
-25199 -25198 0
25197 25198 -8694 0
-25197 -8689 0
-25197 -8691 0
25195 -6343 25196 0
-25191 -25195 0
-25194 -25195 0
25190 -25193 25194 0
25193 25192 25191 0
-25192 1991 0
-25190 -25186 0
-25190 -25189 0
25189 25185 -25188 0
25187 25186 25188 0
-25187 1990 0
-25187 -2004 0
-25185 -25181 0
-25185 -25184 0
25184 25180 -25183 0
25182 25181 25183 0
-25182 1989 0
-25182 -2003 0
-25180 -25176 0
-25180 -25179 0
25179 25175 -25178 0
25177 25176 25178 0
-25177 1988 0
-25175 -25171 0
-25175 -25174 0
25174 25170 -25173 0
25172 25171 25173 0
-25172 1987 0
-25170 -25166 0
-25170 -25169 0
25169 25165 -25168 0
25167 25166 25168 0
-25167 1986 0
-25165 -25162 0
-25165 -25164 0
25163 25162 25164 0
-25163 1985 0
-2002 1988 25176 0
1989 25181 -2003 0
1990 25186 -2004 0
1991 -2005 25191 0
-25146 -1975 0
-25146 2003 0
25125 -6286 25126 0
-25121 -25125 0
-25124 -25125 0
25120 -25123 25124 0
25123 25122 25121 0
-25122 1977 0
-25122 -1991 0
-25120 -25116 0
-25120 -25119 0
25119 25115 -25118 0
25116 25118 25117 0
-25117 1976 0
-25117 -1990 0
-25115 -25111 0
-25115 -25114 0
25114 25110 -25113 0
25111 25113 25112 0
-25112 1975 0
-25112 -1989 0
-25110 -25106 0
-25110 -25109 0
25109 25105 -25108 0
25107 25106 25108 0
-25107 1974 0
-25105 -25101 0
-25105 -25104 0
25104 25100 -25103 0
25102 25101 25103 0
-25102 1973 0
-25100 -25096 0
-25100 -25099 0
25099 25095 -25098 0
25097 25096 25098 0
-25097 1972 0
-25095 -25092 0
-25095 -25094 0
25093 25092 25094 0
-25093 1971 0
1988 -25106 0
-1989 25111 1975 0
-1990 25116 1976 0
1977 -1991 25121 0
25090 -6257 25091 0
-25086 -25090 0
-25089 -25090 0
25085 -25088 25089 0
25088 25087 25086 0
-25087 1963 0
-25085 -25081 0
25081 -2004 1962 0
25055 -6228 25056 0
-25051 -25055 0
-25054 -25055 0
25050 -25053 25054 0
25053 25052 25051 0
-25052 1963 0
-25052 -1991 0
-25050 -25046 0
-25050 -25049 0
25049 25045 -25048 0
25046 25048 25047 0
-25047 1962 0
-25047 -1990 0
-25045 -25041 0
-25045 -25044 0
25044 25040 -25043 0
25041 25043 25042 0
-25042 1961 0
-25042 -1989 0
1989 -1961 25042 0
-25040 -25036 0
-25040 -25039 0
25039 25035 -25038 0
25037 25036 25038 0
-25037 1960 0
-25035 -25031 0
-25035 -25034 0
25034 25030 -25033 0
25032 25031 25033 0
-25032 1959 0
-25030 -25026 0
-25030 -25029 0
25029 25025 -25028 0
25027 25026 25028 0
-25027 1958 0
-25027 -1986 0
-25025 -25022 0
-25025 -25024 0
25024 25022 25023 0
-25023 1957 0
-25023 -1985 0
-1986 1958 25026 0
-1987 1959 25031 0
-1988 1960 25036 0
-1989 25041 1961 0
-1990 25046 1962 0
25020 -6199 25021 0
-25016 -25020 0
-25019 -25020 0
25015 -25018 25019 0
25018 25017 25016 0
-25017 1963 0
-25017 -1977 0
-25015 -25011 0
-25015 -25014 0
25014 25010 -25013 0
25011 25013 25012 0
-25012 1962 0
-25012 -1976 0
-25010 -25006 0
-25010 -25009 0
25009 25005 -25008 0
25006 25008 25007 0
-25007 1961 0
-25007 -1975 0
-25005 -25001 0
-25005 -25004 0
25004 25000 -25003 0
25002 25001 25003 0
-25002 1960 0
-25002 -1974 0
-25000 -24996 0
-25000 -24999 0
24999 24995 -24998 0
24997 24996 24998 0
-24997 1959 0
-24997 -1973 0
-24995 -24991 0
-24995 -24994 0
24994 24990 -24993 0
24992 24991 24993 0
-24992 1958 0
-24992 -1972 0
-24990 -24987 0
-24990 -24989 0
24988 24987 24989 0
-24988 -1971 0
-1972 1958 24991 0
-1959 -24996 0
1973 -24996 0
-1973 1959 24996 0
-1974 1960 25001 0
25006 -1975 1961 0
-1976 25011 1962 0
1963 -1977 25016 0
24985 -6170 24986 0
-24981 -24985 0
-24984 -24985 0
24980 -24983 24984 0
24983 24982 24981 0
-24982 1949 0
-24980 -24976 0
-24980 -24979 0
24979 24975 -24978 0
24978 24977 24976 0
-24977 1948 0
-24977 -2004 0
-24975 -24971 0
-24975 -24974 0
24974 24970 -24973 0
24973 24971 24972 0
-24972 1947 0
-24972 -2003 0
-24970 -24966 0
-2002 24966 1946 0
-24971 -1947 0
-24976 2004 0
-24915 -24914 0
24915 24914 10866 0
-24914 10867 0
-24914 -24913 0
24914 24913 -10867 0
-24913 -10863 0
-24913 -24912 0
24912 24913 10863 0
-24912 10864 0
-24912 -24911 0
24912 24911 -10864 0
-24911 -10860 0
-24911 -24910 0
24911 24910 10860 0
-24910 10861 0
-24910 -24909 0
24910 24909 -10861 0
-24909 -10857 0
-24909 -24908 0
24909 24908 10857 0
-24908 10858 0
-24908 -24907 0
24908 24907 -10858 0
-24907 -10854 0
-24907 -24906 0
24907 24906 10854 0
-24906 10855 0
-24906 -24905 0
24906 24905 -10855 0
-24905 -10851 0
-24905 -24904 0
24905 24904 10851 0
-24904 10852 0
-24904 -24903 0
24904 24903 -10852 0
-24903 -10848 0
-24903 -10849 0
24903 10849 10848 0
24470 -10873 24902 0
24900 -6141 24901 0
-24896 -24900 0
-24899 -24900 0
24895 -24898 24899 0
24898 24897 24896 0
-24897 1949 0
-24895 -24891 0
-24895 -24894 0
24894 24890 -24893 0
24893 24891 24892 0
-24892 1948 0
-24892 -1990 0
-24890 -24886 0
-24890 -24889 0
24889 24885 -24888 0
24888 24886 24887 0
-24887 1947 0
-24887 -1989 0
-24885 -24881 0
-24885 -24884 0
24884 24880 -24883 0
24883 24881 24882 0
-24882 1946 0
-24882 -1988 0
-24880 -24876 0
-1987 24876 1945 0
1989 -24886 0
-24891 -1948 0
-24896 1991 0
1949 -1991 24896 0
-24862 2418 0
-24857 2417 0
-24856 1990 0
-5467 24830 24831 0
-24830 -24829 0
24829 24830 10837 0
-24829 10838 0
-24829 -24828 0
24829 24828 -10838 0
-24828 -10834 0
-24828 -24827 0
24828 24827 10834 0
-24827 10835 0
-24827 -24826 0
24827 24826 -10835 0
-24826 -10831 0
-24826 -24825 0
24826 24825 10831 0
-24825 10832 0
-24825 -24824 0
24825 24824 -10832 0
-24824 -10828 0
-24824 -24823 0
24824 24823 10828 0
-24823 10829 0
-24823 -24822 0
24823 24822 -10829 0
-24822 -10825 0
-24822 -24821 0
24822 24821 10825 0
-24821 10826 0
-24821 -24820 0
24821 24820 -10826 0
-24820 -10822 0
-24820 -24819 0
24820 24819 10822 0
-24819 10823 0
-24819 -24818 0
24819 24818 -10823 0
-24818 -10819 0
-24818 -10820 0
24818 10820 10819 0
24816 -6112 24817 0
-24812 -24816 0
-24815 -24816 0
24811 -24814 24815 0
24814 24813 24812 0
-24813 1949 0
1977 24813 -1949 0
-24811 -24810 0
24810 24806 -24809 0
24809 24808 24807 0
-24808 1948 0
-24808 -1976 0
-24806 -24802 0
-24806 -24805 0
24805 24801 -24804 0
24804 24803 24802 0
-24803 -1975 0
-24801 -24797 0
-24798 1946 0
-1975 24802 1947 0
-24807 1976 0
-24812 -1949 0
-24812 1977 0
1949 -1977 24812 0
-5438 24746 24747 0
-24746 -24745 0
24745 24746 10808 0
-24745 10809 0
-24745 -24744 0
24745 24744 -10809 0
-24744 -10805 0
-24744 -24743 0
24744 24743 10805 0
-24743 10806 0
-24743 -24742 0
24743 24742 -10806 0
-24742 -10802 0
-24742 -24741 0
24742 24741 10802 0
-24741 10803 0
-24741 -24740 0
24741 24740 -10803 0
-24740 -10799 0
-24740 -24739 0
24740 24739 10799 0
-24739 10800 0
-24739 -24738 0
24739 24738 -10800 0
-24738 -10796 0
-24738 -24737 0
24738 24737 10796 0
-24737 10797 0
-24737 -24736 0
24737 24736 -10797 0
-24736 -10793 0
-24736 -24735 0
24736 24735 10793 0
-24735 10794 0
-24735 -24734 0
24735 24734 -10794 0
-24734 -10790 0
-24734 -10791 0
24734 10791 10790 0
23558 -6083 24733 0
-5496 23452 24731 0
23417 -5467 24716 0
24714 -5996 24715 0
23382 -5438 24701 0
24699 -5967 24700 0
-5409 23347 24686 0
-10663 24684 24685 0
-24683 -24684 0
24682 -24324 24683 0
-24682 -24318 0
-24682 -24681 0
24680 24681 -24319 0
-24680 -24313 0
-24680 -24679 0
24678 24679 -24314 0
-24678 -24308 0
-24678 -24677 0
24676 24677 -24309 0
-24676 -24303 0
-24676 -24675 0
24674 24675 -24304 0
-24674 -24298 0
-24674 -24673 0
24672 24673 -24299 0
-24672 -24294 0
-24672 -24295 0
24670 -5938 24671 0
-13554 -24670 0
-5496 23227 24657 0
24470 -6916 24656 0
-5467 23205 24634 0
-5438 23190 24605 0
24589 -5851 24590 0
-6720 24398 24576 0
-5409 23175 24575 0
-6720 24354 24560 0
24340 -6804 24559 0
24326 -6720 24558 0
-23835 -24557 0
24556 -24557 0
-23870 -24556 0
24555 -24556 0
-23871 -24555 0
24554 -24555 0
-23872 -24554 0
24553 -24554 0
-23907 -24553 0
24552 -24553 0
-23921 -24552 0
24551 -24552 0
-23935 -24551 0
24550 -24551 0
-23949 -24550 0
24549 -24550 0
-23963 -24549 0
24548 -24549 0
-23977 -24548 0
24547 -24548 0
-23978 -24547 0
24546 -24547 0
24545 -24546 0
-23993 -24545 0
24544 -24545 0
-24007 -24544 0
24543 -24544 0
-24008 -24543 0
24542 -24543 0
-24022 -24542 0
24541 -24542 0
-24023 -24541 0
24540 -24541 0
-24024 -24540 0
24539 -24540 0
-24025 -24539 0
24538 -24539 0
-24026 -24538 0
24537 -24538 0
-24027 -24537 0
24536 -24537 0
-24028 -24536 0
24535 -24536 0
-24029 -24535 0
24534 -24535 0
-24043 -24534 0
24533 -24534 0
24532 -24533 0
-24051 -24532 0
24531 -24532 0
-24052 -24531 0
24530 -24531 0
-24053 -24530 0
24529 -24530 0
-24054 -24529 0
24528 -24529 0
-24055 -24528 0
24527 -24528 0
-24090 -24527 0
24526 -24527 0
-24091 -24526 0
24525 -24526 0
-24126 -24525 0
24524 -24525 0
-24127 -24524 0
24523 -24524 0
-24162 -24523 0
24522 -24523 0
-24163 -24522 0
24521 -24522 0
-24198 -24521 0
24520 -24521 0
-24199 -24520 0
24519 -24520 0
-24234 -24519 0
24518 -24519 0
-24248 -24518 0
24517 -24518 0
-24249 -24517 0
24516 -24517 0
-24263 -24516 0
24515 -24516 0
-24277 -24515 0
24514 -24515 0
24513 -24514 0
-24292 -24513 0
24512 -24513 0
-24327 -24512 0
24511 -24512 0
-24341 -24511 0
24510 -24511 0
-24355 -24510 0
24509 -24510 0
-24356 -24509 0
24508 -24509 0
-24357 -24508 0
24507 -24508 0
24506 -24507 0
-24399 -24506 0
24505 -24506 0
-24413 -24505 0
24504 -24505 0
-24414 -24504 0
24503 -24504 0
24502 -24503 0
24501 -24502 0
-24436 -24501 0
24500 -24501 0
24499 -24500 0
24498 -24499 0
-24471 -24498 0
24497 -24498 0
-24472 -24497 0
24496 -24497 0
24495 -24496 0
-24494 -24495 0
24291 -6776 24494 0
23067 -5496 24472 0
24470 -8856 24471 0
-5488 -24470 0
-24469 -24470 0
24468 -5490 24469 0
-24468 -5485 0
-24468 -24467 0
24467 24466 -5487 0
-24466 -5482 0
-24466 -24465 0
24465 24464 -5484 0
-24464 -5479 0
-24464 -24463 0
24463 24462 -5481 0
-24462 -5476 0
-24462 -24461 0
24461 24460 -5478 0
-24460 -5473 0
-24460 -24459 0
24459 24458 -5475 0
-24458 -5470 0
-24458 -5472 0
23045 -5467 24436 0
23030 -5438 24414 0
24412 -5735 24413 0
-24411 -24412 0
24410 -12952 24411 0
-24410 -24409 0
24408 24409 -12947 0
-24408 -12941 0
-24408 -24407 0
24406 24407 -12942 0
-24406 -12936 0
-24406 -24405 0
24404 24405 -12937 0
-24404 -12931 0
-24404 -24403 0
24402 24403 -12932 0
-24402 -12926 0
-24402 -24401 0
24400 24401 -12927 0
-24400 -12922 0
-24400 -12923 0
-8659 24398 24399 0
-24394 -24398 0
-24397 -24398 0
24393 -24396 24397 0
24395 24396 24394 0
-24395 2390 0
-24393 -24389 0
-24391 -24389 0
24390 24389 24391 0
-24390 -1962 0
24389 -1962 2389 0
-24394 1963 0
2390 -1963 24394 0
23015 -5409 24357 0
24276 -10663 24356 0
-8659 24354 24355 0
-10655 -24354 0
-24354 -24353 0
24353 24354 10655 0
-24353 10657 0
-24353 -24352 0
24353 24352 -10657 0
-24352 -10652 0
-24352 -24351 0
24351 24352 10652 0
-24351 10654 0
-24351 -24350 0
24351 24350 -10654 0
-24350 -10649 0
-24350 -24349 0
24349 24350 10649 0
-24349 10651 0
-24349 -24348 0
24349 24348 -10651 0
-24348 -10646 0
-24348 -24347 0
24347 24348 10646 0
-24347 10648 0
-24347 -24346 0
24347 24346 -10648 0
-24346 -10643 0
-24346 -24345 0
24345 24346 10643 0
-24345 10645 0
-24345 -24344 0
24345 24344 -10645 0
-24344 -10640 0
-24344 -24343 0
24343 24344 10640 0
-24343 10642 0
-24343 -24342 0
24343 -10642 24342 0
-24342 -10637 0
-24342 -10639 0
10639 24342 10637 0
-8743 24340 24341 0
-22624 -24340 0
-8659 24326 24327 0
-24322 -24326 0
-24325 -24326 0
-24324 24321 24325 0
-24324 -24322 0
-24323 -24324 0
24324 24323 24322 0
-24323 -1935 0
-24323 2362 0
1935 24323 -2362 0
-24321 -24317 0
-24321 -24320 0
24316 -24319 24320 0
-24319 -24317 0
24319 24318 24317 0
-24318 -1934 0
-24318 2361 0
24318 -2361 1934 0
-24316 -24312 0
-24316 -24315 0
24311 -24314 24315 0
-24314 -24312 0
24314 24313 24312 0
-24313 -1933 0
-24313 2360 0
24313 -2360 1933 0
-24311 -24307 0
-24311 -24310 0
24306 -24309 24310 0
-24309 -24307 0
24309 24308 24307 0
-24308 -1932 0
2359 -24308 0
24308 1932 -2359 0
-24306 -24302 0
-24306 -24305 0
24301 -24304 24305 0
24303 24304 24302 0
-24303 -1931 0
2358 -24303 0
24303 1931 -2358 0
-24301 -24297 0
-24301 -24300 0
24296 -24299 24300 0
24298 24297 24299 0
-24298 -1930 0
-24296 -24293 0
-24296 -24295 0
24294 24293 24295 0
-24294 -1929 0
-24293 1929 0
1930 -24297 0
1931 -24302 0
-24302 -2358 0
24302 2358 -1931 0
1932 -24307 0
-24307 -2359 0
24307 -1932 2359 0
-24312 1933 0
-24312 -2360 0
2360 -1933 24312 0
-24317 1934 0
-2361 -24317 0
2361 -1934 24317 0
-24322 1935 0
-24322 -2362 0
2362 -1935 24322 0
24291 -8715 24292 0
-22589 -24291 0
-24290 -24291 0
24289 -22590 24290 0
-22584 -24289 0
-24288 -24289 0
24287 24288 -22585 0
-22579 -24287 0
-24286 -24287 0
24285 -22580 24286 0
-24285 -22574 0
-24285 -24284 0
24283 24284 -22575 0
-24283 -22569 0
-24283 -24282 0
24281 24282 -22570 0
-24281 -22564 0
-24281 -24280 0
24279 24280 -22565 0
-24279 -22560 0
-24279 -22561 0
24276 -6720 24277 0
-8652 -24276 0
-24275 -24276 0
24274 -8653 24275 0
-8649 -24274 0
-24273 -24274 0
24272 24273 -8650 0
-24272 -8646 0
-24271 -24272 0
24270 24271 -8647 0
-24270 -8643 0
24262 -8659 24263 0
-6712 -24262 0
-24261 -24262 0
24260 24261 -6714 0
-24260 -6709 0
-24259 -24260 0
24258 24259 -6711 0
-24258 -6706 0
-24257 -24258 0
24256 24257 -6708 0
-24256 -6703 0
-24255 -24256 0
24254 24255 -6705 0
-24254 -6700 0
-24253 -24254 0
24252 24253 -6702 0
-24252 -6697 0
-24251 -24252 0
24250 24251 -6699 0
-6694 -24250 0
-6696 -24250 0
12233 -7486 24249 0
-8687 24247 24248 0
-22553 -24247 0
-24246 -24247 0
24245 -22554 24246 0
-24245 -24244 0
24244 24243 -22549 0
-24243 -24242 0
24241 24242 -22544 0
-24241 -22538 0
24233 24234 -10634 0
-24229 -24233 0
-24232 -24233 0
24228 -24231 24232 0
24231 24230 24229 0
-24230 -2005 0
-24230 2320 0
-24224 -24228 0
-24227 -24228 0
24223 -24226 24227 0
24226 24224 24225 0
-24225 -2004 0
-24225 2319 0
-24219 -24223 0
-24222 -24223 0
24218 -24221 24222 0
24221 24219 24220 0
-24220 -2003 0
-24220 2318 0
-24214 -24218 0
-24217 -24218 0
24213 -24216 24217 0
24215 24216 24214 0
-24215 -2002 0
-24215 2317 0
2002 24215 -2317 0
-24213 -24209 0
-24213 -24212 0
24212 24208 -24211 0
24210 24209 24211 0
-24210 2316 0
-24208 -24204 0
-24208 -24207 0
24207 24203 -24206 0
24205 24204 24206 0
-24205 -2000 0
-24203 -24200 0
-24203 -24202 0
24202 24200 24201 0
-24201 2314 0
2001 -24209 0
-2001 24209 2316 0
-2002 2317 24214 0
-24219 -2318 0
-2003 24219 2318 0
-2004 24224 2319 0
23962 -10873 24199 0
24197 24198 -10634 0
-24193 -24197 0
-24196 -24197 0
24192 -24195 24196 0
24195 24194 24193 0
-24194 2306 0
-24188 -24192 0
-24191 -24192 0
24187 -24190 24191 0
24190 24188 24189 0
-24189 -1990 0
-24189 2305 0
1990 -2305 24189 0
-24187 -24183 0
-24187 -24186 0
24186 24182 -24185 0
24183 24185 24184 0
-24184 -1989 0
-24184 2304 0
-24182 -24178 0
24178 -1988 2303 0
-1989 24183 2304 0
-1990 24188 2305 0
23948 -10844 24163 0
24161 24162 -10634 0
-24157 -24161 0
-24160 -24161 0
24156 -24159 24160 0
24159 24158 24157 0
-24158 2292 0
-24152 -24156 0
-24155 -24156 0
24151 -24154 24155 0
24154 24152 24153 0
-24153 -1976 0
-24153 2291 0
-2291 24153 1976 0
-24151 -24147 0
-24151 -24150 0
24150 24146 -24149 0
24147 24149 24148 0
-24148 -1975 0
-24148 2290 0
-24146 -24142 0
-24146 -24145 0
24145 24141 -24144 0
24143 24142 24144 0
-24143 2289 0
-24141 -24137 0
24137 -1973 2288 0
-1974 24142 2289 0
24147 -1975 2290 0
-24152 1976 0
-24152 -2291 0
-1976 24152 2291 0
23934 -10815 24127 0
24125 24126 -10634 0
-24121 -24125 0
-24124 -24125 0
24120 -24123 24124 0
24123 24122 24121 0
-24122 -1963 0
-24122 2278 0
-24116 -24120 0
-24119 -24120 0
24115 -24118 24119 0
24118 24116 24117 0
-24117 -1962 0
-24117 2277 0
-24111 -24115 0
-24114 -24115 0
24110 -24113 24114 0
24113 24111 24112 0
-24112 -1961 0
-24112 2276 0
-2276 24112 1961 0
-24106 -24110 0
-24109 -24110 0
24105 -24108 24109 0
24107 24108 24106 0
-24107 -1960 0
-24107 2275 0
-24105 -24101 0
-24105 -24104 0
24104 24100 -24103 0
24102 24101 24103 0
-24102 2274 0
-24100 -24096 0
-24100 -24099 0
24099 24095 -24098 0
24097 24096 24098 0
-24097 -1958 0
-24095 -24092 0
-24095 -24094 0
24094 24092 24093 0
-24093 -1957 0
-24093 2272 0
-1959 24101 2274 0
1960 -24106 0
-24106 -2275 0
-1960 2275 24106 0
-24111 1961 0
-24111 -2276 0
24111 -1961 2276 0
-24116 1962 0
-1962 24116 2277 0
23920 -10786 24091 0
24089 24090 -10634 0
-24085 -24089 0
-24088 -24089 0
24084 -24087 24088 0
24087 24086 24085 0
-24086 1935 0
-24086 -2250 0
-24080 -24084 0
-24083 -24084 0
24079 -24082 24083 0
24082 24081 24080 0
-24081 1934 0
-24081 -2249 0
-24075 -24079 0
-24078 -24079 0
24074 -24077 24078 0
24077 24075 24076 0
-24076 1933 0
-24076 -2248 0
-24070 -24074 0
-24073 -24074 0
24069 -24072 24073 0
24071 24072 24070 0
-24071 1932 0
-24071 -2247 0
-24069 -24065 0
24065 1931 -2246 0
1932 -2247 24070 0
24075 -2248 1933 0
-2249 24080 1934 0
12093 -11250 24055 0
23962 -6916 24054 0
23948 -6888 24053 0
23934 -6860 24052 0
23920 -6832 24051 0
24042 24043 -10634 0
-6685 -24042 0
-24041 -24042 0
24040 -6686 24041 0
-6682 -24040 0
-24039 -24040 0
24038 -6683 24039 0
-6679 -24038 0
-24037 -24038 0
24036 -6680 24037 0
-6676 -24036 0
-24035 -24036 0
24034 -6677 24035 0
-24034 -6673 0
-24034 -24033 0
24033 24032 -6674 0
-24032 -6670 0
-24032 -24031 0
24031 24030 -6671 0
-24030 -6667 0
-24030 -6668 0
12058 -11221 24029 0
24006 -6804 24028 0
23992 -6776 24027 0
23962 -8856 24026 0
-8828 23948 24025 0
23934 -8800 24024 0
-8772 23920 24023 0
24021 -10634 24022 0
-8623 -24021 0
-24020 -24021 0
24019 -8624 24020 0
-8620 -24019 0
-24018 -24019 0
24017 -8621 24018 0
-8617 -24017 0
-24016 -24017 0
24015 -8618 24016 0
-8614 -24015 0
-24014 -24015 0
24013 -8615 24014 0
-24013 -8611 0
-24013 -24012 0
24011 -8612 24012 0
-24011 -8608 0
-24011 -24010 0
24009 -8609 24010 0
-24009 -8605 0
-24009 -8606 0
12023 -11192 24008 0
24006 -8743 24007 0
-22203 -24006 0
-24005 -24006 0
-22204 24004 24005 0
-24004 -22198 0
-24004 -24003 0
24003 24002 -22199 0
-24002 -22193 0
-24002 -24001 0
24001 24000 -22194 0
-24000 -22188 0
-24000 -23999 0
23999 23998 -22189 0
-23998 -22183 0
23992 -8715 23993 0
-22154 -23992 0
-23991 -23992 0
23990 -22155 23991 0
-22149 -23990 0
-23989 -23990 0
23988 -22150 23989 0
-22144 -23988 0
12023 -7290 23978 0
23976 -8687 23977 0
-23975 -23976 0
23974 -22106 23975 0
-23974 -23973 0
23973 23972 -22101 0
-23972 -23971 0
23970 23971 -22096 0
-23970 -22090 0
23962 -5496 23963 0
-22448 -23962 0
-23961 -23962 0
23960 -22449 23961 0
-23960 -22443 0
-23960 -23959 0
23958 23959 -22444 0
-23958 -22438 0
-23958 -23957 0
23956 23957 -22439 0
-23956 -22433 0
-23956 -23955 0
23954 23955 -22434 0
-23954 -22428 0
-23954 -23953 0
23952 23953 -22429 0
-23952 -22423 0
-23952 -23951 0
23950 23951 -22424 0
-23950 -22419 0
-23950 -22420 0
23948 -5467 23949 0
-22413 -23948 0
-23947 -23948 0
23946 -22414 23947 0
-23946 -22408 0
-23946 -23945 0
23944 23945 -22409 0
-23944 -22403 0
-23944 -23943 0
23942 23943 -22404 0
-23942 -22398 0
-23942 -23941 0
23940 23941 -22399 0
-23940 -22393 0
-23940 -23939 0
23938 23939 -22394 0
-23938 -22388 0
-23938 -23937 0
23936 23937 -22389 0
-23936 -22384 0
-23936 -22385 0
23934 -5438 23935 0
-22378 -23934 0
-23933 -23934 0
23932 -22379 23933 0
-23932 -22373 0
-23932 -23931 0
23930 23931 -22374 0
-23930 -22368 0
-23930 -23929 0
23928 23929 -22369 0
-23928 -22363 0
-23928 -23927 0
23926 23927 -22364 0
-23926 -22358 0
-23926 -23925 0
23924 23925 -22359 0
-23924 -22353 0
-23924 -23923 0
23922 23923 -22354 0
-23922 -22349 0
-23922 -22350 0
23920 -5409 23921 0
-22343 -23920 0
-23919 -23920 0
23918 -22344 23919 0
-23918 -22338 0
-23918 -23917 0
23916 23917 -22339 0
-23916 -22333 0
-23916 -23915 0
23914 23915 -22334 0
-23914 -22328 0
-23914 -23913 0
23912 23913 -22329 0
-23912 -22323 0
-23912 -23911 0
23910 23911 -22324 0
-23910 -22318 0
-23910 -23909 0
23908 23909 -22319 0
-23908 -22314 0
-23908 -22315 0
23906 -10634 23907 0
-23902 -23906 0
-23905 -23906 0
-23904 23901 23905 0
23903 23904 23902 0
-23903 1893 0
-23897 -23901 0
-23900 -23901 0
23896 -23899 23900 0
23899 23897 23898 0
-23898 1892 0
-23898 -5620 0
-23896 -23892 0
-23896 -23895 0
23895 23891 -23894 0
23892 23894 23893 0
-23893 1891 0
-23893 -5619 0
-23891 -23887 0
-23891 -23890 0
23890 23886 -23889 0
23888 23887 23889 0
-23888 1890 0
-23888 -5618 0
-23886 -23882 0
-23886 -23885 0
23885 23881 -23884 0
23883 23882 23884 0
-23883 1889 0
-23883 -5617 0
-23881 -23877 0
-23881 -23880 0
23880 23876 -23879 0
23878 23877 23879 0
-23878 -5616 0
-23876 -23873 0
-23876 -23875 0
23875 23873 23874 0
-23874 1887 0
1888 -5616 23877 0
1889 -5617 23882 0
5618 -23887 0
-5618 1890 23887 0
-5620 23897 1892 0
23869 -11163 23872 0
23869 -7262 23871 0
23869 -9180 23870 0
-23865 -23869 0
-23868 -23869 0
23864 -23867 23868 0
23867 23866 23865 0
-23866 -1879 0
-23866 1893 0
-23864 -23860 0
-23864 -23863 0
23863 23859 -23862 0
23862 23860 23861 0
-23861 -1878 0
-23861 1892 0
-23859 -23855 0
-23859 -23858 0
23858 23854 -23857 0
23857 23855 23856 0
-23856 -1877 0
-23856 1891 0
-1891 23856 1877 0
-23854 -23850 0
-23854 -23853 0
23853 23849 -23852 0
23852 23850 23851 0
-23851 -1876 0
-23851 1890 0
-23849 -23845 0
-23849 -23848 0
23848 23844 -23847 0
23847 23846 23845 0
-23846 -1875 0
-23846 1889 0
-23844 -23840 0
-23844 -23843 0
23843 23839 -23842 0
23842 23840 23841 0
-23841 -1874 0
-23841 1888 0
-23839 -23836 0
-23839 -23838 0
23838 23837 23836 0
-23837 -1873 0
-23837 1887 0
1888 23840 -1874 0
-23845 1875 0
1889 -1875 23845 0
-23850 -1890 0
1890 23850 -1876 0
-23855 1877 0
-1877 23855 1891 0
-23860 1878 0
-1892 -23860 0
-1878 23860 1892 0
-23865 1879 0
-23865 -1893 0
1893 -1879 23865 0
23834 -10605 23835 0
-23830 -23834 0
-23833 -23834 0
23829 -23832 23833 0
23832 23831 23830 0
-23831 -2005 0
-23831 2208 0
-23825 -23829 0
-23828 -23829 0
23824 -23827 23828 0
23827 23825 23826 0
-23826 -2004 0
-23826 2207 0
-23820 -23824 0
-23823 -23824 0
23819 -23822 23823 0
23822 23820 23821 0
-23821 -2003 0
-23821 2206 0
-23815 -23819 0
-23818 -23819 0
23814 -23817 23818 0
23816 23817 23815 0
-23816 -2002 0
-23816 2205 0
-23814 -23810 0
-23814 -23813 0
23813 23809 -23812 0
23811 23810 23812 0
-23811 2204 0
-23809 -23805 0
-23809 -23808 0
23808 23804 -23807 0
23806 23805 23807 0
-23806 -2000 0
-23806 2203 0
-23804 -23801 0
-23804 -23803 0
23803 23801 23802 0
-23802 -1999 0
-23802 2202 0
2001 -23810 0
-2001 23810 2204 0
2002 -23815 0
-2002 2205 23815 0
-23820 2003 0
-2003 23820 2206 0
23825 -2004 2207 0
2208 -2005 23830 0
-22775 -23800 0
23799 -23800 0
-22789 -23799 0
23798 -23799 0
-22803 -23798 0
23797 -23798 0
-22817 -23797 0
23796 -23797 0
-22831 -23796 0
23795 -23796 0
-22845 -23795 0
23794 -23795 0
-22859 -23794 0
23793 -23794 0
-22873 -23793 0
23792 -23793 0
-22887 -23792 0
23791 -23792 0
23790 -23791 0
-22902 -23790 0
23789 -23790 0
-22916 -23789 0
23788 -23789 0
-22930 -23788 0
23787 -23788 0
-22944 -23787 0
23786 -23787 0
-22958 -23786 0
23785 -23786 0
-22972 -23785 0
23784 -23785 0
-22973 -23784 0
23783 -23784 0
-22987 -23783 0
23782 -23783 0
-23001 -23782 0
23781 -23782 0
-23002 -23781 0
23780 -23781 0
-23016 -23780 0
23779 -23780 0
-23017 -23779 0
23778 -23779 0
-23031 -23778 0
23777 -23778 0
-23032 -23777 0
23776 -23777 0
-23046 -23776 0
23775 -23776 0
-23053 -23775 0
23774 -23775 0
-23054 -23774 0
23773 -23774 0
-23068 -23773 0
23772 -23773 0
-23069 -23772 0
23771 -23772 0
-23083 -23771 0
23770 -23771 0
-23097 -23770 0
23769 -23770 0
-23111 -23769 0
23768 -23769 0
-23112 -23768 0
23767 -23768 0
-23147 -23767 0
23766 -23767 0
-23161 -23766 0
23765 -23766 0
-23162 -23765 0
23764 -23765 0
-23176 -23764 0
23763 -23764 0
-23177 -23763 0
23762 -23763 0
-23191 -23762 0
23761 -23762 0
-23192 -23761 0
23760 -23761 0
-23206 -23760 0
23759 -23760 0
23758 -23759 0
-23214 -23758 0
23757 -23758 0
-23228 -23757 0
23756 -23757 0
-23263 -23756 0
23755 -23756 0
-23264 -23755 0
23754 -23755 0
-23299 -23754 0
23753 -23754 0
-23313 -23753 0
23752 -23753 0
-23348 -23752 0
23751 -23752 0
-23383 -23751 0
23750 -23751 0
-23418 -23750 0
23749 -23750 0
-23453 -23749 0
23748 -23749 0
-23488 -23748 0
23747 -23748 0
-23489 -23747 0
23746 -23747 0
-23524 -23746 0
23745 -23746 0
-23559 -23745 0
23744 -23745 0
-23594 -23744 0
23743 -23744 0
-23595 -23743 0
23742 -23743 0
-23630 -23742 0
23741 -23742 0
-23665 -23741 0
23740 -23741 0
-23666 -23740 0
23739 -23740 0
-23701 -23739 0
23738 -23739 0
-23736 -23738 0
-23737 -23738 0
22844 -10873 23737 0
-11954 23735 23736 0
-23731 -23735 0
-23734 -23735 0
23730 -23733 23734 0
23733 23732 23731 0
-23732 2208 0
-23732 -2726 0
23732 2726 -2208 0
-23730 -23726 0
-23730 -23729 0
23729 23725 -23728 0
23728 23726 23727 0
-23727 2207 0
-23727 -2725 0
-2207 23727 2725 0
-23725 -23721 0
-23725 -23724 0
23724 23720 -23723 0
23723 23721 23722 0
-23722 2206 0
-23722 -2724 0
-23720 -23716 0
-23720 -23719 0
23719 23715 -23718 0
23718 23716 23717 0
-23717 2205 0
-23717 -2723 0
-23715 -23711 0
-23715 -23714 0
23714 23710 -23713 0
23713 23711 23712 0
-23712 2204 0
-23710 -23706 0
-23710 -23709 0
23709 23705 -23708 0
23708 23706 23707 0
-23707 2203 0
-23707 -2721 0
-23705 -23702 0
-23705 -23704 0
23704 23702 23703 0
-23703 -2720 0
2203 23706 -2721 0
23711 2204 -2722 0
23716 2205 -2723 0
-23721 2724 0
-2724 23721 2206 0
-23726 -2207 0
-23726 2725 0
-2725 23726 2207 0
2208 -2726 23731 0
23700 23701 -10605 0
-23696 -23700 0
-23699 -23700 0
-23698 23695 23699 0
23697 23698 23696 0
-23697 -1991 0
-23697 2194 0
-23691 -23695 0
-23694 -23695 0
23690 -23693 23694 0
23693 23691 23692 0
-23692 -1990 0
-23692 2193 0
-23690 -23686 0
-23690 -23689 0
23689 23685 -23688 0
23688 23686 23687 0
-23687 -1989 0
-23687 2192 0
-23685 -23681 0
-23685 -23684 0
23684 23680 -23683 0
23683 23681 23682 0
-23682 2191 0
-23680 -23676 0
-23680 -23679 0
23679 23675 -23678 0
23678 23676 23677 0
-1987 -23677 0
-23677 2190 0
-23675 -23671 0
-23675 -23674 0
23674 23670 -23673 0
23673 23671 23672 0
-23672 2189 0
-23670 -23667 0
-23670 -23669 0
23669 23667 23668 0
-23668 -1985 0
-23668 2188 0
-1986 23671 2189 0
-23676 -2190 0
-1989 23686 2192 0
-1990 23691 2193 0
2194 -1991 23696 0
22816 -10844 23666 0
23664 -11954 23665 0
-23660 -23664 0
-23663 -23664 0
23659 -23662 23663 0
23662 23661 23660 0
-23661 2194 0
-23659 -23658 0
23658 23654 -23657 0
23657 23655 23656 0
-23656 2193 0
-23654 -23650 0
-23654 -23653 0
23653 23649 -23652 0
23652 23650 23651 0
-23651 2192 0
-23651 -2710 0
-23649 -23645 0
-23650 -2192 0
-23655 2711 0
-2712 2194 23660 0
23629 23630 -10605 0
-23625 -23629 0
-23628 -23629 0
-23627 23624 23628 0
23626 23627 23625 0
-23626 2180 0
-23620 -23624 0
-23623 -23624 0
23619 -23622 23623 0
23622 23620 23621 0
-23621 -1976 0
-23621 2179 0
-23619 -23615 0
-23619 -23618 0
23618 23614 -23617 0
23617 23615 23616 0
-23616 -1975 0
-23616 2178 0
-23614 -23610 0
-1974 23610 2177 0
-23615 1975 0
-1975 23615 2178 0
-1976 23620 2179 0
2180 -1977 23625 0
22788 -10815 23595 0
23593 -11954 23594 0
-23589 -23593 0
-23592 -23593 0
23588 -23591 23592 0
23591 23590 23589 0
-23590 2180 0
-23588 -23584 0
-23588 -23587 0
23587 23583 -23586 0
23586 23584 23585 0
-23585 2179 0
-23583 -23579 0
-23583 -23582 0
23582 23578 -23581 0
23581 23579 23580 0
-23580 2178 0
-23580 -2696 0
-23578 -23574 0
-23584 2697 0
23558 -4941 23559 0
-23554 -23558 0
-23557 -23558 0
23553 -23556 23557 0
-23554 -23556 0
23556 23555 23554 0
-23555 1949 0
-23555 -1963 0
-23553 -23552 0
23548 -23551 23552 0
23551 23550 23549 0
-23550 -1962 0
-23548 -23547 0
23543 -23546 23547 0
23546 23545 23544 0
-23545 1947 0
-23545 -1961 0
-23543 -23539 0
-1960 23539 1946 0
-23544 -1947 0
-23544 1961 0
-23549 -1948 0
-23554 1963 0
1949 -1963 23554 0
23523 23524 -10605 0
-23519 -23523 0
-23522 -23523 0
23518 -23521 23522 0
23521 23520 23519 0
-23520 -1963 0
-23520 2166 0
-23514 -23518 0
-23517 -23518 0
23513 -23516 23517 0
23516 23514 23515 0
-23515 -1962 0
-23515 2165 0
-23509 -23513 0
-23512 -23513 0
23508 -23511 23512 0
23511 23509 23510 0
-23510 -1961 0
-23510 2164 0
-23504 -23508 0
-23507 -23508 0
23503 -23506 23507 0
23506 23505 23504 0
-23505 -1960 0
-23505 2163 0
-23503 -23499 0
-23503 -23502 0
23502 23498 -23501 0
23501 23499 23500 0
-23500 -1959 0
-23500 2162 0
-23498 -23494 0
-23498 -23497 0
23497 23493 -23496 0
23496 23494 23495 0
-23495 -1958 0
-23495 2161 0
-23493 -23490 0
-23493 -23492 0
23492 23490 23491 0
-23491 -1957 0
-23491 2160 0
-1958 23494 2161 0
1959 -23499 0
-23499 -2162 0
-1959 23499 2162 0
-1960 2163 23504 0
-23509 1961 0
-1961 23509 2164 0
-23514 1962 0
-1962 23514 2165 0
2166 -1963 23519 0
22697 -10786 23489 0
23487 -11954 23488 0
-23483 -23487 0
-23486 -23487 0
23482 -23485 23486 0
23485 23484 23483 0
-23484 2166 0
-23482 -23478 0
-23482 -23481 0
23481 23477 -23480 0
23480 23478 23479 0
-23479 2165 0
-23477 -23473 0
-23477 -23476 0
23476 23472 -23475 0
23475 23473 23474 0
-23474 2164 0
-23474 -10757 0
-23472 -23468 0
-23473 -2164 0
-4265 23452 23453 0
-23448 -23452 0
-23451 -23452 0
23447 -23450 23451 0
-23448 -23450 0
23450 23448 23449 0
-23449 1935 0
-23449 -2684 0
2684 -1935 23449 0
-23447 -23443 0
-23443 -23445 0
23445 23443 23444 0
-23444 1934 0
-2683 -23444 0
2683 -1934 23444 0
-23440 -23439 0
23440 23438 23439 0
-23439 1933 0
-23439 -2682 0
2682 -1933 23439 0
23435 23433 23434 0
1932 -23434 0
-23434 -2681 0
2681 23434 -1932 0
-23427 -23431 0
23427 23431 -23430 0
23429 23428 23430 0
1931 -23429 0
-2680 -23429 0
23429 2680 -1931 0
-23427 -23423 0
23427 23423 23426 0
-23426 23425 0
23424 23425 23423 0
23420 23419 23421 0
-23419 -1929 0
-23419 2678 0
2679 -23423 0
-23428 -1931 0
-23428 2680 0
-23433 -1932 0
-23433 2681 0
-23438 -1933 0
-23438 2682 0
-23443 -1934 0
-23443 2683 0
23443 -2683 1934 0
-23448 -1935 0
-23448 2684 0
1935 -2684 23448 0
-4236 23417 23418 0
-23415 -23414 0
23415 23413 23414 0
-23414 1935 0
-23414 -2670 0
2670 -1935 23414 0
-23410 -23409 0
23410 23408 23409 0
-23409 1934 0
-2669 -23409 0
2669 -1934 23409 0
-23405 -23404 0
23405 23403 23404 0
-23404 1933 0
-23404 -2668 0
2668 -1933 23404 0
23400 23398 23399 0
2667 23399 -1932 0
23394 23393 23395 0
-23394 -2666 0
23394 2666 -1931 0
23389 23388 23390 0
1930 -23389 0
23389 2665 -1930 0
23385 23384 23386 0
-23384 -1929 0
-23388 2665 0
-23393 -1931 0
-23398 -1932 0
-23403 -1933 0
-23403 2668 0
-23408 -1934 0
-23408 2669 0
-23413 -1935 0
-23413 2670 0
-4207 23382 23383 0
-23380 -23379 0
23380 23378 23379 0
-23379 1935 0
-23379 -2656 0
2656 -1935 23379 0
23375 23373 23374 0
-23374 1934 0
-2655 -23374 0
2655 -1934 23374 0
-23370 -23369 0
23370 23368 23369 0
-23369 1933 0
-2654 -23369 0
2654 -1933 23369 0
-23365 -23364 0
23365 23363 23364 0
-2653 -23364 0
2653 23364 -1932 0
-23361 23360 0
23357 23361 -23360 0
23359 23358 23360 0
1931 -23359 0
23359 2652 -1931 0
-23357 -23356 0
23352 23356 -23355 0
23354 23353 23355 0
-2651 -23354 0
23354 2651 -1930 0
-23352 -23349 0
23350 23349 23351 0
-23349 -1929 0
-23353 -1930 0
-23358 2652 0
-23363 -1932 0
-23363 2653 0
-23368 -1933 0
-23368 2654 0
-23373 -1934 0
-23373 2655 0
-23378 -1935 0
-23378 2656 0
-4178 23347 23348 0
-23343 -23347 0
-23346 -23347 0
23342 -23345 23346 0
23345 23343 23344 0
-23344 1935 0
-23344 -2642 0
2642 -1935 23344 0
-23342 -23341 0
23337 23341 -23340 0
-23338 -23340 0
-23340 -23339 0
23340 23338 23339 0
-23339 1934 0
-2641 -23339 0
2641 -1934 23339 0
-23337 -23336 0
23332 23336 -23335 0
-23335 -23334 0
23335 23333 23334 0
-23334 1933 0
-23334 -2640 0
2640 -1933 23334 0
-23332 -23328 0
-23330 -23329 0
23330 23328 23329 0
1932 -23329 0
-2639 -23329 0
2639 23329 -1932 0
23324 23323 23325 0
1931 -23324 0
-2638 -23324 0
23324 2638 -1931 0
23319 23318 23320 0
-2637 -23319 0
23319 2637 -1930 0
23315 23314 23316 0
-23314 2636 0
-23318 -1930 0
-23323 -1931 0
-23323 2638 0
-23328 -1932 0
-23328 2639 0
-2639 23328 1932 0
-23333 -1933 0
-23333 2640 0
-23338 -1934 0
-23338 2641 0
23338 -2641 1934 0
-23343 -1935 0
-23343 2642 0
1935 -2642 23343 0
23312 -4800 23313 0
-13589 -23312 0
-23311 -23312 0
23310 -13590 23311 0
-23310 -13584 0
-23310 -23309 0
23309 23308 -13585 0
-23308 -13579 0
23298 23299 -10605 0
-23294 -23298 0
-23297 -23298 0
23293 -23296 23297 0
23296 23295 23294 0
-23295 1935 0
-23295 -2138 0
-23289 -23293 0
-23292 -23293 0
23288 -23291 23292 0
23291 23290 23289 0
-23290 1934 0
-23290 -2137 0
-1934 23290 2137 0
-23284 -23288 0
-23287 -23288 0
23283 -23286 23287 0
23286 23284 23285 0
-23285 1933 0
-23285 -2136 0
-23279 -23283 0
-23282 -23283 0
23278 -23281 23282 0
23281 23280 23279 0
-23280 1932 0
-23280 -2135 0
-23278 -23274 0
-23278 -23277 0
23277 23273 -23276 0
23276 23275 23274 0
-23275 1931 0
-23275 -2134 0
-23273 -23269 0
-23273 -23272 0
23272 23268 -23271 0
23271 23270 23269 0
-23270 1930 0
-23270 -2133 0
-23268 -23265 0
-23268 -23267 0
23267 23266 23265 0
-23266 1929 0
-23266 -2132 0
1930 -2133 23269 0
1931 -2134 23274 0
-23279 -1932 0
-23279 2135 0
1932 -2135 23279 0
-23284 2136 0
-2136 23284 1933 0
-23289 2137 0
-2137 23289 1934 0
1935 -2138 23294 0
11731 -11018 23264 0
-4149 23262 23263 0
-23258 -23262 0
-23261 -23262 0
23257 -23260 23261 0
23260 23259 23258 0
-23259 1935 0
-23257 -23253 0
-23257 -23256 0
23256 23252 -23255 0
23255 23253 23254 0
-23254 1934 0
-23254 -2627 0
-23252 -23248 0
-23252 -23251 0
23251 23247 -23250 0
23250 23248 23249 0
-23249 1933 0
-23249 -2626 0
-23247 -23243 0
-23248 -1933 0
23248 -2626 1933 0
-23253 -1934 0
-23253 2627 0
1935 -2628 23258 0
-4265 23227 23228 0
-6909 -23227 0
-23226 -23227 0
23225 -6910 23226 0
-23225 -6906 0
-23225 -23224 0
23224 23223 -6907 0
-23223 -6903 0
-23223 -23222 0
23222 23221 -6904 0
-23221 -6900 0
-23221 -23220 0
23220 23219 -6901 0
-23219 -6897 0
-23219 -23218 0
23218 23217 -6898 0
-23217 -6894 0
-23217 -23216 0
23216 23215 -6895 0
-23215 -6891 0
-23215 -6892 0
22844 -6916 23214 0
-4236 23205 23206 0
-6881 -23205 0
-23205 -23204 0
23204 23203 -6882 0
-23203 -6878 0
-23203 -23202 0
23202 23201 -6879 0
-23201 -6875 0
-23201 -23200 0
23200 23199 -6876 0
-23199 -23198 0
23198 23197 -6873 0
-23197 -23196 0
23196 23195 -6870 0
-23195 -23194 0
23194 23193 -6867 0
-23193 -6864 0
22816 -6888 23192 0
-4207 23190 23191 0
-6853 -23190 0
-23190 -23189 0
23189 23188 -6854 0
-23188 -6850 0
-23188 -23187 0
23187 23186 -6851 0
-23186 -6847 0
-23186 -23185 0
23185 23184 -6848 0
-23184 -6844 0
-23184 -23183 0
23183 23182 -6845 0
-23182 -23181 0
23181 23180 -6842 0
-23180 -23179 0
23179 23178 -6839 0
-23178 -6836 0
22788 -6860 23177 0
-4178 23175 23176 0
-6825 -23175 0
-23175 -23174 0
23174 23173 -6826 0
-23173 -6822 0
-23173 -23172 0
23172 23171 -6823 0
-23171 -6819 0
-23171 -23170 0
23170 23169 -6820 0
-23169 -23168 0
23168 23167 -6817 0
-23167 -6813 0
-23167 -23166 0
23166 23165 -6814 0
-23165 -23164 0
23164 23163 -6811 0
-23163 -6808 0
22697 -6832 23162 0
23160 -4660 23161 0
-23159 -23160 0
23158 -13246 23159 0
-23158 -13240 0
-23158 -23157 0
23156 23157 -13241 0
-23156 -13235 0
-23156 -23155 0
23154 23155 -13236 0
-23154 -13230 0
23146 23147 -10605 0
-23142 -23146 0
-23145 -23146 0
23141 -23144 23145 0
23144 23143 23142 0
-23143 1921 0
-23143 -2124 0
-23137 -23141 0
-23140 -23141 0
23136 -23139 23140 0
23139 23138 23137 0
-23138 1920 0
-23138 -2123 0
-1920 23138 2123 0
-23132 -23136 0
-23135 -23136 0
23131 23135 -23134 0
23134 23133 23132 0
-23133 1919 0
-23133 -2122 0
-1919 23133 2122 0
-23127 -23131 0
-23130 -23131 0
23126 -23129 23130 0
23129 23128 23127 0
-23128 1918 0
-23128 -2121 0
-23126 -23122 0
-23126 -23125 0
23125 23121 -23124 0
23124 23123 23122 0
-23123 1917 0
-23123 -2120 0
-23121 -23117 0
-23121 -23120 0
23120 23116 -23119 0
23119 23118 23117 0
-23118 1916 0
-23118 -2119 0
-23116 -23113 0
-23116 -23115 0
23115 23113 23114 0
-23114 1915 0
-23114 -2118 0
1916 -2119 23117 0
-23122 -1917 0
-23122 2120 0
1917 -2120 23122 0
-23127 2121 0
1918 -2121 23127 0
-23132 2122 0
-2122 23132 1919 0
-23137 2123 0
-2123 23137 1920 0
1921 -2124 23142 0
11696 -10989 23112 0
-4149 23110 23111 0
-23110 -23109 0
23109 23108 -6798 0
-23108 -23107 0
23107 23106 -6795 0
-23106 -6791 0
-23106 -23105 0
23105 23104 -6792 0
-23104 -6788 0
-23104 -23103 0
23103 23102 -6789 0
-23102 -23101 0
23101 23100 -6786 0
-23100 -6782 0
-23100 -23099 0
23099 23098 -6783 0
-23098 -6779 0
-23098 -6780 0
23096 -4632 23097 0
-13196 -23096 0
-23095 -23096 0
23094 -13197 23095 0
-23094 -13191 0
-23094 -23093 0
23092 23093 -13192 0
-23092 -13186 0
-23092 -23091 0
23090 23091 -13187 0
-23090 -13181 0
-4120 23082 23083 0
-6769 -23082 0
-23082 -23081 0
23081 23080 -6770 0
-23080 -23079 0
23079 23078 -6767 0
-23078 -23077 0
23077 23076 -6764 0
-23076 -23075 0
23075 23074 -6761 0
-23074 -23073 0
23073 23072 -6758 0
-23072 -23071 0
23071 23070 -6755 0
-23070 -6751 0
-23070 -6752 0
22915 -6776 23069 0
-4265 23067 23068 0
-8849 -23067 0
-23066 -23067 0
23065 23066 -8850 0
-23065 -8846 0
-23065 -23064 0
23063 23064 -8847 0
-23063 -8843 0
-23063 -23062 0
23061 23062 -8844 0
-23061 -8840 0
-23061 -23060 0
23059 23060 -8841 0
-23059 -8837 0
-23059 -23058 0
23057 23058 -8838 0
-23057 -8834 0
-23057 -23056 0
23055 23056 -8835 0
-23055 -8831 0
-23055 -8832 0
22844 -8856 23054 0
15312 -23052 23053 0
-11659 23052 -23051 0
23051 -23050 -11654 0
23050 -23049 -11649 0
23049 -11644 -23048 0
23048 -11639 -23047 0
-11630 -11634 23047 0
-4236 23045 23046 0
-8821 -23045 0
-23044 -23045 0
23043 -8822 23044 0
-23043 -8818 0
-23043 -23042 0
23042 23041 -8819 0
-23041 -8815 0
-23041 -23040 0
23040 23039 -8816 0
-23039 -8812 0
-23039 -23038 0
23038 23037 -8813 0
-23037 -8809 0
-23037 -23036 0
23036 23035 -8810 0
-23035 -8806 0
-23035 -23034 0
23034 23033 -8807 0
-23033 -8803 0
-23033 -8804 0
22816 -8828 23032 0
-4207 23030 23031 0
-8793 -23030 0
-23030 -23029 0
23029 23028 -8794 0
-23028 -8790 0
-23028 -23027 0
23027 23026 -8791 0
-23026 -8787 0
-23026 -23025 0
23025 23024 -8788 0
-23024 -8784 0
-23024 -23023 0
23023 23022 -8785 0
-23022 -8781 0
-23022 -23021 0
23021 23020 -8782 0
-23020 -8778 0
-23020 -23019 0
23019 23018 -8779 0
-23018 -8775 0
-23018 -8776 0
22788 -8800 23017 0
-4178 23015 23016 0
-8765 -23015 0
-23014 -23015 0
23013 -8766 23014 0
-23013 -8762 0
-23013 -23012 0
23012 23011 -8763 0
-23011 -8759 0
-23011 -23010 0
23010 23009 -8760 0
-23009 -8756 0
-23009 -23008 0
23008 23007 -8757 0
-23007 -8753 0
-23007 -23006 0
23006 23005 -8754 0
-23005 -8750 0
-23005 -23004 0
23004 23003 -8751 0
-23003 -8747 0
-23003 -8748 0
22697 -8772 23002 0
23000 -4548 23001 0
-22999 -23000 0
22998 -12868 22999 0
-22998 -12862 0
-22998 -22997 0
22997 22996 -12863 0
-22996 -22995 0
22994 22995 -12858 0
-22994 -22993 0
22992 22993 -12853 0
-22992 -12847 0
22986 22987 -10605 0
-8594 -22986 0
-22985 -22986 0
22984 -8595 22985 0
-8591 -22984 0
-22983 -22984 0
22982 -8592 22983 0
-8588 -22982 0
-22981 -22982 0
22980 22981 -8589 0
-8585 -22980 0
-22979 -22980 0
22978 -8586 22979 0
-22978 -8582 0
-22978 -22977 0
22976 -8583 22977 0
-22976 -8579 0
-22976 -22975 0
22974 -8580 22975 0
-22974 -8576 0
-22974 -8577 0
11661 -10960 22973 0
-4149 22971 22972 0
-8736 -22971 0
-22971 -22970 0
22970 22969 -8737 0
-22969 -8733 0
-22969 -22968 0
22968 22967 -8734 0
-22967 -8730 0
-22967 -22966 0
22966 22965 -8731 0
-22965 -8727 0
-22965 -22964 0
22964 22963 -8728 0
-22963 -8724 0
-22963 -22962 0
22962 22961 -8725 0
-22961 -8721 0
-22961 -22960 0
22960 22959 -8722 0
-22959 -8718 0
-22959 -8719 0
22957 -8743 22958 0
-4141 -22957 0
-22956 -22957 0
22956 22957 4141 0
-22956 4143 0
-22956 -22955 0
22955 -4143 22956 0
-22955 -4138 0
-22955 -22954 0
22955 22954 4138 0
-22954 4140 0
-22954 -22953 0
22954 22953 -4140 0
-22953 -4135 0
-22953 -22952 0
22953 22952 4135 0
-22952 4137 0
-22952 -22951 0
22952 22951 -4137 0
-22951 -4132 0
-22951 -22950 0
22951 22950 4132 0
-22950 4134 0
-22950 -22949 0
22950 22949 -4134 0
-22949 -4129 0
-22949 -22948 0
22949 22948 4129 0
-22948 4131 0
-22948 -22947 0
22948 22947 -4131 0
-22947 -4126 0
-22947 -22946 0
22947 22946 4126 0
-22946 4128 0
-22946 -22945 0
22946 -4128 22945 0
-22945 -4123 0
-22945 -4125 0
22945 4125 4123 0
22943 -4520 22944 0
-12783 -22943 0
-22942 -22943 0
22941 -12784 22942 0
-22941 -12778 0
-22941 -22940 0
22940 22939 -12779 0
-22939 -12773 0
-22939 -22938 0
22937 22938 -12774 0
-22937 -12768 0
-22937 -22936 0
22935 22936 -12769 0
-22935 -12763 0
-22935 -22934 0
22933 22934 -12764 0
-22933 -12758 0
-22933 -22932 0
22931 22932 -12759 0
-22931 -12754 0
-22931 -12755 0
22929 -4120 22930 0
-8708 -22929 0
-22928 -22929 0
22927 22928 -8709 0
-22926 -22927 0
22925 22926 -8706 0
-22925 -8702 0
-22924 -22925 0
22923 22924 -8703 0
-22923 -8699 0
-22922 -22923 0
22921 22922 -8700 0
-22921 -8696 0
-22921 -22920 0
22919 22920 -8697 0
-22919 -8693 0
-22919 -22918 0
22917 -8694 22918 0
-22917 -8690 0
-22917 -8691 0
22915 -8715 22916 0
-4112 -22915 0
-22914 -22915 0
-22914 4114 0
-22914 -22913 0
22913 -4114 22914 0
-4109 -22913 0
-22913 -22912 0
22912 22913 4109 0
-22912 4111 0
-22912 -22911 0
22912 22911 -4111 0
-22911 -4106 0
-22911 -22910 0
22910 22911 4106 0
-22910 4108 0
-22910 -22909 0
22910 22909 -4108 0
-22909 -4103 0
-22909 -22908 0
22908 22909 4103 0
-22908 4105 0
-22908 -22907 0
22908 22907 -4105 0
-22907 -4100 0
-22907 -22906 0
22906 22907 4100 0
-22906 4102 0
-22906 -22905 0
22906 22905 -4102 0
-22905 -4097 0
-22905 -22904 0
22904 22905 4097 0
-22904 4099 0
-22904 -22903 0
22904 22903 -4099 0
-22903 -4094 0
-22903 -4096 0
4096 22903 4094 0
22901 -4492 22902 0
-22900 -22901 0
22899 -12700 22900 0
-22899 -12694 0
-22899 -22898 0
22897 22898 -12695 0
-22897 -12689 0
-22897 -22896 0
22895 22896 -12690 0
-22895 -12684 0
-22895 -22894 0
22893 22894 -12685 0
-22893 -22892 0
22891 22892 -12680 0
-22891 -12674 0
-22891 -22890 0
22889 22890 -12675 0
-22889 -12670 0
-22889 -12671 0
-4091 22886 22887 0
-8680 -22886 0
-22886 -22885 0
22885 22884 -8681 0
-22884 -22883 0
22883 22882 -8678 0
-22882 -22881 0
22881 22880 -8675 0
-22880 -8671 0
-22880 -22879 0
22879 22878 -8672 0
-22878 -22877 0
22877 22876 -8669 0
-22876 -8665 0
-22876 -22875 0
22875 22874 -8666 0
-22874 -8662 0
-22874 -8663 0
22872 -8687 22873 0
-4083 -22872 0
-22871 -22872 0
-22871 4085 0
-22871 -22870 0
22870 -4085 22871 0
-22870 -4080 0
-22870 -22869 0
22869 22870 4080 0
-22869 4082 0
-22869 -22868 0
22869 22868 -4082 0
-22868 -4077 0
-22868 -22867 0
22867 22868 4077 0
-22867 4079 0
-22867 -22866 0
22867 22866 -4079 0
-22866 -4074 0
-22866 -22865 0
22865 22866 4074 0
-22865 4076 0
-22865 -22864 0
22865 22864 -4076 0
-22864 -4071 0
-22864 -22863 0
22863 22864 4071 0
-22863 4073 0
-22863 -22862 0
22863 22862 -4073 0
-22862 -4068 0
-22862 -22861 0
22861 22862 4068 0
-22861 4070 0
-22861 -22860 0
22861 22860 -4070 0
-22860 -4065 0
-22860 -4067 0
22860 4067 4065 0
-4265 22858 22859 0
-5489 -22858 0
-22858 -22857 0
22857 22856 -5490 0
-22856 -5486 0
-22856 -22855 0
22855 22854 -5487 0
-22854 -5483 0
-22854 -22853 0
22853 22852 -5484 0
-22852 -5480 0
-22852 -22851 0
22851 22850 -5481 0
-22850 -5477 0
-22850 -22849 0
22849 22848 -5478 0
-22848 -5474 0
-22848 -22847 0
22847 22846 -5475 0
-22846 -5471 0
-22846 -5472 0
22844 -5496 22845 0
-4257 -22844 0
-22843 -22844 0
22842 -4259 22843 0
-22842 -4254 0
-22842 -22841 0
22841 22840 -4256 0
-22840 -4251 0
-22840 -22839 0
22839 22838 -4253 0
-22838 -4248 0
-22838 -22837 0
22837 22836 -4250 0
-22836 -4245 0
-22836 -22835 0
22835 22834 -4247 0
-22834 -4242 0
-22834 -22833 0
22833 22832 -4244 0
-22832 -4239 0
-22832 -4241 0
-4236 22830 22831 0
-5460 -22830 0
-22830 -22829 0
22829 22828 -5461 0
-22828 -5457 0
-22828 -22827 0
22827 22826 -5458 0
-22826 -5454 0
-22826 -22825 0
22825 22824 -5455 0
-22824 -5451 0
-22824 -22823 0
22823 22822 -5452 0
-22822 -5448 0
-22822 -22821 0
22821 22820 -5449 0
-22820 -5445 0
-22820 -22819 0
22819 22818 -5446 0
-22818 -5442 0
-22818 -5443 0
22816 -5467 22817 0
-4228 -22816 0
-22815 -22816 0
22814 -4230 22815 0
-22814 -4225 0
-22814 -22813 0
22813 22812 -4227 0
-22812 -4222 0
-22812 -22811 0
22811 22810 -4224 0
-22810 -4219 0
-22810 -22809 0
22809 22808 -4221 0
-22808 -4216 0
-22808 -22807 0
22807 22806 -4218 0
-22806 -4213 0
-22806 -22805 0
22805 22804 -4215 0
-22804 -4210 0
-22804 -4212 0
22802 -4207 22803 0
-5431 -22802 0
-22801 -22802 0
22800 22801 -5432 0
-22800 -5428 0
-22800 -22799 0
22799 22798 -5429 0
-22798 -5425 0
-22798 -22797 0
22796 22797 -5426 0
-22796 -5422 0
-22796 -22795 0
22794 22795 -5423 0
-22794 -5419 0
-22794 -22793 0
22792 22793 -5420 0
-22792 -5416 0
-22792 -22791 0
22790 22791 -5417 0
-22790 -5413 0
22788 -5438 22789 0
-4199 -22788 0
-22787 -22788 0
22786 -4201 22787 0
-22786 -4196 0
-22786 -22785 0
22785 22784 -4198 0
-22784 -4193 0
-22784 -22783 0
22783 22782 -4195 0
-22782 -4190 0
-22782 -22781 0
22781 22780 -4192 0
-22780 -4187 0
-22780 -22779 0
22779 22778 -4189 0
-22778 -22777 0
22777 22776 -4186 0
-22776 -4183 0
-4178 22774 22775 0
-5402 -22774 0
-22774 -22773 0
22773 22772 -5403 0
-22772 -5399 0
-22772 -22771 0
22771 22770 -5400 0
-22770 -5396 0
-22770 -22769 0
22769 22768 -5397 0
-22768 -5393 0
-22768 -22767 0
22767 22766 -5394 0
-22766 -5390 0
-22766 -22765 0
22765 22764 -5391 0
-22764 -5387 0
-22764 -22763 0
22763 22762 -5388 0
-22762 -5384 0
-22762 -5385 0
22760 -22761 0
-21192 -22760 0
22759 -22760 0
-21193 -22759 0
22758 -22759 0
-21207 -22758 0
22757 -22758 0
-21242 -22757 0
22756 -22757 0
-21256 -22756 0
22755 -22756 0
-21291 -22755 0
22754 -22755 0
-21292 -22754 0
22753 -22754 0
-21306 -22753 0
22752 -22753 0
-21341 -22752 0
22751 -22752 0
22750 -22751 0
-21377 -22750 0
22749 -22750 0
-21391 -22749 0
22748 -22749 0
22747 -22748 0
-21406 -22747 0
22746 -22747 0
-21420 -22746 0
22745 -22746 0
22744 -22745 0
-21475 -22744 0
22743 -22744 0
-21476 -22743 0
22742 -22743 0
-21511 -22742 0
22741 -22742 0
-21525 -22741 0
22740 -22741 0
22739 -22740 0
-21595 -22739 0
22738 -22739 0
-21609 -22738 0
22737 -22738 0
22736 -22737 0
-21679 -22736 0
22735 -22736 0
-21680 -22735 0
22734 -22735 0
-21694 -22734 0
22733 -22734 0
-21729 -22733 0
22732 -22733 0
-21730 -22732 0
22731 -22732 0
-21744 -22731 0
22730 -22731 0
-21779 -22730 0
22729 -22730 0
-21814 -22729 0
22728 -22729 0
-21849 -22728 0
22727 -22728 0
22726 -22727 0
-21919 -22726 0
22725 -22726 0
-21920 -22725 0
22724 -22725 0
-21955 -22724 0
22723 -22724 0
-21990 -22723 0
22722 -22723 0
-22025 -22722 0
22721 -22722 0
-22060 -22721 0
22720 -22721 0
-22074 -22720 0
22719 -22720 0
-22109 -22719 0
22718 -22719 0
-22123 -22718 0
22717 -22718 0
-22158 -22717 0
22716 -22717 0
-22172 -22716 0
22715 -22716 0
-22207 -22715 0
22714 -22715 0
-22242 -22714 0
22713 -22714 0
-22277 -22713 0
22712 -22713 0
22711 -22712 0
-22347 -22711 0
22710 -22711 0
-22382 -22710 0
22709 -22710 0
-22417 -22709 0
22708 -22709 0
-22452 -22708 0
22707 -22708 0
-22487 -22707 0
22706 -22707 0
-22522 -22706 0
22705 -22706 0
-22557 -22705 0
22704 -22705 0
-22558 -22704 0
22703 -22704 0
-22593 -22703 0
22702 -22703 0
-22628 -22702 0
22701 -22702 0
-22629 -22701 0
22700 -22701 0
-22664 -22700 0
22699 -22700 0
-22698 -22699 0
22697 -5409 22698 0
-4170 -22697 0
-22696 -22697 0
22695 -4172 22696 0
-22695 -4167 0
-22695 -22694 0
22694 22693 -4169 0
-22693 -4164 0
-22693 -22692 0
22692 22691 -4166 0
-22691 -4161 0
-22691 -22690 0
22690 22689 -4163 0
-22689 -4158 0
-22689 -22688 0
22688 22687 -4160 0
-22687 -4155 0
-22687 -22686 0
22686 22685 -4157 0
-22685 -4152 0
-22685 -4154 0
22663 22664 -10605 0
-22659 -22663 0
-22662 -22663 0
22658 -22661 22662 0
22661 22660 22659 0
-22660 1893 0
-22660 -2033 0
22660 2033 -1893 0
-22654 -22658 0
-22657 -22658 0
22653 -22656 22657 0
22656 22654 22655 0
-22655 1892 0
-22655 -2032 0
-22649 -22653 0
-22652 -22653 0
22648 -22651 22652 0
22651 22649 22650 0
-22650 1891 0
-22650 -2031 0
-22644 -22648 0
-22647 -22648 0
22643 -22646 22647 0
22645 22646 22644 0
-22645 1890 0
-22645 -2030 0
-22643 -22639 0
-22643 -22642 0
22642 22638 -22641 0
22640 22639 22641 0
-22640 1889 0
-22640 -2029 0
-22638 -22634 0
-22638 -22637 0
22637 22633 -22636 0
22635 22634 22636 0
-22635 1888 0
-22635 -2028 0
-22633 -22630 0
-22633 -22632 0
22632 22630 22631 0
-22631 1887 0
-22631 -2027 0
1888 22634 -2028 0
-22639 -1889 0
-22639 2029 0
1889 22639 -2029 0
-22644 -1890 0
-22644 2030 0
1890 -2030 22644 0
-22649 -1891 0
-22649 2031 0
-2031 22649 1891 0
-22654 2032 0
-2032 22654 1892 0
1893 -2033 22659 0
22521 -10931 22629 0
22627 -4149 22628 0
-22623 -22627 0
-22626 -22627 0
22622 -22625 22626 0
-22625 -22623 0
-22624 -22625 0
22625 22623 22624 0
-22624 1893 0
-22624 -2376 0
2376 -1893 22624 0
-22622 -22618 0
-22622 -22621 0
22621 22617 -22620 0
-22620 -22618 0
22620 22618 22619 0
-22619 1892 0
-22619 -2375 0
-22617 -22613 0
-22617 -22616 0
22612 -22615 22616 0
-22615 -22613 0
-22614 -22615 0
22615 22613 22614 0
-22614 1891 0
-22614 -2374 0
-1891 22614 2374 0
-22612 -22608 0
-22612 -22611 0
22607 -22610 22611 0
-22610 -22608 0
22610 22609 22608 0
-22609 1890 0
-22609 -2373 0
-22607 -22603 0
-22607 -22606 0
22602 -22605 22606 0
-22605 -22603 0
22605 22604 22603 0
-22604 1889 0
-22604 -2372 0
-22602 -22598 0
-22602 -22601 0
22597 -22600 22601 0
-22600 -22598 0
22600 22599 22598 0
-22599 1888 0
-22599 -2371 0
-22597 -22594 0
-22597 -22596 0
22596 22594 22595 0
-22595 1887 0
-22595 -2370 0
-1888 -22598 0
-22598 2371 0
1888 -2371 22598 0
-22603 -1889 0
-22603 2372 0
1889 -2372 22603 0
-22608 -1890 0
-22608 2373 0
1890 -2373 22608 0
-22613 -1891 0
-22613 2374 0
-2374 22613 1891 0
-1892 -22618 0
-22618 2375 0
-2375 22618 1892 0
-22623 -1893 0
-22623 2376 0
1893 -2376 22623 0
22592 -4120 22593 0
-22588 -22592 0
-22591 -22592 0
22587 -22590 22591 0
-22590 -22588 0
22590 22588 22589 0
-22589 1893 0
-22589 -2362 0
2362 -1893 22589 0
-22583 -22587 0
-22586 -22587 0
22582 -22585 22586 0
22585 22583 22584 0
-22584 1892 0
-2361 -22584 0
-1892 2361 22584 0
-22578 -22582 0
-22581 -22582 0
22577 -22580 22581 0
-22580 -22578 0
22580 22578 22579 0
-22579 1891 0
-22579 -2360 0
2360 -1891 22579 0
-22577 -22573 0
-22577 -22576 0
22572 -22575 22576 0
-22574 -22575 0
22573 22574 22575 0
1890 -22574 0
-22574 -2359 0
22574 2359 -1890 0
-22572 -22568 0
-22572 -22571 0
22567 -22570 22571 0
-22569 -22570 0
22568 22570 22569 0
1889 -22569 0
-22569 -2358 0
22569 2358 -1889 0
-22567 -22563 0
-22567 -22566 0
22562 -22565 22566 0
22564 22563 22565 0
1888 -22564 0
-2357 -22564 0
-22562 -22559 0
-22562 -22561 0
22560 22559 22561 0
-22560 1887 0
-2356 -22560 0
-22559 -1887 0
-1888 -22563 0
-2357 1888 22563 0
-22568 -1889 0
2358 -22568 0
22568 -2358 1889 0
-22573 -1890 0
2359 -22573 0
22573 -2359 1890 0
-22578 -1891 0
-22578 2360 0
-2360 22578 1891 0
-1892 -22583 0
-22583 2361 0
-2361 22583 1892 0
-22588 -1893 0
2362 -22588 0
1893 -2362 22588 0
22521 -6973 22558 0
22556 -4091 22557 0
-22552 -22556 0
-22555 -22556 0
22551 -22554 22555 0
-22554 -22552 0
22554 22552 22553 0
-22553 1893 0
-22553 -2348 0
2348 -1893 22553 0
-22551 -22547 0
-22551 -22550 0
22546 -22549 22550 0
-22549 -22547 0
22547 22549 22548 0
-22548 1892 0
-22548 -2347 0
-22546 -22542 0
-22546 -22545 0
22541 -22544 22545 0
-22544 -22542 0
22544 22542 22543 0
-22543 1891 0
-22543 -2346 0
-22541 -22537 0
-22541 -22540 0
22536 -22539 22540 0
22537 22538 22539 0
1890 -22538 0
-2345 -22538 0
22538 2345 -1890 0
-22536 -22532 0
-22536 -22535 0
22531 -22534 22535 0
22532 22533 22534 0
-22533 1889 0
-22533 -2344 0
-22531 -22527 0
-22531 -22530 0
22526 -22529 22530 0
22528 22527 22529 0
-22528 1888 0
-22528 -2343 0
-22526 -22523 0
-22526 -22525 0
22524 22523 22525 0
-22524 1887 0
-22524 -2342 0
-2343 1888 22527 0
-22532 -1889 0
2344 -22532 0
22532 -2344 1889 0
-22537 -1890 0
2345 -22537 0
22537 -2345 1890 0
-22542 -1891 0
2346 -22542 0
22542 -2346 1891 0
-1892 -22547 0
-22547 2347 0
22547 -2347 1892 0
-22552 -1893 0
2348 -22552 0
1893 -2348 22552 0
22521 -8885 22522 0
-22517 -22521 0
-22520 -22521 0
22516 -22519 22520 0
22519 22518 22517 0
-22518 -1865 0
-22518 1893 0
-22516 -22512 0
-22516 -22515 0
22515 22511 -22514 0
22514 22512 22513 0
-22513 -1864 0
-22513 1892 0
-22511 -22507 0
-22511 -22510 0
22510 22506 -22509 0
22509 22507 22508 0
-22508 1891 0
-22506 -22505 0
22505 22501 -22504 0
22504 22503 22502 0
-22503 -1862 0
-22501 -22500 0
22500 22496 -22499 0
22499 22498 22497 0
-22498 1889 0
-22496 -22492 0
-22496 -22495 0
22495 22491 -22494 0
22494 22492 22493 0
-22493 -1860 0
-22491 -22488 0
-22491 -22490 0
22490 22489 22488 0
-22489 1887 0
-22497 1861 0
-22502 -1890 0
-22507 1863 0
-22512 1864 0
-22517 1865 0
-4062 22486 22487 0
-22482 -22486 0
-22485 -22486 0
22481 -22484 22485 0
22484 22483 22482 0
-22483 1893 0
-22483 -2334 0
-22481 -22477 0
-22481 -22480 0
22480 22476 -22479 0
22477 22479 22478 0
-22478 1892 0
-22478 -2333 0
-22476 -22472 0
-22476 -22475 0
22475 22471 -22474 0
22472 22474 22473 0
-22473 1891 0
-22473 -2332 0
-22471 -22467 0
-22471 -22470 0
22470 22466 -22469 0
22468 22467 22469 0
-22468 1890 0
-22468 -2331 0
-22466 -22462 0
-22466 -22465 0
22465 22461 -22464 0
22463 22462 22464 0
-22463 1889 0
-22463 -2330 0
-22461 -22457 0
-22461 -22460 0
22460 22456 -22459 0
22458 22457 22459 0
-22458 -2329 0
-22456 -22453 0
-22456 -22455 0
22455 22453 22454 0
-22454 1887 0
-22454 -2328 0
1888 22457 -2329 0
-22462 -1889 0
-22462 2330 0
1889 22462 -2330 0
-22467 2331 0
1890 22467 -2331 0
-22472 -1891 0
-22472 2332 0
22472 -2332 1891 0
-1892 -22477 0
-22477 2333 0
22477 -2333 1892 0
-22482 2334 0
1893 -2334 22482 0
22451 -4265 22452 0
-22447 -22451 0
-22450 -22451 0
22446 -22449 22450 0
22449 22447 22448 0
-22448 1879 0
-22448 -2320 0
2320 -1879 22448 0
-22446 -22442 0
-22446 -22445 0
22445 22441 -22444 0
-22444 -22442 0
-22443 -22444 0
22444 22443 22442 0
-22443 1878 0
-22443 -2319 0
-1878 22443 2319 0
-22441 -22437 0
-22441 -22440 0
22436 -22439 22440 0
-22439 -22437 0
22439 22438 22437 0
-22438 1877 0
-22438 -2318 0
-1877 22438 2318 0
-22436 -22432 0
-22436 -22435 0
22431 -22434 22435 0
22434 22432 22433 0
-22433 1876 0
-22433 -2317 0
2317 -1876 22433 0
-22431 -22427 0
-22431 -22430 0
22426 -22429 22430 0
-22429 -22427 0
-22428 -22429 0
22429 22427 22428 0
-22428 1875 0
-22428 -2316 0
2316 -1875 22428 0
-22426 -22422 0
-22426 -22425 0
22421 -22424 22425 0
22424 22422 22423 0
-22423 1874 0
-22423 -2315 0
2315 -1874 22423 0
-22421 -22418 0
-22421 -22420 0
22420 22418 22419 0
-22419 1873 0
-22418 -1873 0
-22418 2314 0
-22422 -1874 0
-22422 2315 0
-2315 22422 1874 0
-22427 -1875 0
-22427 2316 0
-2316 22427 1875 0
-22432 -1876 0
-22432 2317 0
-2317 22432 1876 0
-22437 -1877 0
-22437 2318 0
-2318 22437 1877 0
-22442 -1878 0
-22442 2319 0
-2319 22442 1878 0
-22447 -1879 0
-22447 2320 0
1879 -2320 22447 0
22416 -4236 22417 0
-22412 -22416 0
-22415 -22416 0
22411 -22414 22415 0
-22413 -22414 0
22414 22412 22413 0
-22413 1879 0
-22413 -2306 0
2306 -1879 22413 0
-22411 -22407 0
-22411 -22410 0
22406 22410 -22409 0
-22409 -22407 0
-22408 -22409 0
22409 22408 22407 0
-22408 1878 0
-22408 -2305 0
-1878 22408 2305 0
-22406 -22402 0
-22406 -22405 0
22401 22405 -22404 0
-22403 -22404 0
22404 22403 22402 0
-22403 1877 0
-22403 -2304 0
-1877 22403 2304 0
-22401 -22397 0
-22401 -22400 0
22396 -22399 22400 0
-22398 -22399 0
22399 22397 22398 0
-22398 1876 0
-22398 -2303 0
2303 -1876 22398 0
-22396 -22392 0
-22396 -22395 0
22391 -22394 22395 0
-22393 -22394 0
22394 22392 22393 0
-22393 1875 0
-22393 -2302 0
2302 -1875 22393 0
-22391 -22387 0
-22391 -22390 0
22386 -22389 22390 0
22389 22387 22388 0
-22388 1874 0
-22388 -2301 0
2301 -1874 22388 0
-22386 -22383 0
-22386 -22385 0
22385 22383 22384 0
-22384 1873 0
-2300 -22384 0
-22383 -1873 0
2300 -22383 0
-22387 -1874 0
-22387 2301 0
-2301 22387 1874 0
-22392 -1875 0
-22392 2302 0
-2302 22392 1875 0
-22397 -1876 0
-22397 2303 0
-2303 22397 1876 0
-22402 -1877 0
-22402 2304 0
-2304 22402 1877 0
-22407 -1878 0
-22407 2305 0
-2305 22407 1878 0
-22412 -1879 0
-22412 2306 0
1879 -2306 22412 0
22381 -4207 22382 0
-22377 -22381 0
-22380 -22381 0
22376 -22379 22380 0
-22379 -22377 0
-22378 -22379 0
22379 22377 22378 0
-22378 1879 0
-22378 -2292 0
2292 -1879 22378 0
-22376 -22372 0
-22376 -22375 0
22371 22375 -22374 0
-22374 -22372 0
22374 22373 22372 0
-22373 1878 0
-22373 -2291 0
-1878 22373 2291 0
-22371 -22367 0
-22371 -22370 0
22366 22370 -22369 0
-22369 -22367 0
-22368 -22369 0
22369 22368 22367 0
-22368 1877 0
-22368 -2290 0
-1877 22368 2290 0
-22366 -22362 0
-22366 -22365 0
22361 -22364 22365 0
22364 22362 22363 0
-22363 1876 0
-22363 -2289 0
2289 -1876 22363 0
-22361 -22357 0
-22361 -22360 0
22356 -22359 22360 0
-22359 -22357 0
22359 22357 22358 0
-22358 1875 0
-22358 -2288 0
2288 -1875 22358 0
-22356 -22352 0
-22356 -22355 0
22351 -22354 22355 0
22354 22352 22353 0
-22353 1874 0
-22353 -2287 0
-22351 -22348 0
-22351 -22350 0
22350 22348 22349 0
-22349 1873 0
-22349 -2286 0
-22348 -1873 0
2286 -22348 0
-22352 -1874 0
-22352 2287 0
-22357 -1875 0
-22357 2288 0
-2288 22357 1875 0
-22362 -1876 0
-22362 2289 0
-2289 22362 1876 0
-22367 -1877 0
-22367 2290 0
-2290 22367 1877 0
-22372 -1878 0
-22372 2291 0
-2291 22372 1878 0
-22377 -1879 0
-22377 2292 0
1879 -2292 22377 0
22346 -4178 22347 0
-22342 -22346 0
-22345 -22346 0
22341 -22344 22345 0
-22344 -22342 0
-22343 -22344 0
22344 22342 22343 0
-22343 1879 0
-22343 -2278 0
2278 -1879 22343 0
-22341 -22337 0
-22341 -22340 0
22340 22336 -22339 0
-22339 -22337 0
-22338 -22339 0
22339 22338 22337 0
-22338 1878 0
-22338 -2277 0
-1878 22338 2277 0
-22336 -22332 0
-22336 -22335 0
22331 22335 -22334 0
-22333 -22334 0
22334 22333 22332 0
-22333 1877 0
-22333 -2276 0
-1877 22333 2276 0
-22331 -22327 0
-22331 -22330 0
22326 -22329 22330 0
-22328 -22329 0
22329 22327 22328 0
-22328 1876 0
-22328 -2275 0
2275 -1876 22328 0
-22326 -22322 0
-22326 -22325 0
22321 -22324 22325 0
-22324 -22322 0
22324 22322 22323 0
-22323 1875 0
-22323 -2274 0
2274 -1875 22323 0
-22321 -22317 0
-22321 -22320 0
22316 -22319 22320 0
22319 22318 22317 0
-22318 -2273 0
-22316 -22313 0
-22316 -22315 0
22315 22313 22314 0
-22314 1873 0
-2272 -22314 0
-22313 -1873 0
2272 -22313 0
-22317 -1874 0
-22317 2273 0
-2273 22317 1874 0
-22322 -1875 0
-22322 2274 0
-2274 22322 1875 0
-22327 -1876 0
-22327 2275 0
-2275 22327 1876 0
-22332 -1877 0
-22332 2276 0
-2276 22332 1877 0
-22337 -1878 0
-22337 2277 0
-2277 22337 1878 0
-22342 -1879 0
-22342 2278 0
1879 -2278 22342 0
-22310 -22306 0
-22310 22309 0
-22309 22310 22306 0
-22309 -22307 0
-22309 -22308 0
22309 22307 22308 0
-22308 1879 0
-22308 -1949 0
22308 1949 -1879 0
-22306 -22302 0
-22306 -22305 0
22306 22305 22302 0
-22305 -22301 0
-22305 22304 0
-22304 22305 22301 0
-22304 -22302 0
-22304 -22303 0
22304 22302 22303 0
-22303 1878 0
-22303 -1948 0
-1878 22303 1948 0
-22301 -22297 0
-22301 -22300 0
22301 22300 22297 0
-22300 -22296 0
-22300 22299 0
-22299 22300 22296 0
-22299 -22297 0
-22299 -22298 0
22299 22297 22298 0
-22298 1877 0
-22298 -1947 0
-1877 22298 1947 0
-22296 -22292 0
-22296 -22295 0
22296 22295 22292 0
-22295 -22291 0
-22295 22294 0
-22294 22295 22291 0
-22294 -22292 0
-22294 -22293 0
22294 22293 22292 0
-22293 1876 0
-22293 -1946 0
-1876 22293 1946 0
-22291 -22287 0
-22291 -22290 0
22291 22290 22287 0
-22290 -22286 0
-22290 22289 0
-22289 22290 22286 0
-22289 -22287 0
-22289 -22288 0
22289 22288 22287 0
-22288 1875 0
-22288 -1945 0
-1875 22288 1945 0
-22286 -22282 0
-22286 -22285 0
22285 22286 22282 0
-22285 -22281 0
-22285 22284 0
-22284 22285 22281 0
-22284 -22282 0
-22284 -22283 0
22284 22283 22282 0
-22283 1874 0
-22283 -1944 0
-1874 22283 1944 0
-22281 -22278 0
-22281 -22280 0
22281 22280 22278 0
-22280 -22278 0
-22280 -22279 0
22280 22279 22278 0
-22279 1873 0
-22279 -1943 0
-1873 22279 1943 0
-22278 -1873 0
-22278 1943 0
1873 -1943 22278 0
-22282 -1874 0
-22282 1944 0
1874 -1944 22282 0
-22287 -1875 0
-22287 1945 0
1875 -1945 22287 0
-22292 -1876 0
-22292 1946 0
1876 -1946 22292 0
-22297 -1877 0
-22297 1947 0
-1947 22297 1877 0
-22302 -1878 0
-22302 1948 0
-1948 22302 1878 0
-22307 -1879 0
-22307 1949 0
1879 22307 -1949 0
22276 22277 -10605 0
-22272 -22276 0
-22273 1879 0
-22273 -2019 0
22273 2019 -1879 0
-22270 -22266 0
-22270 22269 0
22270 22266 -22269 0
-22269 -22267 0
-22269 -22268 0
22269 22267 22268 0
-22268 1878 0
-22268 -2018 0
-1878 22268 2018 0
-22266 -22262 0
-22266 -22265 0
22266 22265 22262 0
-22265 -22261 0
-22265 22264 0
22265 22261 -22264 0
-22264 -22262 0
-22264 -22263 0
22264 22262 22263 0
-22263 1877 0
-22263 -2017 0
-1877 22263 2017 0
-22261 -22257 0
-22261 -22260 0
22261 22260 22257 0
-22260 -22256 0
-22260 22259 0
-22259 22260 22256 0
-22259 -22257 0
-22259 -22258 0
22259 22257 22258 0
-22258 1876 0
-22258 -2016 0
-1876 2016 22258 0
-22256 -22252 0
-22256 -22255 0
22255 22256 22252 0
-22255 -22251 0
-22255 22254 0
-22254 22255 22251 0
-22254 -22252 0
-22254 -22253 0
22254 22252 22253 0
1875 -22253 0
-22253 -2015 0
-1875 2015 22253 0
-22251 -22247 0
-22251 -22250 0
22250 22251 22247 0
-22250 -22246 0
-22250 22249 0
-22249 22250 22246 0
-22249 -22247 0
-22249 -22248 0
22249 22247 22248 0
1874 -22248 0
-22248 -2014 0
-1874 2014 22248 0
-22246 -22243 0
-22246 -22245 0
22246 22245 22243 0
-22245 -22243 0
-22245 -22244 0
22245 22243 22244 0
-22244 1873 0
-22244 -2013 0
-1873 2013 22244 0
-1873 -22243 0
-22243 2013 0
1873 22243 -2013 0
-1874 -22247 0
-22247 2014 0
1874 22247 -2014 0
-1875 -22252 0
-22252 2015 0
1875 22252 -2015 0
-1876 -22257 0
-22257 2016 0
1876 22257 -2016 0
-1877 -22262 0
-22262 2017 0
-2017 22262 1877 0
-1878 -22267 0
-22267 2018 0
-2018 22267 1878 0
1879 -2019 22272 0
22241 22242 -10902 0
-22237 -22241 0
-22240 -22241 0
22236 -22239 22240 0
22239 22238 22237 0
-22238 -1865 0
-22238 1879 0
1865 22238 -1879 0
-22232 -22236 0
-22235 -22236 0
22231 -22234 22235 0
-22234 -22232 0
-22234 -22233 0
22234 22233 22232 0
-22233 -1864 0
-22233 1878 0
-1878 22233 1864 0
-22227 -22231 0
-22230 -22231 0
22231 22230 22227 0
-22230 -22226 0
-22230 22229 0
22226 -22229 22230 0
-22229 -22227 0
-22229 -22228 0
22229 22227 22228 0
-22228 -1863 0
-22228 1877 0
-1877 22228 1863 0
-22222 -22226 0
-22225 -22226 0
22226 22225 22222 0
-22225 -22221 0
-22225 22224 0
-22224 22221 22225 0
-22224 -22222 0
-22224 -22223 0
22224 22223 22222 0
-22223 -1862 0
-22223 1876 0
-1876 22223 1862 0
-22221 -22217 0
-22221 -22220 0
22221 22220 22217 0
-22220 -22216 0
-22220 22219 0
22220 -22219 22216 0
-22219 -22217 0
-22219 -22218 0
22219 22218 22217 0
-22218 -1861 0
1875 -22218 0
-1875 22218 1861 0
-22216 -22212 0
-22216 -22215 0
22216 22215 22212 0
-22215 -22211 0
-22215 22214 0
22215 -22214 22211 0
-22214 -22212 0
-22214 -22213 0
22214 22213 22212 0
-22213 -1860 0
1874 -22213 0
-1874 22213 1860 0
-22211 -22208 0
-22211 -22210 0
22211 22210 22208 0
-22210 -22208 0
-22210 -22209 0
22210 22209 22208 0
-22209 -1859 0
-22209 1873 0
-1873 22209 1859 0
-22208 1859 0
-1873 -22208 0
1873 -1859 22208 0
-22212 1860 0
-1874 -22212 0
1874 -1860 22212 0
-22217 1861 0
-1875 -22217 0
1875 -1861 22217 0
-22222 1862 0
-1876 -22222 0
1876 -1862 22222 0
-22227 1863 0
-1877 -22227 0
-1863 22227 1877 0
-22232 1864 0
-1864 1878 22232 0
22206 -4149 22207 0
-22202 -22206 0
-22205 -22206 0
-22204 22201 22205 0
-22204 -22202 0
-22204 -22203 0
22204 22202 22203 0
-22203 1879 0
-22203 -2264 0
2264 -1879 22203 0
-22201 -22197 0
-22201 -22200 0
22200 22201 22197 0
-22200 -22196 0
-22200 22199 0
22200 -22199 22196 0
-22199 -22197 0
-22199 -22198 0
22199 22197 22198 0
-22198 1878 0
-22198 -2263 0
-1878 2263 22198 0
-22196 -22192 0
-22196 -22195 0
22195 22196 22192 0
-22195 -22191 0
-22195 22194 0
22195 -22194 22191 0
-22194 -22192 0
-22194 -22193 0
22194 22192 22193 0
-22193 1877 0
-22193 -2262 0
-1877 2262 22193 0
-22191 -22187 0
-22191 -22190 0
22190 22191 22187 0
-22190 -22186 0
-22190 22189 0
22190 -22189 22186 0
-22189 -22187 0
-22189 -22188 0
22189 22187 22188 0
-22188 1876 0
-22188 -2261 0
-1876 2261 22188 0
-22186 -22182 0
-22186 -22185 0
22186 22185 22182 0
-22185 -22181 0
-22185 22184 0
22185 -22184 22181 0
-22184 -22182 0
-22184 -22183 0
22184 22182 22183 0
-22183 1875 0
-22183 -2260 0
-1875 2260 22183 0
-22181 -22177 0
-22181 -22180 0
22180 22181 22177 0
-22180 -22176 0
-22180 22179 0
22180 -22179 22176 0
-22179 -22177 0
-22179 -22178 0
22179 22177 22178 0
-22178 1874 0
-22178 -2259 0
-1874 2259 22178 0
-22176 -22173 0
-22176 -22175 0
22176 22175 22173 0
-22175 -22173 0
-22175 -22174 0
22175 22173 22174 0
-22174 1873 0
-22174 -2258 0
-1873 2258 22174 0
-22173 -1873 0
-22173 2258 0
1873 22173 -2258 0
-22177 -1874 0
-22177 2259 0
1874 22177 -2259 0
-22182 -1875 0
-22182 2260 0
1875 22182 -2260 0
-22187 -1876 0
-22187 2261 0
1876 22187 -2261 0
-22192 -1877 0
-22192 2262 0
22192 -2262 1877 0
-22197 -1878 0
-22197 2263 0
22197 -2263 1878 0
-22202 -1879 0
-22202 2264 0
1879 -2264 22202 0
22171 -4349 22172 0
-12090 -22171 0
-22170 -22171 0
22169 -12091 22170 0
-22169 -12085 0
-22169 -22168 0
22168 22167 -12086 0
-22167 -12080 0
-22167 -22166 0
22165 -12081 22166 0
-22165 -12075 0
-22165 -22164 0
22163 -12076 22164 0
-22163 -12070 0
-22163 -22162 0
22161 -12071 22162 0
-22161 -12065 0
-22161 -22160 0
22159 -12066 22160 0
-22159 -12061 0
-22159 -12062 0
22157 -4120 22158 0
-22153 -22157 0
-22156 -22157 0
22152 -22155 22156 0
-22155 -22153 0
-22155 -22154 0
22155 22153 22154 0
-22154 1879 0
-22154 -2250 0
2250 -1879 22154 0
-22148 -22152 0
-22151 -22152 0
22147 -22150 22151 0
-22150 -22148 0
22150 22149 22148 0
-22149 1878 0
-22149 -2249 0
-1878 22149 2249 0
-22143 -22147 0
-22146 -22147 0
22142 -22145 22146 0
-22145 -22143 0
22145 22144 22143 0
-22144 1877 0
-22144 -2248 0
-1877 22144 2248 0
-22142 -22138 0
-22142 -22141 0
22141 -22140 22137 0
22140 22139 22138 0
-22139 -2247 0
-22137 -22133 0
22133 -2246 1875 0
-22138 -1876 0
-2247 22138 1876 0
-22143 -1877 0
-22143 2248 0
-2248 22143 1877 0
-22148 -1878 0
-22148 2249 0
-2249 22148 1878 0
-22153 -1879 0
-22153 2250 0
1879 -2250 22153 0
22122 -4321 22123 0
-12055 -22122 0
-22121 -22122 0
22120 -12056 22121 0
-22120 -12050 0
-22120 -22119 0
22118 22119 -12051 0
-22118 -12045 0
-22118 -22117 0
22116 22117 -12046 0
-22116 -12040 0
-22116 -22115 0
22114 22115 -12041 0
-22114 -12035 0
-22114 -22113 0
22112 22113 -12036 0
-22112 -12030 0
-22112 -22111 0
22110 22111 -12031 0
-22110 -12026 0
-22110 -12027 0
22108 -4091 22109 0
-22104 -22108 0
-22107 -22108 0
22103 -22106 22107 0
-22106 -22104 0
-22106 -22105 0
22106 22105 22104 0
-22105 1879 0
-22105 -2236 0
2236 22105 -1879 0
-22103 -22099 0
-22103 -22102 0
22098 -22101 22102 0
-22101 -22099 0
-22100 -22101 0
22101 22100 22099 0
-22100 1878 0
-22100 -2235 0
-1878 22100 2235 0
-22098 -22097 0
22093 -22096 22097 0
22096 22095 22094 0
-22095 1877 0
-22095 -2234 0
-22093 -22092 0
22088 -22091 22092 0
22091 22089 22090 0
-22090 1876 0
-22090 -2233 0
2233 -1876 22090 0
-22088 -22084 0
-22086 -22084 0
22086 22084 22085 0
-22085 1875 0
-22085 -2232 0
-22084 -1875 0
-22084 2232 0
-2232 22084 1875 0
-22089 -1876 0
-22089 2233 0
-22094 -1877 0
-22094 2234 0
-22099 -1878 0
-22099 2235 0
-2235 22099 1878 0
-22104 -1879 0
-22104 2236 0
1879 -2236 22104 0
22073 -4293 22074 0
-12020 -22073 0
-22072 -22073 0
22071 -12021 22072 0
-22071 -12015 0
-22071 -22070 0
22070 22069 -12016 0
-22069 -12010 0
-22069 -22068 0
22067 22068 -12011 0
-22067 -12005 0
-22067 -22066 0
22065 -12006 22066 0
-22065 -12000 0
-22065 -22064 0
22063 -12001 22064 0
-22063 -11995 0
-22063 -22062 0
22061 -11996 22062 0
-22061 -11991 0
-22061 -11992 0
22059 -4062 22060 0
-22055 -22059 0
-22058 -22059 0
22054 -22057 22058 0
22057 22056 22055 0
-22056 1879 0
-22054 -22050 0
-22054 -22053 0
22053 22049 -22052 0
22052 22051 22050 0
-22051 1878 0
-22051 -2221 0
-22049 -22045 0
-22049 -22048 0
22048 22044 -22047 0
22047 22046 22045 0
-22046 -2220 0
-22044 -22043 0
22043 22039 -22042 0
22042 22041 22040 0
-22041 -2219 0
-22039 -22035 0
-2218 22035 1875 0
-22040 -1876 0
-22045 2220 0
-2220 22045 1877 0
-22050 2221 0
-2221 22050 1878 0
-22055 2222 0
1879 -2222 22055 0
-3744 22024 22025 0
-22020 -22024 0
-22023 -22024 0
22019 -22022 22023 0
22022 22021 22020 0
-22021 2684 0
-22021 -2726 0
-22019 -22015 0
-22019 -22018 0
22018 22014 -22017 0
22017 22016 22015 0
-22016 2683 0
-22016 -2725 0
-22014 -22010 0
-22014 -22013 0
22013 22009 -22012 0
22012 22011 22010 0
-22011 2682 0
-22011 -2724 0
-22009 -22005 0
-22009 -22008 0
22008 22004 -22007 0
22007 22005 22006 0
-22006 2681 0
-22004 -22003 0
22003 21999 -22002 0
22002 22001 22000 0
-22001 2680 0
-21999 -21995 0
-21999 -21998 0
21998 21994 -21997 0
21997 21995 21996 0
-21996 2679 0
-21994 -21991 0
-21994 -21993 0
21993 21991 21992 0
-21992 2678 0
-22000 2722 0
2681 22005 -2723 0
-22010 2724 0
2682 -2724 22010 0
-2683 -22015 0
-22015 2725 0
2683 -2725 22015 0
2684 -2726 22020 0
-3744 21989 21990 0
-21985 -21989 0
-21988 -21989 0
21984 -21987 21988 0
21986 21987 21985 0
-21986 2670 0
-21984 -21980 0
-21984 -21983 0
21983 21979 -21982 0
21981 21982 21980 0
-21981 2669 0
-21979 -21975 0
-21979 -21978 0
21978 21974 -21977 0
21977 21975 21976 0
-21976 -2710 0
-21974 -21970 0
-21974 -21973 0
21973 21969 -21972 0
21971 21972 21970 0
-21971 2667 0
-21969 -21965 0
-21969 -21968 0
21968 21964 -21967 0
21966 21967 21965 0
-21966 2666 0
-21964 -21960 0
-21964 -21963 0
21963 21959 -21962 0
21960 21962 21961 0
-21961 -2707 0
-21959 -21956 0
-21959 -21958 0
21958 21956 21957 0
-21957 2664 0
2666 21965 -2708 0
2668 21975 -2710 0
-21980 2711 0
-3744 21954 21955 0
-21950 -21954 0
-21953 -21954 0
-21952 21949 21953 0
21952 21951 21950 0
-21951 2642 0
-21949 -21945 0
-21949 -21948 0
21948 21944 -21947 0
21947 21946 21945 0
-21946 2641 0
-21944 -21940 0
-21944 -21943 0
21939 -21942 21943 0
21942 21941 21940 0
-21941 2640 0
-21941 -10757 0
-21939 -21935 0
-21939 -21938 0
21934 -21937 21938 0
21937 21936 21935 0
-21936 2639 0
-21934 -21930 0
-21934 -21933 0
21929 -21932 21933 0
21932 21931 21930 0
-21931 2638 0
-21929 -21925 0
-21929 -21928 0
21924 -21927 21928 0
21926 21927 21925 0
-21926 2637 0
-21924 -21921 0
-21924 -21923 0
21923 21922 21921 0
-21922 2636 0
-21921 10753 0
2636 -10753 21921 0
-21930 10755 0
2638 -10755 21930 0
-21935 10756 0
2639 -10756 21935 0
-21940 -2640 0
-21940 10757 0
2640 -10757 21940 0
-21945 10758 0
2641 -10758 21945 0
-21950 10759 0
2642 -10759 21950 0
-6663 20272 21920 0
-3599 21918 21919 0
-21914 -21918 0
-21917 -21918 0
21913 -21916 21917 0
21916 21915 21914 0
-21915 2614 0
-21915 -2726 0
-21913 -21909 0
-21913 -21912 0
21912 21908 -21911 0
21911 21910 21909 0
-21910 2613 0
-21910 -2725 0
-21908 -21904 0
-21908 -21907 0
21907 21903 -21906 0
21906 21905 21904 0
-21905 2612 0
-21905 -2724 0
-21903 -21899 0
-21903 -21902 0
21902 21898 -21901 0
21901 21899 21900 0
-21900 2611 0
-21900 -2723 0
-21898 -21894 0
-21898 -21897 0
21897 21893 -21896 0
21896 21894 21895 0
-21895 2610 0
-21893 -21889 0
-21893 -21892 0
21892 21888 -21891 0
21891 21889 21890 0
-21890 2609 0
-21888 -21885 0
-21888 -21887 0
21887 21885 21886 0
-21886 2608 0
-21886 -2720 0
2609 21889 -2721 0
2610 21894 -2722 0
2611 21899 -2723 0
-21904 -2612 0
-21904 2724 0
2612 -2724 21904 0
-21909 2725 0
2613 -2725 21909 0
-21914 -2614 0
-21914 2726 0
2614 -2726 21914 0
-3599 21848 21849 0
-21844 -21848 0
-21847 -21848 0
21843 -21846 21847 0
21845 21846 21844 0
-21845 2600 0
-21843 -21839 0
-21843 -21842 0
21842 21838 -21841 0
21840 21841 21839 0
-21840 2599 0
-21838 -21834 0
-21838 -21837 0
21837 21833 -21836 0
21836 21834 21835 0
-21835 2598 0
-21835 -2710 0
-21833 -21829 0
21829 2597 -2709 0
2598 21834 -2710 0
-3599 21813 21814 0
-21809 -21813 0
-21812 -21813 0
21808 -21811 21812 0
21810 21811 21809 0
-21810 2586 0
-21808 -21804 0
-21808 -21807 0
21807 21803 -21806 0
21805 21806 21804 0
-21805 2585 0
-21803 -21799 0
-21803 -21802 0
21802 21798 -21801 0
21801 21799 21800 0
-21800 2584 0
-21800 -2696 0
-21798 -21794 0
-21798 -21797 0
21797 21793 -21796 0
21796 21794 21795 0
-21795 2583 0
-21793 -21792 0
21792 21788 -21791 0
21791 21790 21789 0
-21790 2582 0
-21788 -21784 0
-21788 -21787 0
21787 21783 -21786 0
21785 21786 21784 0
-21785 2581 0
-21783 -21780 0
-21783 -21782 0
21782 21780 21781 0
-21781 -2692 0
-21789 2694 0
2583 21794 -2695 0
-3599 21778 21779 0
-21774 -21778 0
-21777 -21778 0
21773 -21776 21777 0
-21774 -21776 0
21776 21775 21774 0
-21775 2572 0
-21773 -21769 0
-21773 -21772 0
21768 -21771 21772 0
21771 21770 21769 0
-21770 2571 0
-21768 -21764 0
-21768 -21767 0
21763 -21766 21767 0
21766 21764 21765 0
-21765 -10757 0
-21763 -21762 0
21758 -21761 21762 0
21761 21760 21759 0
-21760 2569 0
-21758 -21754 0
21754 2568 -10755 0
-21759 10756 0
-21764 -2570 0
21764 2570 -10757 0
-21769 10758 0
2571 -10758 21769 0
-21774 10759 0
2572 -10759 21774 0
-3860 21743 21744 0
-21743 -21742 0
21742 21741 -7962 0
-21741 -21740 0
21740 21739 -7959 0
-21739 -7954 0
-21739 -21738 0
21738 21737 -7956 0
-21737 -21736 0
21736 21735 -7953 0
-21735 -21734 0
21734 21733 -7950 0
-21733 -21732 0
21732 21731 -7947 0
-21731 -7942 0
-21731 -7944 0
19993 -6663 21730 0
-3570 21728 21729 0
-21724 -21728 0
-21727 -21728 0
21723 -21726 21727 0
21726 21725 21724 0
-21725 2614 0
-21725 -2684 0
-21723 -21719 0
-21723 -21722 0
21722 21718 -21721 0
21720 21719 21721 0
-21720 2613 0
-21720 -2683 0
-21718 -21714 0
-21718 -21717 0
21717 21713 -21716 0
21715 21714 21716 0
-21715 2612 0
-21715 -2682 0
-21713 -21709 0
-21713 -21712 0
21712 21708 -21711 0
21710 21709 21711 0
-21710 2611 0
-21710 -2681 0
-21708 -21704 0
-21708 -21707 0
21707 21703 -21706 0
21705 21704 21706 0
-21705 2610 0
-21705 -2680 0
-21703 -21699 0
-21703 -21702 0
21702 21698 -21701 0
21700 21699 21701 0
-21700 2609 0
-21700 -2679 0
-21698 -21695 0
-21698 -21697 0
21697 21695 21696 0
-21696 -2678 0
-2679 2609 21699 0
2680 -21704 0
-2680 2610 21704 0
2681 -21709 0
-2681 2611 21709 0
-21714 2682 0
2612 21714 -2682 0
-2613 -21719 0
-21719 2683 0
-2683 21719 2613 0
-21724 -2614 0
2684 -21724 0
2614 -2684 21724 0
-3831 21693 21694 0
-7932 -21693 0
-21693 -21692 0
21692 21691 -7934 0
-21691 -7929 0
-21691 -21690 0
21690 21689 -7931 0
-21689 -7926 0
-21689 -21688 0
21688 21687 -7928 0
-21687 -7923 0
-21687 -21686 0
21686 21685 -7925 0
-21685 -7920 0
-21685 -21684 0
21684 21683 -7922 0
-21683 -21682 0
21682 21681 -7919 0
-21681 -7914 0
-21681 -7916 0
-6634 19909 21680 0
-3570 21678 21679 0
-21674 -21678 0
-21677 -21678 0
21673 -21676 21677 0
21675 21676 21674 0
-21675 2600 0
-21673 -21669 0
-21673 -21672 0
21672 21668 -21671 0
21670 21669 21671 0
-21670 2599 0
-21670 -2669 0
-21668 -21664 0
-21668 -21667 0
21667 21663 -21666 0
21665 21664 21666 0
-21665 2598 0
-21665 -2668 0
-21663 -21659 0
21659 -2667 2597 0
-21664 -2598 0
2598 21664 -2668 0
-2669 21669 2599 0
2600 -2670 21674 0
-3802 21608 21609 0
-21608 -21607 0
21607 21606 -7906 0
-21606 -7901 0
-21606 -21605 0
21605 21604 -7903 0
-21604 -7898 0
-21604 -21603 0
21603 21602 -7900 0
-21602 -21601 0
21601 21600 -7897 0
-21600 -7892 0
-21600 -21599 0
21599 21598 -7894 0
-21598 -7889 0
-21598 -21597 0
21597 21596 -7891 0
-21596 -7886 0
-21596 -7888 0
-3570 21594 21595 0
-21590 -21594 0
-21593 -21594 0
21589 -21592 21593 0
21591 21592 21590 0
-21591 2586 0
-21589 -21585 0
-21589 -21588 0
21588 21584 -21587 0
21586 21585 21587 0
-21586 2585 0
-21586 -2655 0
-21584 -21580 0
-21584 -21583 0
21583 21579 -21582 0
21581 21580 21582 0
-21581 2584 0
-21581 -2654 0
-21579 -21575 0
21575 -2653 2583 0
-2654 2584 21580 0
-21585 2655 0
-2655 21585 2585 0
2656 -21590 0
2586 -2656 21590 0
-3773 21524 21525 0
-7876 -21524 0
-21524 -21523 0
21523 21522 -7878 0
-21522 -7873 0
-21522 -21521 0
21521 21520 -7875 0
-21520 -7870 0
-21520 -21519 0
21519 21518 -7872 0
-21518 -7867 0
-21518 -21517 0
21517 21516 -7869 0
-21516 -7864 0
-21516 -21515 0
21515 21514 -7866 0
-21514 -21513 0
21513 21512 -7863 0
-21512 -7858 0
-21512 -7860 0
-3570 21510 21511 0
-21506 -21510 0
-21509 -21510 0
21505 -21508 21509 0
-21506 -21508 0
21508 21507 21506 0
-21507 2572 0
-21507 -2642 0
-21505 -21501 0
-21505 -21504 0
21500 -21503 21504 0
-21502 -21503 0
21502 21501 21503 0
-21502 2571 0
-21502 -2641 0
21502 -2571 2641 0
-21500 -21496 0
-21500 -21499 0
21495 -21498 21499 0
21497 21496 21498 0
-21497 2570 0
-21497 -2640 0
-21495 -21491 0
-21495 -21494 0
21490 -21493 21494 0
-21491 -21493 0
21492 21491 21493 0
-21492 2569 0
-21492 -2639 0
-21490 -21486 0
-21490 -21489 0
21485 -21488 21489 0
-21486 -21488 0
21487 21486 21488 0
-21487 2568 0
-21487 -2638 0
-21485 -21481 0
-21485 -21484 0
21480 -21483 21484 0
21482 21481 21483 0
-21482 2567 0
-21482 -2637 0
-21480 -21477 0
-21480 -21479 0
21478 21477 21479 0
-21478 2566 0
-21478 -2636 0
-21481 -2567 0
-2637 21481 2567 0
-21486 -2568 0
2638 -21486 0
-2638 21486 2568 0
-21491 -2569 0
2639 -21491 0
-2639 21491 2569 0
-21496 -2570 0
2640 -21496 0
21496 2570 -2640 0
-21501 -2571 0
-21501 2641 0
-2641 21501 2571 0
-21506 -2572 0
2642 -21506 0
2572 -2642 21506 0
15754 -7856 21476 0
-10547 21474 21475 0
-21474 -21440 0
-21474 -21473 0
21472 -21441 21473 0
-21472 -21437 0
-21472 -21471 0
21470 -21438 21471 0
-21470 -21434 0
-21470 -21469 0
21468 -21435 21469 0
-21468 -21431 0
-21468 -21467 0
21467 -21432 21466 0
-21466 -21428 0
-21429 -21428 0
21427 21428 21429 0
-21428 2540 0
21428 1805 -2540 0
-21427 1805 0
-21427 -2540 0
21430 21431 21432 0
-21431 -1806 0
-21431 2541 0
21431 1806 -2541 0
-21430 1806 0
-21430 -2541 0
-21435 -21434 0
21433 21434 21435 0
-21434 -1807 0
-21434 2542 0
21434 1807 -2542 0
-21433 1807 0
-21433 -2542 0
21436 21437 21438 0
-21437 -1808 0
-21436 1808 0
-21436 -2543 0
21441 21440 21439 0
-21440 -1809 0
-21440 2544 0
21440 1809 -2544 0
-21439 1809 0
-21439 -2544 0
-3744 21419 21420 0
-7848 -21419 0
-21419 -21418 0
21418 21417 -7850 0
-7845 -21417 0
-21417 -21416 0
21416 21415 -7847 0
-7842 -21415 0
-21415 -21414 0
21414 21413 -7844 0
-21413 -7839 0
-21413 -21412 0
21412 21411 -7841 0
-7836 -21411 0
-21411 -21410 0
21410 21409 -7838 0
-21409 -7833 0
-21409 -21408 0
21408 21407 -7835 0
-21407 -7830 0
-21407 -7832 0
21013 -6547 21406 0
-3570 21390 21391 0
-11619 -21390 0
-21389 -21390 0
-11620 21388 21389 0
-21388 -11616 0
-21388 -21387 0
21387 21386 -11617 0
-21386 -11613 0
-21386 -21385 0
21384 -11614 21385 0
-21384 -11610 0
-21384 -21383 0
21382 -11611 21383 0
-21382 -11607 0
-21382 -21381 0
21380 -11608 21381 0
-21380 -11604 0
-21380 -21379 0
21378 -11605 21379 0
-21378 -11601 0
-21378 -11602 0
-3425 21376 21377 0
-21372 -21376 0
-21375 -21376 0
21371 -21374 21375 0
21374 21373 21372 0
-21373 2530 0
-21373 -2726 0
-21371 -21367 0
-21371 -21370 0
21370 21366 -21369 0
21369 21368 21367 0
-21368 2529 0
-21368 -2725 0
-21366 -21362 0
-21366 -21365 0
21365 21361 -21364 0
21362 21364 21363 0
-21363 2528 0
-21363 -2724 0
-21361 -21357 0
-21361 -21360 0
21360 21356 -21359 0
21359 21357 21358 0
-21358 2527 0
-21356 -21352 0
-21356 -21355 0
21355 21351 -21354 0
21354 21352 21353 0
-21353 2526 0
-21351 -21347 0
-21351 -21350 0
21350 21346 -21349 0
21349 21347 21348 0
-21348 2525 0
-21348 -2721 0
-21346 -21343 0
-21346 -21345 0
21345 21343 21344 0
-21344 2524 0
-21344 -2720 0
2525 21347 -2721 0
2527 21357 -2723 0
2528 21362 -2724 0
-21367 -2529 0
-21367 2725 0
2529 -2725 21367 0
2530 -2726 21372 0
-3425 21340 21341 0
-21336 -21340 0
2488 -10759 21336 0
-3860 21305 21306 0
-9886 -21305 0
-21305 -21304 0
21304 21303 -9888 0
-21303 -9883 0
-21303 -21302 0
21302 21301 -9885 0
-21301 -9880 0
-21301 -21300 0
21300 21299 -9882 0
-21299 -21298 0
21298 21297 -9879 0
-21297 -21296 0
21296 21295 -9876 0
-21295 -21294 0
21294 21293 -9873 0
-21293 -9868 0
-21293 -9870 0
-8572 19993 21292 0
-3396 21290 21291 0
-21286 -21290 0
-21289 -21290 0
-21288 21285 21289 0
-21288 -21286 0
21288 21287 21286 0
-21287 2530 0
-21287 -2684 0
-21285 -21281 0
-21285 -21284 0
21280 -21283 21284 0
-21283 -21281 0
21282 21283 21281 0
-21282 2529 0
-21282 -2683 0
-21280 -21276 0
-21280 -21279 0
21275 -21278 21279 0
-21278 -21276 0
21276 21277 21278 0
-21277 2528 0
-21277 -2682 0
-21275 -21271 0
-21275 -21274 0
21270 -21273 21274 0
-21273 -21271 0
21271 21272 21273 0
-21272 2527 0
-21272 -2681 0
-21270 -21266 0
-21270 -21269 0
21265 -21268 21269 0
21266 21267 21268 0
-21267 2526 0
-21265 -21261 0
-21265 -21264 0
21260 -21263 21264 0
21262 21261 21263 0
-21262 2525 0
-21260 -21257 0
-21260 -21259 0
21258 21257 21259 0
-21258 2524 0
2680 -21266 0
21266 -2680 2526 0
-21271 -2527 0
2681 -21271 0
21271 -2681 2527 0
-21276 -2528 0
-21276 2682 0
21276 2528 -2682 0
-2529 -21281 0
-21281 2683 0
21281 -2683 2529 0
-21286 -2530 0
2684 -21286 0
2530 -2684 21286 0
-3831 21255 21256 0
-9858 -21255 0
-21254 -21255 0
21253 -9860 21254 0
-21253 -9855 0
-21253 -21252 0
21252 21251 -9857 0
-21251 -9852 0
-21251 -21250 0
21250 21249 -9854 0
-21249 -9849 0
-21249 -21248 0
21248 21247 -9851 0
-21247 -9846 0
-21247 -21246 0
21246 21245 -9848 0
-21245 -21244 0
21244 21243 -9845 0
-21243 -9842 0
-3396 21241 21242 0
-21237 -21241 0
-21240 -21241 0
21236 -21239 21240 0
21238 21239 21237 0
-21238 2516 0
-21236 -21232 0
-21236 -21235 0
21235 21231 -21234 0
21233 21232 21234 0
-21233 2515 0
-21233 -2669 0
-21231 -21227 0
-21231 -21230 0
21230 21226 -21229 0
21228 21227 21229 0
-21228 2514 0
-21228 -2668 0
-21226 -21222 0
21222 -2667 2513 0
-21227 -2514 0
-2669 21232 2515 0
2516 -2670 21237 0
-3802 21206 21207 0
-9830 -21206 0
-21205 -21206 0
21204 -9832 21205 0
-21204 -9827 0
-21204 -21203 0
21203 21202 -9829 0
-21202 -9824 0
-21202 -21201 0
21201 21200 -9826 0
-21200 -9821 0
-21200 -21199 0
21199 21198 -9823 0
-21198 -9818 0
-21198 -21197 0
21197 21196 -9820 0
-21196 -9815 0
-21196 -21195 0
21195 21194 -9817 0
-21194 -9814 0
-8514 19748 21193 0
-3396 21191 21192 0
-21187 -21191 0
-21190 -21191 0
21186 -21189 21190 0
21189 21188 21187 0
-21188 2502 0
-21188 -2656 0
-21186 -21182 0
-21186 -21185 0
21185 21181 -21184 0
21183 21182 21184 0
-21183 2501 0
-21183 -2655 0
-21181 -21177 0
-21181 -21180 0
21180 21176 -21179 0
21178 21177 21179 0
-21178 2500 0
-21178 -2654 0
-21176 -21172 0
-21176 -21175 0
21175 21171 -21174 0
21173 21172 21174 0
-21173 2499 0
-21171 -21167 0
-21171 -21170 0
21170 21166 -21169 0
21168 21167 21169 0
-21168 2498 0
-21166 -21162 0
-21166 -21165 0
21165 21161 -21164 0
21163 21162 21164 0
-21163 2497 0
-21161 -21158 0
-21161 -21160 0
21160 21158 21159 0
-21159 2496 0
-21177 -2500 0
-2655 21182 2501 0
2656 -21187 0
2502 -2656 21187 0
-19826 -21156 0
21155 -21156 0
21154 -21155 0
-19875 -21154 0
21153 -21154 0
-19910 -21153 0
21152 -21153 0
-19924 -21152 0
21151 -21152 0
-19959 -21151 0
21150 -21151 0
-19994 -21150 0
21149 -21150 0
-20008 -21149 0
21148 -21149 0
-20043 -21148 0
21147 -21148 0
21146 -21147 0
-20098 -21146 0
21145 -21146 0
-20133 -21145 0
21144 -21145 0
21143 -21144 0
-20175 -21143 0
21142 -21143 0
-20210 -21142 0
21141 -21142 0
21140 -21141 0
-20273 -21140 0
21139 -21140 0
21138 -21139 0
-20322 -21138 0
21137 -21138 0
-20336 -21137 0
21136 -21137 0
-20371 -21136 0
21135 -21136 0
21134 -21135 0
-20399 -21134 0
21133 -21134 0
-20413 -21133 0
21132 -21133 0
-20427 -21132 0
21131 -21132 0
-20462 -21131 0
21130 -21131 0
-20476 -21130 0
21129 -21130 0
-20490 -21129 0
21128 -21129 0
-20525 -21128 0
21127 -21128 0
21126 -21127 0
-20546 -21126 0
21125 -21126 0
-20581 -21125 0
21124 -21125 0
-20595 -21124 0
21123 -21124 0
-20609 -21123 0
21122 -21123 0
-20623 -21122 0
21121 -21122 0
21120 -21121 0
-20625 -21120 0
21119 -21120 0
-20660 -21119 0
21118 -21119 0
-20674 -21118 0
21117 -21118 0
-20688 -21117 0
21116 -21117 0
21115 -21116 0
-20758 -21115 0
21114 -21115 0
-20772 -21114 0
21113 -21114 0
-20773 -21113 0
21112 -21113 0
-20787 -21112 0
21111 -21112 0
-20822 -21111 0
21110 -21111 0
-20857 -21110 0
21109 -21110 0
-20871 -21109 0
21108 -21109 0
21107 -21108 0
-20886 -21107 0
21106 -21107 0
21105 -21106 0
-20956 -21105 0
21104 -21105 0
-20970 -21104 0
21103 -21104 0
21102 -21103 0
-20985 -21102 0
21101 -21102 0
-20999 -21101 0
21100 -21101 0
21099 -21100 0
-21014 -21099 0
21098 -21099 0
-21028 -21098 0
21097 -21098 0
-21029 -21097 0
21096 -21097 0
-21043 -21096 0
21095 -21096 0
-21044 -21095 0
21094 -21095 0
-21079 -21094 0
-21093 -21094 0
-3773 21092 21093 0
-9802 -21092 0
-21091 -21092 0
21090 -9804 21091 0
-21090 -9799 0
-21090 -21089 0
21089 21088 -9801 0
-21088 -9796 0
-21088 -21087 0
21087 21086 -9798 0
-21086 -9793 0
-21086 -21085 0
21085 21084 -9795 0
-21084 -9790 0
-21084 -21083 0
21083 21082 -9792 0
-21082 -9787 0
-21082 -21081 0
21081 21080 -9789 0
-21080 -9784 0
-21080 -9786 0
-3396 21078 21079 0
-21074 -21078 0
-21077 -21078 0
21073 -21076 21077 0
-21074 -21076 0
-21075 -21076 0
21076 21075 21074 0
-21075 2488 0
-21075 -2642 0
2642 21075 -2488 0
-21073 -21069 0
-21073 -21072 0
21068 -21071 21072 0
21070 21071 21069 0
-21070 2487 0
-21070 -2641 0
-21068 -21064 0
-21068 -21067 0
21063 -21066 21067 0
21064 21066 21065 0
-21065 2486 0
-21065 -2640 0
-21063 -21059 0
-21063 -21062 0
21058 -21061 21062 0
-21059 -21061 0
21060 21061 21059 0
-21060 2485 0
-21060 -2639 0
-21058 -21054 0
-21058 -21057 0
21053 -21056 21057 0
-21054 -21056 0
21055 21054 21056 0
-21055 2484 0
-21053 -21049 0
-21053 -21052 0
21048 -21051 21052 0
-21049 -21051 0
21049 21051 21050 0
-21050 2483 0
-21050 -2637 0
-21048 -21045 0
-21048 -21047 0
21046 21045 21047 0
-21046 2482 0
-21046 -2636 0
-21049 -2483 0
21049 -2637 2483 0
-2638 21054 2484 0
-21059 -2485 0
2639 -21059 0
-2639 21059 2485 0
-21064 -2486 0
2640 -21064 0
21064 2486 -2640 0
-21069 -2487 0
-21069 2641 0
-2641 21069 2487 0
-21074 -2488 0
2642 -21074 0
2488 -2642 21074 0
15754 -9782 21044 0
-10518 21042 21043 0
-21042 -21041 0
21040 21041 -20522 0
-21040 -20516 0
-21040 -21039 0
21039 21038 -20517 0
-21038 -20511 0
-20531 20622 21029 0
-3744 21027 21028 0
-9774 -21027 0
-21027 -21026 0
21026 21025 -9776 0
-21025 -9771 0
-21025 -21024 0
21024 21023 -9773 0
-21023 -9768 0
-21023 -21022 0
21022 21021 -9770 0
-21021 -9765 0
-21021 -21020 0
21020 21019 -9767 0
-21019 -9762 0
-21019 -21018 0
21018 21017 -9764 0
-21017 -21016 0
21016 21015 -9761 0
-21015 -9756 0
-21015 -9758 0
-8456 21013 21014 0
-17623 -21013 0
-21012 -21013 0
-17624 21011 21012 0
-21011 -17620 0
20998 -3396 20999 0
-11475 -20998 0
-20997 -20998 0
20996 -11476 20997 0
-20996 -11472 0
-20996 -20995 0
20995 20994 -11473 0
-20994 -11469 0
-20994 -20993 0
20992 -11470 20993 0
-20992 -11466 0
-20992 -20991 0
20990 -11467 20991 0
-20990 -11463 0
-3715 20984 20985 0
-9746 -20984 0
-20983 -20984 0
20982 20983 -9748 0
-20982 -9743 0
-20982 -20981 0
20980 20981 -9745 0
-20980 -9740 0
-20980 -20979 0
20978 20979 -9742 0
-20978 -9737 0
-20978 -20977 0
20976 20977 -9739 0
-20976 -9734 0
20969 -6663 20970 0
-8564 -20969 0
-20968 -20969 0
20967 -8566 20968 0
-20967 -8561 0
-20967 -20966 0
20966 20965 -8563 0
-20965 -20964 0
20963 20964 -8560 0
-20963 -8555 0
-20963 -20962 0
20961 20962 -8557 0
-20961 -8552 0
-20961 -20960 0
20959 20960 -8554 0
-20959 -8549 0
-3304 20955 20956 0
-20951 -20955 0
-20954 -20955 0
-20953 20950 20954 0
-20953 -20951 0
20953 20952 20951 0
-20952 2530 0
-20952 -2614 0
-20950 -20946 0
-20950 -20949 0
20945 -20948 20949 0
-20948 -20946 0
20948 20947 20946 0
-20947 2529 0
-20947 -2613 0
-20945 -20941 0
-20945 -20944 0
20940 -20943 20944 0
20941 20942 20943 0
-20942 2528 0
-20942 -2612 0
-20940 -20936 0
-20940 -20939 0
20935 -20938 20939 0
20936 20938 20937 0
-20937 2527 0
-20937 -2611 0
-20935 -20931 0
-20935 -20934 0
20930 -20933 20934 0
-20933 -20931 0
20931 20932 20933 0
-20932 2526 0
-20932 -2610 0
-20930 -20926 0
-20930 -20929 0
20925 -20928 20929 0
20926 20927 20928 0
-20927 2525 0
-20925 -20922 0
-20925 -20924 0
20922 20923 20924 0
-20923 2524 0
-20923 -2608 0
2609 -20926 0
20926 2525 -2609 0
-20931 -2526 0
2610 -20931 0
20931 2526 -2610 0
-20936 -2527 0
2611 -20936 0
20936 2527 -2611 0
-20941 -2528 0
-20941 2612 0
20941 2528 -2612 0
-20946 2613 0
20946 -2613 2529 0
-20951 -2530 0
2614 -20951 0
2530 -2614 20951 0
-20917 2516 0
-3686 20885 20886 0
-9718 -20885 0
-20884 -20885 0
20883 20884 -9720 0
-20883 -9715 0
-20882 -20883 0
20881 20882 -9717 0
-9712 -20881 0
20870 -6634 20871 0
-8535 -20870 0
-20869 -20870 0
20868 -8537 20869 0
-20868 -8532 0
-20868 -20867 0
20867 20866 -8534 0
-20866 -20865 0
20864 20865 -8531 0
-20864 -8526 0
-20864 -20863 0
20862 20863 -8528 0
-20862 -8523 0
-20862 -20861 0
20860 20861 -8525 0
-20860 -8520 0
-20860 -20859 0
20858 20859 -8522 0
-20858 -8517 0
-20858 -8519 0
-3304 20856 20857 0
-20852 -20856 0
-20855 -20856 0
20851 -20854 20855 0
20854 20853 20852 0
-20853 2516 0
-20853 -2600 0
-20851 -20847 0
-20851 -20850 0
20850 20846 -20849 0
20848 20847 20849 0
-20848 2515 0
-20848 -2599 0
-20846 -20842 0
-20846 -20845 0
20845 20841 -20844 0
20843 20842 20844 0
-20843 2514 0
-20843 -2598 0
-20841 -20837 0
-20841 -20840 0
20840 20836 -20839 0
20838 20837 20839 0
-20838 2513 0
-20836 -20832 0
20832 2512 -2596 0
2597 -20837 0
2513 -2597 20837 0
2514 20842 -2598 0
-20847 -2515 0
-20847 2599 0
-2599 20847 2515 0
2600 -20852 0
2516 -2600 20852 0
-6491 20821 20822 0
-20817 -20821 0
-20818 2502 0
2502 -1851 20817 0
-3657 20786 20787 0
-9690 -20786 0
-20785 -20786 0
20784 20785 -9692 0
-20784 -9687 0
-20783 -20784 0
20782 20783 -9689 0
-9684 -20782 0
-20781 -20782 0
20780 20781 -9686 0
-20780 -9681 0
-20779 -20780 0
20778 20779 -9683 0
-9678 -20778 0
-20777 -20778 0
20776 20777 -9680 0
-20775 -20776 0
20774 -9677 20775 0
-20774 -9672 0
-20774 -9674 0
19346 -8514 20773 0
-6605 20771 20772 0
-8506 -20771 0
-20770 -20771 0
20769 20770 -8508 0
-20769 -8503 0
-20769 -20768 0
20768 20767 -8505 0
-20767 -8500 0
-20767 -20766 0
20765 20766 -8502 0
-20765 -8497 0
-20765 -20764 0
20763 20764 -8499 0
-20763 -8494 0
-20763 -20762 0
20761 20762 -8496 0
-20761 -8491 0
-20761 -20760 0
20759 -8493 20760 0
-20759 -8488 0
-20759 -8490 0
-3304 20757 20758 0
-20753 -20757 0
-20756 -20757 0
-20755 20752 20756 0
20755 20754 20753 0
-20754 2502 0
-20754 -2586 0
-20752 -20748 0
-20752 -20751 0
20747 -20750 20751 0
-20750 -20748 0
-20749 -20750 0
20750 20749 20748 0
-20749 2501 0
-20749 -2585 0
20749 -2501 2585 0
-20747 -20743 0
-20747 -20746 0
20742 -20745 20746 0
-20745 -20743 0
20745 20743 20744 0
-20744 2500 0
-20744 -2584 0
-20742 -20738 0
-20742 -20741 0
20737 -20740 20741 0
20739 20740 20738 0
-20739 2499 0
-20739 -2583 0
-20737 -20733 0
-20737 -20736 0
20732 -20735 20736 0
20733 20734 20735 0
-20734 2498 0
-20732 -20728 0
-20732 -20731 0
20727 -20730 20731 0
20729 20728 20730 0
-20729 2497 0
-20727 -20724 0
-20727 -20726 0
20725 20724 20726 0
-20725 -2580 0
20728 2497 -2581 0
2582 -20733 0
20733 2498 -2582 0
-2499 -20738 0
2583 -20738 0
20738 2499 -2583 0
-20743 -2500 0
-20743 2584 0
20743 2500 -2584 0
-20748 2585 0
20748 -2585 2501 0
-20753 -2502 0
2586 -20753 0
2502 -2586 20753 0
-3628 20687 20688 0
-9662 -20687 0
-20687 -20686 0
20686 20685 -9664 0
-20685 -9659 0
-20685 -20684 0
20684 20683 -9661 0
-20683 -9656 0
-20683 -20682 0
20682 20681 -9658 0
-20681 -9653 0
-20681 -20680 0
20680 20679 -9655 0
-20679 -9650 0
-20679 -20678 0
20678 20677 -9652 0
-20677 -9647 0
-20677 -20676 0
20676 20675 -9649 0
-20675 -9644 0
-20675 -9646 0
-6576 20673 20674 0
-8477 -20673 0
-20672 -20673 0
20671 -8479 20672 0
-20671 -8474 0
-20671 -20670 0
20670 20669 -8476 0
-20669 -8471 0
-20669 -20668 0
20667 20668 -8473 0
-20667 -8468 0
-20667 -20666 0
20665 20666 -8470 0
-20665 -8465 0
-20665 -20664 0
20663 20664 -8467 0
-20663 -8462 0
-20663 -20662 0
20661 -8464 20662 0
-20661 -8459 0
-20661 -8461 0
-3304 20659 20660 0
-20655 -20659 0
-20658 -20659 0
-20657 20654 20658 0
-20657 -20655 0
-20656 -20657 0
20657 20656 20655 0
-20656 2488 0
-20656 -2572 0
20656 2572 -2488 0
-20654 -20650 0
-20654 -20653 0
20653 20649 -20652 0
-20652 -20650 0
20651 20652 20650 0
-20651 2487 0
-20651 -2571 0
-20649 -20645 0
-20649 -20648 0
20644 -20647 20648 0
-20647 -20645 0
-20646 -20647 0
20647 20646 20645 0
-20646 2486 0
-20646 -2570 0
20646 2570 -2486 0
-20644 -20640 0
-20644 -20643 0
20639 -20642 20643 0
-20642 -20640 0
20641 20642 20640 0
-20641 2485 0
-20641 -2569 0
-20639 -20635 0
-20639 -20638 0
20634 -20637 20638 0
20635 20636 20637 0
-20636 2484 0
-20636 -2568 0
-20634 -20630 0
-20634 -20633 0
20629 -20632 20633 0
-20632 -20630 0
20630 20632 20631 0
-20631 2483 0
-20631 -2567 0
-20629 -20626 0
-20629 -20628 0
20626 20627 20628 0
-20627 2482 0
-20627 -2566 0
-2483 -20630 0
20630 2483 -2567 0
-2484 -20635 0
2568 -20635 0
20635 2484 -2568 0
-2485 -20640 0
2569 -20640 0
20640 2485 -2569 0
-20645 -2486 0
-20645 2570 0
20645 2486 -2570 0
-20650 2571 0
20650 -2571 2487 0
-20655 -2488 0
2572 -20655 0
2488 -2572 20655 0
15491 -9642 20625 0
-6491 20622 20623 0
-10510 -20622 0
-20622 -20621 0
20621 20620 -10512 0
-20620 -10507 0
-20620 -20619 0
20619 20618 -10509 0
-20618 -10504 0
-20618 -20617 0
20617 20616 -10506 0
-20616 -10501 0
-20616 -20615 0
20615 20614 -10503 0
-20614 -10498 0
-20614 -20613 0
20613 20612 -10500 0
-20612 -10495 0
-20612 -20611 0
20611 20610 -10497 0
-20610 -10492 0
-20610 -10494 0
-3599 20608 20609 0
-9634 -20608 0
-20607 -20608 0
20606 20607 -9636 0
-20606 -9631 0
-20606 -20605 0
20604 20605 -9633 0
-20604 -9628 0
-20604 -20603 0
20602 20603 -9630 0
-20602 -9625 0
-20602 -20601 0
20600 20601 -9627 0
-20600 -9622 0
-20600 -20599 0
20598 20599 -9624 0
-20598 -9619 0
-20598 -20597 0
-9621 20597 20596 0
-20596 -9616 0
-20596 -9618 0
20594 -6547 20595 0
-8448 -20594 0
-20593 -20594 0
20592 -8450 20593 0
-20592 -8445 0
-20592 -20591 0
20591 20590 -8447 0
-20590 -8442 0
-20590 -20589 0
20589 20588 -8444 0
-20588 -8439 0
-20588 -20587 0
20587 20586 -8441 0
-20586 -8436 0
-20586 -20585 0
20585 20584 -8438 0
-20584 -8433 0
-20584 -20583 0
20583 20582 -8435 0
-20582 -8430 0
-20582 -8432 0
-3304 20580 20581 0
-20576 -20580 0
-20579 -20580 0
-20578 20575 20579 0
-20577 -20578 0
20578 20577 20576 0
-20577 2474 0
-20577 -2558 0
20577 2558 -2474 0
-20575 -20571 0
-20575 -20574 0
20570 -20573 20574 0
-20573 -20571 0
20573 20572 20571 0
-20572 2473 0
-20572 -2557 0
-20570 -20566 0
-20570 -20569 0
20565 -20568 20569 0
-20568 -20566 0
20568 20567 20566 0
-20567 2472 0
-20567 -2556 0
-20565 -20561 0
-20565 -20564 0
20560 -20563 20564 0
-20563 -20561 0
20563 20562 20561 0
-20562 2471 0
-20562 -2555 0
-20560 -20556 0
-20560 -20559 0
20555 -20558 20559 0
20558 20557 20556 0
-20557 2470 0
-20557 -2554 0
-20555 -20551 0
-20555 -20554 0
20550 -20553 20554 0
-20553 -20551 0
20553 20552 20551 0
-20552 2469 0
-20552 -2553 0
-20550 -20547 0
-20550 -20549 0
20549 20547 20548 0
-20548 2468 0
-20551 -2469 0
-20551 2553 0
2469 -2553 20551 0
-20556 -2470 0
-20556 2554 0
20556 -2554 2470 0
-20561 -2471 0
-20561 2555 0
20561 -2555 2471 0
-20566 -2472 0
-20566 2556 0
20566 -2556 2472 0
-20571 -2473 0
-20571 2557 0
20571 -2557 2473 0
-20576 2558 0
2474 -2558 20576 0
15356 -9614 20546 0
20524 -6491 20525 0
-20520 -20524 0
-20523 -20524 0
20519 -20522 20523 0
-20522 -20520 0
20522 20521 20520 0
-20521 -1809 0
-20521 2460 0
-20519 -20515 0
-20519 -20518 0
20514 -20517 20518 0
-20517 -20515 0
20515 20516 20517 0
-20516 -1808 0
-20516 2459 0
20516 -2459 1808 0
-20514 -20510 0
-20514 -20513 0
20509 -20512 20513 0
-20512 -20510 0
20510 20511 20512 0
-20511 -1807 0
-20511 2458 0
20511 1807 -2458 0
-20509 -20505 0
-20509 -20508 0
20504 -20507 20508 0
-20507 -20505 0
20505 20507 20506 0
-20506 -1806 0
-20506 2457 0
-20504 -20500 0
-20504 -20503 0
20499 -20502 20503 0
-20502 -20500 0
20500 20501 20502 0
-20501 -1805 0
-20501 2456 0
-20499 -20495 0
-20499 -20498 0
20494 -20497 20498 0
20495 20497 20496 0
-20496 -1804 0
-20496 2455 0
-20494 -20491 0
-20494 -20493 0
20491 20492 20493 0
-20492 -1803 0
-20492 2454 0
1804 -20495 0
-20495 -2455 0
20495 2455 -1804 0
1805 -20500 0
-2456 -20500 0
20500 2456 -1805 0
1806 -20505 0
-20505 -2457 0
20505 2457 -1806 0
-20510 1807 0
-20510 -2458 0
20510 2458 -1807 0
-20515 1808 0
-2459 -20515 0
20515 2459 -1808 0
1809 -20520 0
-20520 -2460 0
2460 -1809 20520 0
-3570 20489 20490 0
-9606 -20489 0
-20489 -20488 0
20488 20487 -9608 0
-20487 -9603 0
-20487 -20486 0
20486 20485 -9605 0
-20485 -9600 0
-20485 -20484 0
20484 20483 -9602 0
-20483 -9597 0
-20483 -20482 0
20482 20481 -9599 0
-20481 -9594 0
-20481 -20480 0
20480 20479 -9596 0
-20479 -9591 0
-20479 -20478 0
20478 20477 -9593 0
-20477 -9588 0
-20477 -9590 0
-6519 20475 20476 0
-8419 -20475 0
-20474 -20475 0
20473 -8421 20474 0
-20473 -8416 0
-20473 -20472 0
20472 20471 -8418 0
-20471 -8413 0
-20471 -20470 0
20470 20469 -8415 0
-20469 -8410 0
-20469 -20468 0
20468 20467 -8412 0
-20467 -8407 0
-20467 -20466 0
20466 20465 -8409 0
-20465 -8404 0
-20465 -20464 0
20464 20463 -8406 0
-20463 -8401 0
-20463 -8403 0
-3304 20461 20462 0
-20457 -20461 0
-20460 -20461 0
-20459 20456 20460 0
20459 20458 20457 0
-20458 2460 0
-20458 -2544 0
-20456 -20452 0
-20456 -20455 0
20455 20451 -20454 0
-20454 -20452 0
20453 20452 20454 0
-20453 2459 0
-20453 -2543 0
-20451 -20447 0
-20451 -20450 0
20446 -20449 20450 0
20448 20447 20449 0
-20448 2458 0
-20448 -2542 0
-20446 -20442 0
-20446 -20445 0
20445 -20444 20441 0
20443 20442 20444 0
-20443 2457 0
-20443 -2541 0
-20441 -20437 0
20438 20437 20439 0
-20438 2456 0
-20438 -2540 0
-2456 -20437 0
-20437 2540 0
20437 2456 -2540 0
-20442 -2457 0
-20442 2541 0
20442 2457 -2541 0
-20447 -2458 0
-20447 2542 0
20447 -2542 2458 0
-2459 -20452 0
-20452 2543 0
20452 -2543 2459 0
-20457 -2460 0
-20457 2544 0
2460 -2544 20457 0
20426 -6343 20427 0
-3997 -20426 0
-20425 -20426 0
20424 -3998 20425 0
-20424 -3994 0
-20424 -20423 0
20422 -3995 20423 0
-20422 -3991 0
-20422 -20421 0
20420 -3992 20421 0
-20420 -3988 0
-20420 -20419 0
20418 -3989 20419 0
-20418 -3985 0
-20418 -20417 0
20416 -3986 20417 0
-20416 -3982 0
-20416 -20415 0
20414 -3983 20415 0
-20414 -3979 0
-20414 -3980 0
20412 -6315 20413 0
-3969 -20412 0
-20411 -20412 0
20410 -3970 20411 0
-20410 -3966 0
20398 -6286 20399 0
-3940 -20398 0
-20397 -20398 0
20396 -3941 20397 0
-20396 -3937 0
-20396 -20395 0
20394 -3938 20395 0
-20394 -3934 0
-20394 -20393 0
20392 -3935 20393 0
-20392 -3931 0
-20392 -20391 0
20390 -3932 20391 0
-20390 -3928 0
-20390 -20389 0
20388 -3929 20389 0
-20388 -3925 0
-20388 -20387 0
20386 -3926 20387 0
-20386 -3922 0
-20386 -3923 0
20370 -6257 20371 0
-20366 -20370 0
-20369 -20370 0
20365 -20368 20369 0
20367 20368 20366 0
-20367 1837 0
-20365 -20361 0
-20365 -20364 0
20364 20360 -20363 0
20362 20361 20363 0
-20362 1836 0
-20362 -3247 0
-20360 -20356 0
-20360 -20359 0
20359 20355 -20358 0
20357 20356 20358 0
-20357 1835 0
-20357 -3246 0
-20355 -20351 0
20351 -3245 1834 0
-3246 1835 20356 0
-3247 20361 1836 0
20335 -6228 20336 0
-3911 -20335 0
-20334 -20335 0
20333 -3912 20334 0
-20333 -3908 0
-20333 -20332 0
20331 -3909 20332 0
-20331 -3905 0
-20331 -20330 0
20329 -3906 20330 0
-20329 -3902 0
-20329 -20328 0
20328 -3903 20327 0
-20327 -3899 0
20321 -6199 20322 0
-3882 -20321 0
-20320 -20321 0
20319 -3883 20320 0
-20319 -3879 0
-20319 -20318 0
20317 -3880 20318 0
-20317 -3876 0
-20317 -20316 0
20315 -3877 20316 0
-20315 -20314 0
20313 -3874 20314 0
-20313 -20312 0
20311 -3871 20312 0
-20311 -3867 0
-20311 -20310 0
20309 -3868 20310 0
-20309 -3864 0
-20309 -3865 0
-5380 20272 20273 0
-20268 -20272 0
-20271 -20272 0
20267 -20270 20271 0
20270 20269 20268 0
-20269 1823 0
-20269 -2726 0
-20267 -20263 0
-20267 -20266 0
20266 20262 -20265 0
20263 20265 20264 0
-20264 1822 0
-20264 -2725 0
-20262 -20258 0
-20262 -20261 0
20261 20257 -20260 0
20260 20258 20259 0
-20259 1821 0
-20259 -2724 0
-20257 -20253 0
-20257 -20256 0
20256 20252 -20255 0
20255 20253 20254 0
-20254 1820 0
-20254 -2723 0
-20252 -20248 0
-20252 -20251 0
20251 20247 -20250 0
20250 20248 20249 0
-20249 1819 0
-20247 -20243 0
-20247 -20246 0
20246 20242 -20245 0
20245 20243 20244 0
-20244 1818 0
-20244 -2721 0
-20242 -20239 0
-20242 -20241 0
20241 20239 20240 0
-20240 1817 0
-20240 -2720 0
20243 -2721 1818 0
20248 -2722 1819 0
20253 -2723 1820 0
-20258 -1821 0
20258 -2724 1821 0
20263 -2725 1822 0
-20268 2726 0
1823 -2726 20268 0
-5351 20209 20210 0
-20205 -20209 0
-20208 -20209 0
20204 -20207 20208 0
20207 20206 20205 0
-20206 1823 0
-20204 -20200 0
-20204 -20203 0
20203 20199 -20202 0
20202 20200 20201 0
-20201 1822 0
-20199 -20195 0
-20199 -20198 0
20198 20194 -20197 0
20197 20195 20196 0
-20196 1821 0
-20194 -20190 0
20190 -2709 1820 0
20200 -2711 1822 0
-2712 1823 20205 0
20174 -6112 20175 0
-20170 -20174 0
-20173 -20174 0
20169 -20172 20173 0
20172 20171 20170 0
-20171 1823 0
-20169 -20165 0
-1850 20165 1822 0
-5322 20132 20133 0
-20128 -20132 0
-20131 -20132 0
20127 -20130 20131 0
20130 20129 20128 0
-20129 1823 0
-20127 -20123 0
-20127 -20126 0
20126 20122 -20125 0
20125 20123 20124 0
-20124 1822 0
-20122 -20118 0
-20122 -20121 0
20121 20117 -20120 0
20120 20118 20119 0
-20119 1821 0
-20117 -20113 0
20113 -2695 1820 0
20097 -6083 20098 0
-20093 -20097 0
-20096 -20097 0
20092 -20095 20096 0
20095 20094 20093 0
-20094 1823 0
-20092 -20088 0
-20092 -20091 0
20091 20087 -20090 0
20088 20090 20089 0
-20089 1822 0
-20089 -1836 0
-20087 -20083 0
-20087 -20086 0
20086 20082 -20085 0
20083 20085 20084 0
-20084 1821 0
-20084 -1835 0
-20082 -20078 0
-20082 -20081 0
20081 20077 -20080 0
20079 20080 20078 0
-20079 -1834 0
-20077 -20073 0
-1833 20073 1819 0
-20083 1835 0
-1836 20088 1822 0
-10482 -20062 0
20061 20062 10482 0
-20061 10483 0
-5293 20042 20043 0
-20038 -20042 0
-20041 -20042 0
20037 -20040 20041 0
20040 20039 20038 0
-20039 1823 0
-20037 -20033 0
-20037 -20036 0
20036 20032 -20035 0
20035 20033 20034 0
-20034 1822 0
-20032 -20028 0
-20032 -20031 0
20031 20027 -20030 0
20030 20028 20029 0
-20029 1821 0
-20027 -20023 0
20023 -10756 1820 0
-3860 20007 20008 0
-6046 -20007 0
-20007 -20006 0
20006 20005 -6048 0
-20005 -6043 0
-20005 -20004 0
20004 20003 -6045 0
-20003 -6040 0
-20003 -20002 0
20002 20001 -6042 0
-20001 -6037 0
-20001 -20000 0
20000 19999 -6039 0
-19999 -6034 0
-19999 -19998 0
19998 19997 -6036 0
-19997 -6031 0
-19997 -19996 0
19996 19995 -6033 0
-19995 -6028 0
-19995 -6030 0
-5380 19993 19994 0
-19989 -19993 0
-19992 -19993 0
19988 -19991 19992 0
19991 19990 19989 0
-19990 1809 0
-19990 -2684 0
-19988 -19984 0
-19988 -19987 0
19987 19983 -19986 0
19985 19984 19986 0
-19985 1808 0
-19985 -2683 0
-19983 -19979 0
-19983 -19982 0
19982 19978 -19981 0
19980 19979 19981 0
-19980 1807 0
-19980 -2682 0
-19978 -19974 0
-19978 -19977 0
19977 19973 -19976 0
19975 19974 19976 0
-19975 1806 0
-19975 -2681 0
-19973 -19969 0
-19973 -19972 0
19972 19968 -19971 0
19970 19969 19971 0
-19970 1805 0
-19970 -2680 0
-19968 -19964 0
-19968 -19967 0
19967 19963 -19966 0
19965 19964 19966 0
-19965 1804 0
-19965 -2679 0
-19963 -19960 0
-19963 -19962 0
19962 19960 19961 0
-19961 1803 0
-19961 -2678 0
2680 -19969 0
-2680 1805 19969 0
-19974 -1806 0
-2681 1806 19974 0
-19979 2682 0
1807 19979 -2682 0
-2683 19984 1808 0
1809 -2684 19989 0
-3116 19958 19959 0
-19954 -19958 0
-19957 -19958 0
19953 -19956 19957 0
19955 19956 19954 0
-19955 2432 0
-19953 -19949 0
-19953 -19952 0
19952 19948 -19951 0
19950 19949 19951 0
-19950 -2683 0
-19948 -19944 0
-19948 -19947 0
19947 19943 -19946 0
19945 19944 19946 0
-19945 -2682 0
-19943 -19939 0
2684 -19954 0
2432 -2684 19954 0
-3831 19923 19924 0
-6017 -19923 0
-19923 -19922 0
19922 19921 -6019 0
-19921 -6014 0
-19921 -19920 0
19920 19919 -6016 0
-19919 -6011 0
-19919 -19918 0
19918 19917 -6013 0
-19917 -6008 0
-19917 -19916 0
19916 19915 -6010 0
-19915 -6005 0
-19915 -19914 0
19914 19913 -6007 0
-19913 -6002 0
-19913 -19912 0
19912 19911 -6004 0
-19911 -5999 0
-19911 -6001 0
-5351 19909 19910 0
-19905 -19909 0
-19908 -19909 0
19904 -19907 19908 0
-19905 -19907 0
19906 19907 19905 0
-19906 1809 0
-19904 -19903 0
19899 -19902 19903 0
19901 19900 19902 0
-19901 1808 0
-19899 -19895 0
19895 1807 -2668 0
-19900 2669 0
2670 -19905 0
1809 -2670 19905 0
19874 -3116 19875 0
-19870 -19874 0
-19873 -19874 0
19869 -19872 19873 0
19871 19872 19870 0
-19871 2418 0
-19869 -19865 0
-19869 -19868 0
19868 19864 -19867 0
19866 19865 19867 0
-19866 2417 0
-19866 -2669 0
-19864 -19860 0
-19864 -19863 0
19863 19859 -19862 0
19861 19860 19862 0
-19861 2416 0
-19861 -2668 0
-19859 -19855 0
19855 -2667 2415 0
-19865 2669 0
2670 -19870 0
2418 -2670 19870 0
19825 -3802 19826 0
-5988 -19825 0
-19824 -19825 0
19823 19824 -5990 0
-19823 -5985 0
-19823 -19822 0
19822 19821 -5987 0
-19821 -5982 0
-19821 -19820 0
19820 19819 -5984 0
-19819 -5979 0
-19819 -19818 0
19818 19817 -5981 0
-19817 -5976 0
-19817 -19816 0
19816 19815 -5978 0
-19815 -5973 0
-19815 -19814 0
19814 -5975 19813 0
-19813 -5970 0
-19813 -5972 0
19811 -19812 0
-18611 -19811 0
19810 -19811 0
-18625 -19810 0
19809 -19810 0
-18660 -19809 0
19808 -19809 0
-18674 -19808 0
19807 -19808 0
-18675 -19807 0
19806 -19807 0
-18710 -19806 0
19805 -19806 0
-18724 -19805 0
19804 -19805 0
-18738 -19804 0
19803 -19804 0
-18773 -19803 0
19802 -19803 0
-18808 -19802 0
19801 -19802 0
-18822 -19801 0
19800 -19801 0
-18836 -19800 0
19799 -19800 0
-18850 -19799 0
19798 -19799 0
-18885 -19798 0
19797 -19798 0
19796 -19797 0
-18934 -19796 0
19795 -19796 0
-18948 -19795 0
19794 -19795 0
-18962 -19794 0
19793 -19794 0
-18976 -19793 0
19792 -19793 0
-19011 -19792 0
19791 -19792 0
-19025 -19791 0
19790 -19791 0
-19039 -19790 0
19789 -19790 0
-19053 -19789 0
19788 -19789 0
-19088 -19788 0
19787 -19788 0
-19089 -19787 0
19786 -19787 0
-19124 -19786 0
19785 -19786 0
-19125 -19785 0
19784 -19785 0
-19132 -19784 0
19783 -19784 0
-19167 -19783 0
19782 -19783 0
-19168 -19782 0
19781 -19782 0
-19203 -19781 0
19780 -19781 0
-19204 -19780 0
19779 -19780 0
19778 -19779 0
-19253 -19778 0
19777 -19778 0
-19254 -19777 0
19776 -19777 0
-19268 -19776 0
19775 -19776 0
-19282 -19775 0
19774 -19775 0
-19283 -19774 0
19773 -19774 0
-19297 -19773 0
19772 -19773 0
-19332 -19772 0
19771 -19772 0
-19333 -19771 0
19770 -19771 0
-19347 -19770 0
19769 -19770 0
-19361 -19769 0
19768 -19769 0
-19362 -19768 0
19767 -19768 0
19766 -19767 0
-19411 -19766 0
19765 -19766 0
-19412 -19765 0
19764 -19765 0
-19426 -19764 0
19763 -19764 0
-19440 -19763 0
19762 -19763 0
-19454 -19762 0
19761 -19762 0
-19489 -19761 0
19760 -19761 0
-19490 -19760 0
19759 -19760 0
-19504 -19759 0
19758 -19759 0
-19518 -19758 0
19757 -19758 0
-19532 -19757 0
19756 -19757 0
-19567 -19756 0
19755 -19756 0
-19602 -19755 0
19754 -19755 0
-19616 -19754 0
19753 -19754 0
-19651 -19753 0
19752 -19753 0
-19686 -19752 0
19751 -19752 0
-19700 -19751 0
19750 -19751 0
-19714 -19750 0
-19749 -19750 0
-5322 19748 19749 0
-19744 -19748 0
-19747 -19748 0
19743 -19746 19747 0
-19744 -19746 0
19745 19746 19744 0
-19745 1809 0
-19743 -19739 0
-19743 -19742 0
19738 -19741 19742 0
19740 19739 19741 0
-19740 1808 0
-19740 -2655 0
-19738 -19734 0
19734 -2654 1807 0
-19739 -1808 0
-19739 2655 0
-2655 19739 1808 0
2656 -19744 0
1809 -2656 19744 0
19713 -5967 19714 0
-19712 -19713 0
19711 -3767 19712 0
-19711 -19710 0
19710 19709 -3764 0
-19709 -19708 0
19708 19707 -3761 0
-19707 -19706 0
19706 19705 -3758 0
-19705 -19704 0
19704 19703 -3755 0
-19703 -19702 0
19702 19701 -3752 0
-19701 -3749 0
-3773 19699 19700 0
-5959 -19699 0
-19699 -19698 0
19698 19697 -5961 0
-19697 -5956 0
-19697 -19696 0
19696 19695 -5958 0
-19695 -5953 0
-19695 -19694 0
19694 19693 -5955 0
-19693 -5950 0
-19693 -19692 0
19692 19691 -5952 0
-19691 -5947 0
-19691 -19690 0
19690 19689 -5949 0
-19689 -5944 0
-19689 -19688 0
19688 19687 -5946 0
-19687 -5941 0
-19687 -5943 0
19685 -5293 19686 0
-19681 -19685 0
-19684 -19685 0
19680 -19683 19684 0
19682 19683 19681 0
-19682 1809 0
-19680 -19676 0
-19680 -19679 0
19679 19675 -19678 0
19677 19676 19678 0
-19677 1808 0
-19677 -2641 0
-19675 -19671 0
-19675 -19674 0
19674 19670 -19673 0
19672 19671 19673 0
-19672 1807 0
-19672 -2640 0
-19670 -19666 0
-19670 -19669 0
19669 19665 -19668 0
19667 19666 19668 0
-19667 1806 0
-19665 -19661 0
19661 -2638 1805 0
-2639 1806 19666 0
-19671 -1807 0
1807 19671 -2640 0
-19676 -1808 0
-19676 2641 0
2642 -19681 0
1809 -2642 19681 0
19650 -3116 19651 0
-19646 -19650 0
-19649 -19650 0
19645 -19648 19649 0
19648 19647 19646 0
-19647 2390 0
-19647 -2642 0
-19645 -19641 0
-19645 -19644 0
19644 19640 -19643 0
19642 19641 19643 0
-19642 2389 0
-19642 -2641 0
19642 -2389 2641 0
-19640 -19636 0
-19640 -19639 0
19639 19635 -19638 0
19637 19636 19638 0
-19637 2388 0
-19637 -2640 0
-19635 -19631 0
19631 -2639 2387 0
-19636 -2388 0
2640 -19636 0
2388 19636 -2640 0
-2641 19641 2389 0
-19646 -2390 0
2642 -19646 0
2390 -2642 19646 0
-10489 19615 19616 0
-19614 -19615 0
19613 -18503 19614 0
-19613 -19612 0
19611 19612 -18498 0
-19611 -18492 0
-19611 -19610 0
19609 19610 -18493 0
-19609 -19608 0
19607 19608 -18488 0
-19607 -18482 0
-3744 19601 19602 0
-19597 -19601 0
-19600 -19601 0
-19599 19596 19600 0
-19599 -19597 0
-19598 -19599 0
19599 19597 19598 0
-19598 -2362 0
-19598 2376 0
2362 -2376 19598 0
-19596 -19592 0
-19596 -19595 0
19595 19591 -19594 0
-19593 -19594 0
19594 19592 19593 0
-2361 -19593 0
-19593 2375 0
2361 -2375 19593 0
-19591 -19587 0
-19591 -19590 0
19586 -19589 19590 0
-19588 -19589 0
19589 19587 19588 0
-19588 -2360 0
-19588 2374 0
2360 -2374 19588 0
-19586 -19582 0
-19586 -19585 0
19581 -19584 19585 0
-19583 -19584 0
19584 19582 19583 0
-19583 -2359 0
-19583 2373 0
2359 -2373 19583 0
-19581 -19577 0
-19581 -19580 0
19576 -19579 19580 0
-19578 -19579 0
19579 19577 19578 0
-19578 -2358 0
-19578 2372 0
2358 -2372 19578 0
-19576 -19572 0
-19576 -19575 0
19571 -19574 19575 0
19574 19572 19573 0
-2357 -19573 0
-19573 2371 0
2357 -2371 19573 0
-19571 -19568 0
-19571 -19570 0
19570 19568 19569 0
-19569 2370 0
-19568 2356 0
-19568 -2370 0
2357 -19572 0
-19572 -2371 0
-2357 19572 2371 0
2358 -19577 0
-19577 -2372 0
-2358 19577 2372 0
2359 -19582 0
-19582 -2373 0
-2359 19582 2373 0
-19587 2360 0
-19587 -2374 0
-2360 19587 2374 0
-19592 2361 0
-19592 -2375 0
-2361 19592 2375 0
2362 -19597 0
-19597 -2376 0
2376 -2362 19597 0
19566 -3116 19567 0
-19562 -19566 0
-19565 -19566 0
19561 -19564 19565 0
19564 19563 19562 0
-19563 2376 0
-19561 -19557 0
-19561 -19560 0
19560 19556 -19559 0
19559 19557 19558 0
-19558 2375 0
-19558 -2627 0
-19556 -19552 0
-19556 -19555 0
19555 19551 -19554 0
19554 19552 19553 0
-19553 2374 0
-19553 -2626 0
-19551 -19547 0
-19551 -19550 0
19550 19546 -19549 0
19547 19549 19548 0
-19548 -2625 0
-19546 -19542 0
19542 -2624 2372 0
19547 -2625 2373 0
19552 -2626 2374 0
-19557 -2375 0
19557 -2627 2375 0
-19562 -2376 0
-19562 2628 0
19531 -5938 19532 0
-19530 -19531 0
19529 -3709 19530 0
-19529 -19528 0
19528 19527 -3706 0
-19527 -19526 0
19526 19525 -3703 0
-19525 -19524 0
19524 19523 -3700 0
-19523 -19522 0
19522 19521 -3697 0
-19521 -19520 0
19520 19519 -3694 0
-19519 -3691 0
-3715 19517 19518 0
-5930 -19517 0
-19516 -19517 0
19515 19516 -5932 0
-19515 -5927 0
-19515 -19514 0
19513 19514 -5929 0
-19513 -5924 0
-19513 -19512 0
19511 19512 -5926 0
-19511 -5921 0
-19511 -19510 0
19509 19510 -5923 0
-19509 -5918 0
-19509 -19508 0
19507 19508 -5920 0
-19507 -5915 0
19503 -5380 19504 0
-6656 -19503 0
-19502 -19503 0
19501 19502 -6657 0
-19501 -6653 0
-19501 -19500 0
19499 19500 -6654 0
-19499 -6650 0
-19499 -19498 0
19497 19498 -6651 0
-19497 -6647 0
-19497 -19496 0
19495 19496 -6648 0
-19495 -6644 0
-19495 -19494 0
19493 19494 -6645 0
-19493 -6641 0
-19493 -19492 0
19491 19492 -6642 0
-19491 -6638 0
-19491 -6639 0
19024 -6663 19490 0
-3087 19488 19489 0
-19484 -19488 0
-19487 -19488 0
19483 -19486 19487 0
-19486 -19484 0
-19485 -19486 0
19486 19485 19484 0
-19485 2432 0
-19485 -2614 0
19485 2614 -2432 0
-19483 -19479 0
-19483 -19482 0
19482 19478 -19481 0
-19481 -19479 0
-19480 -19481 0
19479 19481 19480 0
-19480 2431 0
-19480 -2613 0
19480 -2431 2613 0
-19478 -19474 0
-19478 -19477 0
19473 -19476 19477 0
-19476 -19474 0
-19475 -19476 0
19474 19475 19476 0
-19475 2430 0
-19475 -2612 0
19475 2612 -2430 0
-19473 -19469 0
-19473 -19472 0
19468 -19471 19472 0
-19471 -19469 0
-19470 -19471 0
19469 19471 19470 0
-19470 2429 0
-19470 -2611 0
19470 2611 -2429 0
-19468 -19464 0
-19468 -19467 0
19463 -19466 19467 0
19464 19465 19466 0
-19465 2428 0
-19465 -2610 0
-19463 -19459 0
-19463 -19462 0
19458 -19461 19462 0
19459 19460 19461 0
-19460 2427 0
-19460 -2609 0
-19458 -19455 0
-19458 -19457 0
19455 19456 19457 0
-19456 -2608 0
2609 -19459 0
19459 2427 -2609 0
-2428 -19464 0
2610 -19464 0
19464 -2610 2428 0
-2429 -19469 0
2611 -19469 0
19469 -2611 2429 0
-19474 -2430 0
-19474 2612 0
19474 2430 -2612 0
-2431 -19479 0
-19479 2613 0
19479 -2613 2431 0
-19484 -2432 0
2614 -19484 0
2432 -2614 19484 0
19453 -5909 19454 0
-19452 -19453 0
19451 -3680 19452 0
-19451 -19450 0
19450 19449 -3677 0
-19449 -19448 0
19448 19447 -3674 0
-19447 -19446 0
19446 19445 -3671 0
-19445 -19444 0
19444 19443 -3668 0
-19443 -19442 0
19442 19441 -3665 0
-19441 -3662 0
-3686 19439 19440 0
-5901 -19439 0
-19439 -19438 0
19438 19437 -5903 0
-5898 -19437 0
-19437 -19436 0
19436 19435 -5900 0
-5895 -19435 0
-19435 -19434 0
19434 19433 -5897 0
-5892 -19433 0
-19433 -19432 0
19432 19431 -5894 0
-5889 -19431 0
-19431 -19430 0
19430 19429 -5891 0
-5886 -19429 0
-19429 -19428 0
19428 19427 -5888 0
-5883 -19427 0
-19427 -5885 0
19425 -5351 19426 0
-6627 -19425 0
-19424 -19425 0
19423 19424 -6628 0
-19423 -6624 0
-19423 -19422 0
19421 19422 -6625 0
-19421 -19420 0
19419 19420 -6622 0
-19419 -6618 0
18947 -6634 19412 0
19410 -3087 19411 0
-19406 -19410 0
-19409 -19410 0
19405 -19408 19409 0
-19408 -19406 0
19408 19407 19406 0
-19407 2418 0
-19407 -2600 0
-19405 -19401 0
-19405 -19404 0
19400 -19403 19404 0
-19403 -19401 0
19402 19401 19403 0
-19402 2417 0
-19402 -2599 0
-19400 -19399 0
19399 -19398 19395 0
19397 19396 19398 0
-19397 2416 0
-19397 -2598 0
-19395 -19391 0
-19393 -19391 0
19392 19391 19393 0
-19392 2415 0
-19392 -2597 0
2597 -19391 0
19391 -2597 2415 0
-19396 -2416 0
-19396 2598 0
-2417 -19401 0
-19401 2599 0
19401 -2599 2417 0
-19406 -2418 0
2600 -19406 0
2418 -2600 19406 0
-6462 18884 19362 0
-3657 19360 19361 0
-5872 -19360 0
-19360 -19359 0
19359 19358 -5874 0
-5869 -19358 0
-19358 -19357 0
19357 19356 -5871 0
-5866 -19356 0
-19356 -19355 0
19355 19354 -5868 0
-5863 -19354 0
-19354 -19353 0
19353 19352 -5865 0
-5860 -19352 0
-19352 -19351 0
19351 19350 -5862 0
-5857 -19350 0
-19350 -19349 0
19349 19348 -5859 0
-5854 -19348 0
-19348 -5856 0
-5322 19346 19347 0
-6598 -19346 0
-19345 -19346 0
19344 -6599 19345 0
-19344 -6595 0
-19344 -19343 0
19342 19343 -6596 0
-19342 -6592 0
-19342 -19341 0
19340 19341 -6593 0
-19340 -6589 0
18821 -6605 19333 0
19331 -3087 19332 0
-19327 -19331 0
-19330 -19331 0
19326 -19329 19330 0
-19329 -19327 0
19329 19328 19327 0
-19328 2404 0
-19328 -2586 0
-19326 -19322 0
-19326 -19325 0
19325 19321 -19324 0
-19324 -19322 0
19323 19322 19324 0
-19323 2403 0
-19323 -2585 0
-19321 -19317 0
-19321 -19320 0
19316 -19319 19320 0
19318 19317 19319 0
-19318 2402 0
-19318 -2584 0
-19316 -19312 0
-19314 -19312 0
19313 19312 19314 0
-19313 2401 0
-19313 -2583 0
-2401 -19312 0
2583 -19312 0
19312 -2583 2401 0
-19317 -2402 0
-19317 2584 0
19317 2402 -2584 0
-2403 -19322 0
-19322 2585 0
19322 -2585 2403 0
-19327 -2404 0
2586 -19327 0
2404 -2586 19327 0
19296 -5851 19297 0
-19295 -19296 0
19294 -3622 19295 0
-19294 -19293 0
19293 19292 -3619 0
-19292 -19291 0
19291 19290 -3616 0
-19290 -19289 0
19289 19288 -3613 0
-19288 -19287 0
19287 19286 -3610 0
-19286 -19285 0
19285 19284 -3607 0
-19284 -3604 0
18772 -6462 19283 0
-3628 19281 19282 0
-5843 -19281 0
-19281 -19280 0
19280 19279 -5845 0
-19279 -5840 0
-19279 -19278 0
19278 19277 -5842 0
-19277 -5837 0
-19277 -19276 0
19276 19275 -5839 0
-19275 -5834 0
-19275 -19274 0
19274 19273 -5836 0
-19273 -5831 0
-19273 -19272 0
19272 19271 -5833 0
-19271 -5828 0
-19271 -19270 0
19270 19269 -5830 0
-19269 -5827 0
19267 -5293 19268 0
-6569 -19267 0
-19266 -19267 0
19265 19266 -6570 0
-19265 -6566 0
-19265 -19264 0
19264 19263 -6567 0
-19263 -6563 0
-19263 -19262 0
19262 19261 -6564 0
-19261 -6560 0
18723 -6576 19254 0
19252 -3087 19253 0
-19251 -19252 0
19247 -19250 19251 0
-19249 -19250 0
19250 19248 19249 0
-19249 2390 0
-19249 -2572 0
19249 2572 -2390 0
-19247 -19243 0
-19247 -19246 0
19242 -19245 19246 0
19244 19243 19245 0
-19244 2389 0
-19244 -2571 0
-19242 -19238 0
-19242 -19241 0
19241 -19240 19237 0
-19240 -19238 0
19239 19238 19240 0
-19239 2388 0
-19239 -2570 0
-19237 -19233 0
-19235 -19233 0
19234 19233 19235 0
-19234 2387 0
19233 2387 -2569 0
-19238 -2388 0
-19238 2570 0
19238 2388 -2570 0
-2389 -19243 0
-19243 2571 0
19243 -2571 2389 0
-19248 -2390 0
-19248 2572 0
18673 -6462 19204 0
-3599 19202 19203 0
-19198 -19202 0
-19201 -19202 0
19197 -19200 19201 0
-19200 -19199 0
19200 19198 19199 0
-19199 -2348 0
-19199 2376 0
2348 -2376 19199 0
-19197 -19193 0
-19197 -19196 0
19192 19196 -19195 0
-19193 -19195 0
-19195 -19194 0
19195 19193 19194 0
-19194 -2347 0
-19194 2375 0
2347 -2375 19194 0
-19192 -19188 0
-19192 -19191 0
19187 19191 -19190 0
-19190 -19189 0
19190 19188 19189 0
-19189 -2346 0
-19189 2374 0
2346 -2374 19189 0
-19187 -19183 0
-19187 -19186 0
19182 19186 -19185 0
19185 19183 19184 0
-2345 -19184 0
-19184 2373 0
2345 -2373 19184 0
-19182 -19178 0
-19182 -19181 0
19177 19181 -19180 0
-19178 -19180 0
19180 19178 19179 0
-2344 -19179 0
-19179 2372 0
2344 -2372 19179 0
-19177 -19173 0
-19177 -19176 0
19172 19176 -19175 0
-19173 -19175 0
19175 19173 19174 0
-2343 -19174 0
-19174 2371 0
2343 -2371 19174 0
-19172 -19169 0
-19172 -19171 0
19171 19170 19169 0
-2342 -19170 0
-19170 2370 0
-19169 2342 0
-19169 -2370 0
-2342 19169 2370 0
-19173 2343 0
-19173 -2371 0
-2343 19173 2371 0
-19178 2344 0
-19178 -2372 0
-2344 19178 2372 0
-19183 2345 0
-19183 -2373 0
-2345 19183 2373 0
-19188 2346 0
-19188 -2374 0
-2346 19188 2374 0
-19193 2347 0
-19193 -2375 0
-2347 19193 2375 0
-19198 2348 0
-19198 -2376 0
2376 -2348 19198 0
18624 -6547 19168 0
19166 -3087 19167 0
-19162 -19166 0
-19165 -19166 0
19161 -19164 19165 0
19164 19163 19162 0
-19163 2376 0
-19163 -2558 0
-19161 -19157 0
-19161 -19160 0
19160 19156 -19159 0
19159 19158 19157 0
-19158 2375 0
-19158 -2557 0
-19156 -19152 0
-19156 -19155 0
19155 19151 -19154 0
19154 19153 19152 0
-19153 2374 0
-19153 -2556 0
-19151 -19147 0
-19151 -19150 0
19150 19146 -19149 0
19149 19147 19148 0
-19148 2373 0
-19148 -2555 0
-19146 -19142 0
-19146 -19145 0
19145 19141 -19144 0
19144 19142 19143 0
-19143 -2554 0
-19141 -19137 0
-19141 -19140 0
19140 19136 -19139 0
19139 19137 19138 0
-19138 2371 0
-19136 -19133 0
-19136 -19135 0
19135 19133 19134 0
-19134 2370 0
19142 -2554 2372 0
-19147 -2373 0
19147 -2555 2373 0
-19152 -2374 0
-19152 2556 0
19152 -2556 2374 0
-19157 -2375 0
-19157 2557 0
19157 -2557 2375 0
-19162 2558 0
2376 -2558 19162 0
15356 -19131 19132 0
18505 -6462 19125 0
-3570 19123 19124 0
-19119 -19123 0
-19122 -19123 0
-19121 19118 19122 0
-19121 -19119 0
-19120 -19121 0
19121 19119 19120 0
-19120 -2348 0
2362 -19120 0
2348 -2362 19120 0
-19118 -19114 0
-19118 -19117 0
19117 19113 -19116 0
-19116 -19114 0
-19115 -19116 0
19114 19115 19116 0
-19115 -2347 0
-19115 2361 0
19115 -2361 2347 0
-19113 -19109 0
-19113 -19112 0
19108 -19111 19112 0
-19111 -19109 0
-19110 -19111 0
19110 19111 19109 0
-19110 -2346 0
-19110 2360 0
19110 2346 -2360 0
-19108 -19104 0
-19108 -19107 0
19103 -19106 19107 0
-19105 -19106 0
19104 19105 19106 0
-2345 -19105 0
2359 -19105 0
19105 -2359 2345 0
-19103 -19099 0
-19103 -19102 0
19098 -19101 19102 0
-19101 -19099 0
19100 19101 19099 0
-19100 -2344 0
-19100 2358 0
-19098 -19094 0
-19098 -19097 0
19093 -19096 19097 0
19094 19095 19096 0
-19095 -2343 0
-19095 2357 0
-19093 -19090 0
-19093 -19092 0
-19091 -19092 0
19090 19091 19092 0
-19091 -2342 0
-19091 2356 0
-2356 -19090 0
2343 -19094 0
-2357 -19094 0
19094 2357 -2343 0
2344 -19099 0
-19099 -2358 0
19099 2358 -2344 0
2345 -19104 0
-19104 -2359 0
19104 2359 -2345 0
2346 -19109 0
-19109 -2360 0
19109 2360 -2346 0
-19114 2347 0
-2361 -19114 0
19114 2361 -2347 0
2348 -19119 0
-19119 -2362 0
2362 -2348 19119 0
18435 -6519 19089 0
19087 -3087 19088 0
-19083 -19087 0
-19086 -19087 0
19082 -19085 19086 0
19084 19085 19083 0
-19084 2362 0
-19082 -19078 0
-19082 -19081 0
19081 19077 -19080 0
19079 19078 19080 0
-19079 2361 0
-19079 -2543 0
-19077 -19073 0
-19077 -19076 0
19076 19072 -19075 0
19074 19073 19075 0
-19074 2360 0
-19074 -2542 0
-19072 -19068 0
-19072 -19071 0
19071 19067 -19070 0
19069 19068 19070 0
-19069 2359 0
-19069 -2541 0
-19067 -19063 0
-19067 -19066 0
19066 19062 -19065 0
19064 19063 19065 0
-19064 2358 0
-19064 -2540 0
-19062 -19058 0
-19062 -19061 0
19061 19057 -19060 0
19059 19058 19060 0
-19059 -2539 0
-19057 -19054 0
-19057 -19056 0
19056 19054 19055 0
-19055 -2538 0
2357 -2539 19058 0
-19063 -2358 0
2358 19063 -2540 0
2359 19068 -2541 0
-19073 -2360 0
2360 19073 -2542 0
-19078 -2361 0
-19078 2543 0
19078 -2543 2361 0
-19083 2544 0
2362 -2544 19083 0
-3541 19052 19053 0
-19052 -19051 0
19051 19050 -5816 0
-19050 -19049 0
19049 19048 -5813 0
-19048 -19047 0
19047 19046 -5810 0
-19046 -19045 0
19045 19044 -5807 0
-19044 -19043 0
19043 19042 -5804 0
-19042 -19041 0
19041 19040 -5801 0
-19040 -5796 0
-19040 -5798 0
19038 -5380 19039 0
-8565 -19038 0
-19037 -19038 0
19036 19037 -8566 0
-19036 -8562 0
-19036 -19035 0
19034 19035 -8563 0
-19034 -8559 0
-19034 -19033 0
19032 19033 -8560 0
-19032 -8556 0
-19032 -19031 0
19030 19031 -8557 0
-19030 -8553 0
-19030 -19029 0
19028 19029 -8554 0
-19028 -8550 0
-19028 -19027 0
19026 19027 -8551 0
-19026 -8547 0
-19026 -8548 0
19024 -8572 19025 0
-5372 -19024 0
-19023 -19024 0
19022 -5374 19023 0
-19022 -5369 0
-19022 -19021 0
19021 19020 -5371 0
-19020 -5366 0
-19020 -19019 0
19019 19018 -5368 0
-19018 -5363 0
-19018 -19017 0
19017 19016 -5365 0
-19016 -5360 0
-19016 -19015 0
19015 19014 -5362 0
-19014 -5357 0
-19014 -19013 0
19013 19012 -5359 0
-19012 -5354 0
-19012 -5356 0
-3058 19010 19011 0
-19006 -19010 0
-19009 -19010 0
19005 -19008 19009 0
-19008 -19006 0
-19007 -19008 0
19008 19007 19006 0
-19007 2432 0
-19007 -2530 0
2530 19007 -2432 0
-19005 -19001 0
-19005 -19004 0
19004 19000 -19003 0
-19003 -19001 0
-19002 -19003 0
19001 19002 19003 0
-19002 2431 0
-19002 -2529 0
19002 -2431 2529 0
-19000 -18996 0
-19000 -18999 0
18995 -18998 18999 0
-18998 -18996 0
-18997 -18998 0
18996 18997 18998 0
-18997 2430 0
-18997 -2528 0
18997 2528 -2430 0
-18995 -18991 0
-18995 -18994 0
18990 -18993 18994 0
-18993 -18991 0
-18992 -18993 0
18991 18992 18993 0
-18992 2429 0
-18992 -2527 0
18992 2527 -2429 0
-18990 -18986 0
-18990 -18989 0
18985 -18988 18989 0
18986 18987 18988 0
-18987 2428 0
-18987 -2526 0
-18985 -18981 0
-18985 -18984 0
18980 -18983 18984 0
18981 18982 18983 0
-18982 2427 0
-18982 -2525 0
-18980 -18977 0
-18980 -18979 0
18977 18978 18979 0
-18978 2426 0
-18978 -2524 0
-2426 -18977 0
-2427 -18981 0
2525 -18981 0
18981 -2525 2427 0
-2428 -18986 0
2526 -18986 0
18986 2428 -2526 0
-2429 -18991 0
2527 -18991 0
18991 2429 -2527 0
-18996 -2430 0
-18996 2528 0
18996 2430 -2528 0
-2431 -19001 0
-19001 2529 0
19001 -2529 2431 0
-19006 -2432 0
2530 -19006 0
2432 -2530 19006 0
-3512 18975 18976 0
-18975 -18974 0
18974 18973 -5787 0
-18973 -18972 0
18972 18971 -5784 0
-18971 -18970 0
18970 18969 -5781 0
-18969 -18968 0
18968 18967 -5778 0
-18967 -18966 0
18966 18965 -5775 0
-18965 -18964 0
18964 18963 -5772 0
-18963 -5767 0
-18963 -5769 0
18961 -5351 18962 0
-18960 -18961 0
18959 -8537 18960 0
-18959 -8533 0
-18959 -18958 0
18957 18958 -8534 0
-18957 -8530 0
-18957 -18956 0
18955 18956 -8531 0
-18955 -18954 0
18953 18954 -8528 0
-18953 -8524 0
-18953 -18952 0
18951 18952 -8525 0
-18951 -8521 0
-18951 -18950 0
18949 -8522 18950 0
-18949 -8518 0
-18949 -8519 0
-8543 18947 18948 0
-5343 -18947 0
-18946 -18947 0
18945 -5345 18946 0
-18945 -5340 0
-18945 -18944 0
18944 18943 -5342 0
-18943 -5337 0
-18943 -18942 0
18942 18941 -5339 0
-18941 -5334 0
-18941 -18940 0
18940 18939 -5336 0
-18939 -5331 0
-18939 -18938 0
18938 18937 -5333 0
-18937 -5328 0
-18937 -18936 0
18936 18935 -5330 0
-18935 -5325 0
-18935 -5327 0
18933 -3058 18934 0
-18929 -18933 0
-18932 -18933 0
18928 -18931 18932 0
-18931 -18929 0
18931 18930 18929 0
-18930 2418 0
-18930 -2516 0
-18928 -18924 0
-18928 -18927 0
18927 18923 -18926 0
-18926 -18924 0
18924 18926 18925 0
-18925 2417 0
-18925 -2515 0
-18923 -18919 0
-18923 -18922 0
18918 -18921 18922 0
-18921 -18919 0
18919 18921 18920 0
-18920 2416 0
-18920 -2514 0
-18918 -18914 0
-18918 -18917 0
18913 -18916 18917 0
18914 18916 18915 0
-18915 2415 0
-18915 -2513 0
-18913 -18909 0
-18911 -18909 0
18909 18910 18911 0
-18910 -2512 0
18909 2414 -2512 0
-2415 -18914 0
2513 -18914 0
18914 2415 -2513 0
-2416 -18919 0
-18919 2514 0
18919 2416 -2514 0
-2417 -18924 0
-18924 2515 0
18924 -2515 2417 0
-18929 -2418 0
2516 -18929 0
2418 -2516 18929 0
-8369 18884 18885 0
18881 18882 18880 0
-18881 2404 0
18875 18876 18877 0
-18876 2403 0
-18875 1850 0
-18880 1851 0
-3483 18849 18850 0
-18849 -18848 0
18848 18847 -5758 0
-18847 -18846 0
18846 18845 -5755 0
-18845 -18844 0
18844 18843 -5752 0
-18843 -18842 0
18842 18841 -5749 0
-18841 -18840 0
18840 18839 -5746 0
-18839 -18838 0
18838 18837 -5743 0
-18837 -5740 0
18835 -5322 18836 0
-18834 -18835 0
18833 18834 -8508 0
-18833 -8504 0
-18833 -18832 0
18831 18832 -8505 0
-18831 -8501 0
-18831 -18830 0
18829 18830 -8502 0
-18829 -8498 0
-18829 -18828 0
18827 18828 -8499 0
-18827 -8495 0
18821 -8514 18822 0
-5314 -18821 0
-18820 -18821 0
18819 -5316 18820 0
-18819 -5311 0
-18819 -18818 0
18818 18817 -5313 0
-18817 -5308 0
-18817 -18816 0
18816 18815 -5310 0
-18815 -5305 0
-18815 -18814 0
18814 18813 -5307 0
-18813 -5302 0
-18813 -18812 0
18812 18811 -5304 0
-18811 -5299 0
-18811 -18810 0
18810 18809 -5301 0
-18809 -5296 0
-18809 -5298 0
18807 -3058 18808 0
-18803 -18807 0
-18806 -18807 0
18802 -18805 18806 0
-18805 -18803 0
18805 18804 18803 0
-18804 2404 0
-18804 -2502 0
-18802 -18798 0
-18802 -18801 0
18801 18797 -18800 0
-18800 -18798 0
-18799 -18800 0
18798 18800 18799 0
-18799 2403 0
-2501 -18799 0
18799 -2403 2501 0
-18797 -18793 0
-18797 -18796 0
18792 -18795 18796 0
-18795 -18793 0
18795 18794 18793 0
-18794 2402 0
-18794 -2500 0
-18792 -18788 0
-18792 -18791 0
18787 -18790 18791 0
-18790 -18788 0
18788 18790 18789 0
-18789 2401 0
-18789 -2499 0
-18787 -18783 0
18783 -2498 2400 0
-2401 -18788 0
2499 -18788 0
18788 -2499 2401 0
-18793 -2402 0
2500 -18793 0
18793 2402 -2500 0
-2403 -18798 0
-18798 2501 0
18798 -2501 2403 0
-18803 -2404 0
2502 -18803 0
2404 -2502 18803 0
-8369 18772 18773 0
-18768 -18772 0
18769 18770 18768 0
-18769 2390 0
18764 18763 18765 0
-18764 2389 0
-18763 1836 0
1837 -18768 0
2390 -1837 18768 0
18737 -5293 18738 0
-8478 -18737 0
-18736 -18737 0
18735 -8479 18736 0
-18735 -8475 0
-18735 -18734 0
18733 18734 -8476 0
-18733 -8472 0
-18733 -18732 0
18731 18732 -8473 0
-18731 -8469 0
-8485 18723 18724 0
-5285 -18723 0
-18722 -18723 0
18721 -5287 18722 0
-18721 -5282 0
-18721 -18720 0
18720 18719 -5284 0
-18719 -5279 0
-18719 -18718 0
18718 18717 -5281 0
-18717 -5276 0
-18717 -18716 0
18716 18715 -5278 0
-18715 -5273 0
-18715 -18714 0
18714 18713 -5275 0
-18713 -5270 0
-18713 -18712 0
18712 18711 -5272 0
-18711 -5267 0
-18711 -5269 0
18709 -3058 18710 0
-18705 -18709 0
-18708 -18709 0
-18707 18704 18708 0
-18707 -18705 0
-18706 -18707 0
18707 18705 18706 0
2390 -18706 0
-18706 -2488 0
2488 -2390 18706 0
-18704 -18700 0
-18704 -18703 0
18699 -18702 18703 0
-18702 -18700 0
-18701 -18702 0
18700 18702 18701 0
-18701 2389 0
-2487 -18701 0
18701 -2389 2487 0
-18699 -18695 0
-18699 -18698 0
18694 -18697 18698 0
-18697 -18695 0
18697 18695 18696 0
-18696 2388 0
-18696 -2486 0
18696 2486 -2388 0
-18694 -18690 0
-18694 -18693 0
18689 -18692 18693 0
-18692 -18690 0
18690 18692 18691 0
2387 -18691 0
-2485 -18691 0
18691 2485 -2387 0
-18689 -18685 0
18685 18687 18686 0
2386 -18686 0
-2484 -18686 0
18686 2484 -2386 0
-18682 -18681 0
18681 18682 18680 0
2385 -18681 0
18681 2483 -2385 0
18677 18676 18678 0
-18676 2482 0
-18680 -2385 0
-18680 2483 0
-18685 -2386 0
2484 -18685 0
18685 -2484 2386 0
-18690 -2387 0
2485 -18690 0
18690 -2485 2387 0
-18695 -2388 0
2486 -18695 0
18695 -2486 2388 0
-2389 -18700 0
-18700 2487 0
18700 -2487 2389 0
-18705 -2390 0
2488 -18705 0
2390 -2488 18705 0
18358 -10489 18675 0
-8369 18673 18674 0
-10481 -18673 0
-18672 -18673 0
18671 18672 -10483 0
-18671 -10478 0
-18671 -18670 0
18669 18670 -10480 0
-18669 -10475 0
-18669 -18668 0
18667 18668 -10477 0
-18667 -10472 0
-18667 -18666 0
18665 -10474 18666 0
-18665 -10469 0
-18665 -18664 0
18663 18664 -10471 0
-18663 -10466 0
-18663 -18662 0
18661 -10468 18662 0
-18661 -10463 0
-18661 -10465 0
-3425 18659 18660 0
-18655 -18659 0
-18658 -18659 0
18654 -18657 18658 0
18657 18656 18655 0
-18656 -2334 0
-18656 2376 0
-18654 -18650 0
-18654 -18653 0
18653 18649 -18652 0
18652 18650 18651 0
-18651 -2333 0
-18651 2375 0
-18649 -18645 0
-18649 -18648 0
18648 18644 -18647 0
18647 18645 18646 0
-18646 -2332 0
-18646 2374 0
2332 -2374 18646 0
-18644 -18640 0
-18644 -18643 0
18643 18639 -18642 0
18642 18640 18641 0
-18641 -2331 0
-18641 2373 0
2331 -2373 18641 0
-18639 -18635 0
-18639 -18638 0
18638 18634 -18637 0
18637 18635 18636 0
-18636 -2330 0
-18636 2372 0
-18634 -18630 0
-18634 -18633 0
18633 18629 -18632 0
18632 18630 18631 0
-18631 -2329 0
-18631 2371 0
-18629 -18626 0
-18629 -18628 0
18628 18626 18627 0
-18627 -2328 0
-18627 2370 0
-2329 18630 2371 0
-18635 2330 0
-18635 -2372 0
-2330 18635 2372 0
-18640 2331 0
-18640 -2373 0
-2331 18640 2373 0
-18645 2332 0
-18645 -2374 0
-2332 18645 2374 0
-18650 2333 0
-18650 -2375 0
-2333 18650 2375 0
-18655 2334 0
-18655 -2376 0
2376 -2334 18655 0
18624 -8456 18625 0
-16375 -18624 0
-18623 -18624 0
-16377 18622 18623 0
-18622 -16372 0
-18622 -18621 0
18621 18620 -16374 0
-18620 -16369 0
-18620 -18619 0
18618 -16371 18619 0
-18618 -16366 0
-18618 -18617 0
18616 -16368 18617 0
-18616 -16363 0
-18616 -18615 0
18614 -16365 18615 0
-18614 -16360 0
-18614 -18613 0
18612 -16362 18613 0
-18612 -16357 0
-18612 -16359 0
18610 -3058 18611 0
-18606 -18610 0
-18609 -18610 0
18605 -18608 18609 0
-18608 -18607 0
18608 18606 18607 0
-18607 2376 0
-18607 -2474 0
2474 -2376 18607 0
-18605 -18601 0
-18605 -18604 0
18600 18604 -18603 0
-18601 -18603 0
-18603 -18602 0
18603 18602 18601 0
-18602 2375 0
-18602 -2473 0
-2375 18602 2473 0
-18600 -18596 0
-18600 -18599 0
18595 18599 -18598 0
-18598 -18597 0
18598 18597 18596 0
-18597 2374 0
-18597 -2472 0
-2374 18597 2472 0
-18595 -18591 0
-18595 -18594 0
18590 18594 -18593 0
-18591 -18593 0
-18593 -18592 0
18593 18592 18591 0
-18592 2373 0
-18592 -2471 0
-2373 18592 2471 0
-18590 -18586 0
-18590 -18589 0
18585 18589 -18588 0
-18586 -18588 0
-18588 -18587 0
18588 18587 18586 0
-18587 2372 0
-18587 -2470 0
-2372 18587 2470 0
-18585 -18581 0
-18585 -18584 0
18580 18584 -18583 0
-18581 -18583 0
18583 18582 18581 0
-18582 2371 0
-18582 -2469 0
-2371 18582 2469 0
-18580 -18577 0
-18580 -18579 0
18579 18578 18577 0
-18578 2370 0
-18578 -2468 0
-18577 2468 0
-18581 -2371 0
-18581 2469 0
18581 -2469 2371 0
-18586 -2372 0
-18586 2470 0
18586 -2470 2372 0
-18591 -2373 0
-18591 2471 0
18591 -2471 2373 0
-18596 -2374 0
-18596 2472 0
18596 -2472 2374 0
-18601 -2375 0
-18601 2473 0
18601 -2473 2375 0
-18606 -2376 0
-18606 2474 0
2376 -2474 18606 0
-18575 18468 0
18574 -18575 0
-18574 -18468 18575 0
-18574 18463 0
-18574 18573 0
18574 -18573 -18463 0
-18573 18458 0
18572 -18573 0
-18572 18573 -18458 0
-18572 18453 0
-18572 18571 0
18572 -18571 -18453 0
-18571 18448 0
18570 -18571 0
-18570 18571 -18448 0
-18570 18439 0
-18570 18443 0
18570 -18439 -18443 0
-16920 -18569 0
18568 -18569 0
-16921 -18568 0
18567 -18568 0
18566 -18567 0
-16991 -18566 0
18565 -18566 0
-16992 -18565 0
18564 -18565 0
-17027 -18564 0
18563 -18564 0
-17062 -18563 0
18562 -18563 0
-17063 -18562 0
18561 -18562 0
18560 -18561 0
-17133 -18560 0
18559 -18560 0
-17134 -18559 0
18558 -18559 0
18557 -18558 0
-17204 -18557 0
18556 -18557 0
-17205 -18556 0
18555 -18556 0
-17240 -18555 0
18554 -18555 0
18553 -18554 0
-17255 -18553 0
18552 -18553 0
-17256 -18552 0
18551 -18552 0
-17270 -18551 0
18550 -18551 0
-17305 -18550 0
18549 -18550 0
-17319 -18549 0
18548 -18549 0
-17354 -18548 0
18547 -18548 0
-17355 -18547 0
18546 -18547 0
-17390 -18546 0
18545 -18546 0
-17425 -18545 0
18544 -18545 0
-17426 -18544 0
18543 -18544 0
-17461 -18543 0
18542 -18543 0
-17496 -18542 0
18541 -18542 0
-17497 -18541 0
18540 -18541 0
-17532 -18540 0
18539 -18540 0
-17567 -18539 0
18538 -18539 0
-17568 -18538 0
18537 -18538 0
-17603 -18537 0
18536 -18537 0
18535 -18536 0
-17645 -18535 0
18534 -18535 0
-17680 -18534 0
18533 -18534 0
-17694 -18533 0
18532 -18533 0
-17729 -18532 0
18531 -18532 0
-17764 -18531 0
18530 -18531 0
-17799 -18530 0
18529 -18530 0
-17834 -18529 0
18528 -18529 0
-17869 -18528 0
18527 -18528 0
-17904 -18527 0
18526 -18527 0
-17939 -18526 0
18525 -18526 0
-17974 -18525 0
18524 -18525 0
-18009 -18524 0
18523 -18524 0
-18044 -18523 0
18522 -18523 0
-18079 -18522 0
18521 -18522 0
18520 -18521 0
18519 -18520 0
18518 -18519 0
18517 -18518 0
18516 -18517 0
-18268 -18516 0
18515 -18516 0
-18282 -18515 0
18514 -18515 0
-18296 -18514 0
18513 -18514 0
-18331 -18513 0
18512 -18513 0
-18345 -18512 0
18511 -18512 0
-18359 -18511 0
18510 -18511 0
18509 -18510 0
-18401 -18509 0
18508 -18509 0
-18436 -18508 0
18507 -18508 0
-18471 -18507 0
-18506 -18507 0
-8369 18505 18506 0
-18501 -18505 0
-18504 -18505 0
-18503 18500 18504 0
-18503 -18501 0
18503 18502 18501 0
-18502 -1809 0
-18502 2362 0
-18500 -18496 0
-18500 -18499 0
18499 18495 -18498 0
-18498 -18496 0
18496 18497 18498 0
-18497 -1808 0
-18497 2361 0
-18495 -18491 0
-18495 -18494 0
18490 -18493 18494 0
18492 18493 18491 0
-18492 -1807 0
-18492 2360 0
18492 1807 -2360 0
-18490 -18486 0
-18490 -18489 0
18485 -18488 18489 0
-18488 -18486 0
18486 18487 18488 0
-18487 -1806 0
-18487 2359 0
-18485 -18481 0
-18485 -18484 0
18480 -18483 18484 0
18482 18483 18481 0
-18482 -1805 0
2358 -18482 0
18482 -2358 1805 0
-18480 -18476 0
-18480 -18479 0
18475 -18478 18479 0
18477 18476 18478 0
-18477 2357 0
-18475 -18472 0
-18475 -18474 0
18473 18472 18474 0
-18473 -1803 0
2357 18476 -1804 0
1805 -18481 0
-18481 -2358 0
18481 2358 -1805 0
1806 -18486 0
-18486 -2359 0
18486 2359 -1806 0
-18491 1807 0
-18491 -2360 0
18491 2360 -1807 0
-18496 1808 0
-2361 -18496 0
18496 2361 -1808 0
1809 -18501 0
-18501 -2362 0
2362 -1809 18501 0
-3396 18470 18471 0
-18466 -18470 0
-18469 -18470 0
-18468 18465 18469 0
-18468 -18466 0
-18467 -18468 0
18468 18467 18466 0
-18467 -2334 0
-18467 2362 0
18467 2334 -2362 0
-18465 -18461 0
-18465 -18464 0
18460 -18463 18464 0
-18463 -18461 0
18462 18461 18463 0
-18462 -2333 0
-18462 2361 0
-18460 -18456 0
-18460 -18459 0
18455 -18458 18459 0
-18458 -18456 0
18457 18456 18458 0
-18457 -2332 0
-18457 2360 0
-18455 -18451 0
-18455 -18454 0
18450 -18453 18454 0
-18453 -18451 0
18452 18451 18453 0
-18452 -2331 0
-18452 2359 0
-18450 -18446 0
-18450 -18449 0
18445 -18448 18449 0
-18448 -18446 0
18447 18446 18448 0
-18447 -2330 0
-18447 2358 0
-18445 -18441 0
-18445 -18444 0
18444 -18443 18440 0
18442 18441 18443 0
-18442 -2329 0
-18442 2357 0
-18440 -18437 0
-18440 -18439 0
18438 18437 18439 0
-18438 -2328 0
-18438 2356 0
2328 -18437 0
-2356 -18437 0
18437 -2328 2356 0
-18441 2329 0
-2357 -18441 0
18441 2357 -2329 0
-18446 2330 0
-18446 -2358 0
2358 18446 -2330 0
-18451 2331 0
-18451 -2359 0
18451 2359 -2331 0
-18456 2332 0
-18456 -2360 0
18456 2360 -2332 0
-18461 2333 0
-2361 -18461 0
18461 2361 -2333 0
-18466 2334 0
-18466 -2362 0
2362 -2334 18466 0
-8427 18435 18436 0
-18431 -18435 0
-18434 -18435 0
18430 -18433 18434 0
18433 18432 18431 0
-18432 -1767 0
-18432 2362 0
-18430 -18426 0
-18430 -18429 0
18429 18425 -18428 0
18427 18426 18428 0
-18427 -1766 0
-18427 2361 0
-18425 -18421 0
-18425 -18424 0
18424 18420 -18423 0
18422 18421 18423 0
-18422 -1765 0
-18422 2360 0
-18420 -18416 0
-18420 -18419 0
18419 18415 -18418 0
18417 18416 18418 0
-18417 -1764 0
-18417 2359 0
-18415 -18411 0
-18415 -18414 0
18414 18410 -18413 0
18412 18411 18413 0
-18412 -1763 0
-18412 2358 0
-18410 -18406 0
-18410 -18409 0
18409 18405 -18408 0
18407 18406 18408 0
-18407 -1762 0
-18407 2357 0
-18405 -18402 0
-18405 -18404 0
18404 18402 18403 0
-18403 -1761 0
-18403 2356 0
-18411 -2358 0
2358 18411 -1763 0
1764 -18416 0
2359 18416 -1764 0
-18421 1765 0
-18421 -2360 0
2360 18421 -1765 0
-18426 1766 0
-2361 -18426 0
18426 2361 -1766 0
2362 -1767 18431 0
18400 -3058 18401 0
-18396 -18400 0
-18399 -18400 0
-18398 18395 18399 0
18398 18396 18397 0
2362 -18397 0
-18397 -2460 0
2460 -2362 18397 0
-18395 -18391 0
-18395 -18394 0
18390 -18393 18394 0
18391 18392 18393 0
-18392 2361 0
-2459 -18392 0
18392 -2361 2459 0
-18390 -18386 0
-18390 -18389 0
18385 -18388 18389 0
18387 18388 18386 0
-18387 2360 0
-18387 -2458 0
18387 2458 -2360 0
-18385 -18381 0
-18385 -18384 0
18380 -18383 18384 0
18382 18383 18381 0
2359 -18382 0
-18382 -2457 0
18382 -2359 2457 0
-18380 -18376 0
-18380 -18379 0
18375 -18378 18379 0
18377 18378 18376 0
-18377 2358 0
-18377 -2456 0
-18375 -18371 0
-18375 -18374 0
18370 -18373 18374 0
18372 18373 18371 0
-18372 2357 0
-18370 -18367 0
-18370 -18369 0
18368 18367 18369 0
-18368 -2454 0
18371 2357 -2455 0
-18376 -2358 0
18376 2358 -2456 0
-2359 -18381 0
2457 -18381 0
18381 2359 -2457 0
-18386 -2360 0
-18386 2458 0
18386 2360 -2458 0
-2361 -18391 0
-18391 2459 0
18391 -2459 2361 0
-18396 -2362 0
2460 -18396 0
2362 -2460 18396 0
18328 -18365 0
18364 -18365 0
-18364 18365 -18328 0
18323 -18364 0
18363 -18364 0
18364 -18363 -18323 0
18318 -18363 0
18362 -18363 0
-18362 18363 -18318 0
18313 -18362 0
18361 -18362 0
18362 -18361 -18313 0
18308 -18361 0
18360 -18361 0
-18360 18361 -18308 0
18299 -18360 0
18303 -18360 0
18360 -18299 -18303 0
18358 -6462 18359 0
-8362 -18358 0
-18357 -18358 0
18356 -8363 18357 0
-18356 -8359 0
-18356 -18355 0
18355 18354 -8360 0
-18354 -8356 0
-18354 -18353 0
18353 18352 -8357 0
-18352 -8353 0
-18352 -18351 0
18351 18350 -8354 0
-18350 -8350 0
-18350 -18349 0
18349 18348 -8351 0
-18348 -18347 0
18347 18346 -8348 0
-18346 -8344 0
-18346 -8345 0
18344 -8369 18345 0
-6454 -18344 0
-18343 -18344 0
18342 18343 -6456 0
-18342 -6451 0
-18341 -18342 0
18340 18341 -6453 0
-18340 -6448 0
-18339 -18340 0
18338 18339 -6450 0
-18338 -6445 0
-18337 -18338 0
18336 18337 -6447 0
-18336 -6442 0
-18336 -18335 0
18334 18335 -6444 0
-18334 -6439 0
-18334 -18333 0
18332 18333 -6441 0
-18332 -6436 0
-18332 -6438 0
-3304 18330 18331 0
-18326 -18330 0
-18330 -18329 0
18329 18325 -18328 0
-18326 -18328 0
18328 18327 18326 0
-18327 -2334 0
-18327 2348 0
-18325 -18321 0
-18325 -18324 0
18324 18320 -18323 0
-18321 -18323 0
18322 18323 18321 0
-18322 -2333 0
-18322 2347 0
-18320 -18316 0
-18320 -18319 0
18319 18315 -18318 0
-18316 -18318 0
18317 18318 18316 0
-18317 -2332 0
-18317 2346 0
-18315 -18311 0
-18315 -18314 0
18314 18310 -18313 0
18312 18311 18313 0
-18312 -2331 0
-18312 2345 0
-18310 -18306 0
-18310 -18309 0
18309 18305 -18308 0
18307 18306 18308 0
-18307 -2330 0
-18307 2344 0
-18305 -18301 0
-18305 -18304 0
18304 18300 -18303 0
-18301 -18303 0
18302 18303 18301 0
-18302 -2329 0
-18302 2343 0
-18300 -18297 0
-18300 -18299 0
-18297 -18299 0
18299 18297 18298 0
-18298 -2328 0
-18298 2342 0
2328 -18297 0
-2342 -18297 0
-2328 2342 18297 0
-18301 2329 0
-2343 -18301 0
2343 -2329 18301 0
-18306 2330 0
-2344 -18306 0
18306 2344 -2330 0
-18311 2331 0
-2345 -18311 0
18311 2345 -2331 0
-18316 2332 0
-18316 -2346 0
2346 -2332 18316 0
-18321 2333 0
-18321 -2347 0
2347 -2333 18321 0
-18326 2334 0
-18326 -2348 0
2348 -2334 18326 0
18295 -7486 18296 0
-3050 -18295 0
-18294 -18295 0
18293 -3052 18294 0
-18293 -18292 0
18292 18291 -3049 0
-18291 -18290 0
18290 18289 -3046 0
-18289 -18288 0
18288 18287 -3043 0
-18287 -18286 0
18286 18285 -3040 0
-18285 -18284 0
18284 18283 -3037 0
-18283 -3034 0
-8398 18281 18282 0
-16180 -18281 0
-18280 -18281 0
18279 -16182 18280 0
-18279 -16177 0
-18279 -18278 0
18278 18277 -16179 0
-18277 -16174 0
-18277 -18276 0
18276 -16176 18275 0
-18275 -16171 0
18267 -3058 18268 0
-18266 -18267 0
18265 18266 -7480 0
-18265 -7476 0
-18265 -18264 0
18263 18264 -7477 0
-18263 -7473 0
-18263 -18262 0
18261 18262 -7474 0
-18261 -7470 0
-18261 -18260 0
18259 18260 -7471 0
-18259 -7467 0
-18251 -18250 0
18251 18249 18250 0
2306 -2320 18250 0
-18244 -18246 0
-18246 -18245 0
18246 18244 18245 0
-18245 -2305 0
-18245 2319 0
18245 -2319 2305 0
-18239 -18241 0
-18241 -18240 0
18241 18239 18240 0
-18240 -2304 0
-18240 2318 0
18240 -2318 2304 0
-18234 -18236 0
18234 18236 18235 0
-18235 -2303 0
-18235 2317 0
18235 -2317 2303 0
-18231 -18230 0
18230 18229 18231 0
-18230 -2302 0
-18230 2316 0
18230 -2316 2302 0
-18226 -18225 0
18225 18224 18226 0
-18225 -2301 0
-18225 2315 0
18225 2301 -2315 0
18221 18220 18222 0
-18220 2300 0
-18220 -2314 0
-18224 2301 0
-18224 -2315 0
-18229 2302 0
-18229 -2316 0
-18234 2303 0
-18234 -2317 0
18234 -2303 2317 0
-18239 2304 0
-18239 -2318 0
18239 -2304 2318 0
-18244 2305 0
-18244 -2319 0
18244 -2305 2319 0
-18249 2306 0
-18249 -2320 0
2320 18249 -2306 0
18216 18214 18215 0
-18209 -18211 0
18211 18209 18210 0
-18210 -2291 0
-18210 2319 0
18210 -2319 2291 0
-18204 -18206 0
18206 18204 18205 0
-18205 -2290 0
-18205 2318 0
18205 -2318 2290 0
18201 18200 18199 0
-18200 -2289 0
-18200 2317 0
18200 -2317 2289 0
-18196 -18195 0
18195 18194 18196 0
-18195 -2288 0
-18195 2316 0
18195 -2316 2288 0
-18191 -18190 0
18190 18189 18191 0
-18190 -2287 0
-18190 2315 0
18190 2287 -2315 0
18186 18185 18187 0
-18185 2286 0
-18185 -2314 0
-18189 2287 0
-18189 -2315 0
-18194 2288 0
-18194 -2316 0
-18199 2289 0
-18199 -2317 0
-18204 2290 0
-18204 -2318 0
18204 -2290 2318 0
-18209 2291 0
-18209 -2319 0
18209 -2291 2319 0
-18214 2292 0
-18214 -2320 0
18181 18179 18180 0
2292 -2306 18180 0
-18174 -18176 0
-18176 -18175 0
18176 18174 18175 0
-18175 -2291 0
-18175 2305 0
18175 -2305 2291 0
-18169 -18171 0
-18171 -18170 0
18171 18169 18170 0
-18170 -2290 0
-18170 2304 0
18170 -2304 2290 0
-18164 -18166 0
18165 18166 18164 0
-18165 -2289 0
-18165 2303 0
18165 2289 -2303 0
18160 18159 18161 0
-18160 -2288 0
-18160 2302 0
18160 2288 -2302 0
-18156 -18155 0
18155 18154 18156 0
-18155 -2287 0
-18155 2301 0
18155 2287 -2301 0
18151 18150 18152 0
-18150 2286 0
-18150 -2300 0
-18154 2287 0
-18154 -2301 0
-18159 2288 0
-18159 -2302 0
-18164 2289 0
-18164 -2303 0
18164 -2289 2303 0
-18169 2290 0
-18169 -2304 0
18169 -2290 2304 0
-18174 2291 0
-18174 -2305 0
-2291 18174 2305 0
-18179 2292 0
-18179 -2306 0
18179 2306 -2292 0
18146 18144 18145 0
-18139 -18141 0
-18141 -18140 0
18141 18139 18140 0
-18140 -2277 0
-18140 2305 0
18140 -2305 2277 0
-18134 -18136 0
18136 18134 18135 0
-18135 -2276 0
-18135 2304 0
18135 -2304 2276 0
-18129 -18131 0
-18131 -18130 0
18130 18129 18131 0
-18130 -2275 0
-18130 2303 0
18130 2275 -2303 0
-18126 -18125 0
18125 18124 18126 0
-18125 -2274 0
-18125 2302 0
18125 2274 -2302 0
-18121 -18120 0
18120 18119 18121 0
-18120 -2273 0
-18120 2301 0
18120 2273 -2301 0
18116 18115 18117 0
-18115 2272 0
-18115 -2300 0
-18119 2273 0
-18119 -2301 0
-18124 2274 0
-18124 -2302 0
-18129 2275 0
-18129 -2303 0
18129 -2275 2303 0
-18134 2276 0
-18134 -2304 0
18134 -2276 2304 0
-18139 2277 0
-18139 -2305 0
-2277 18139 2305 0
-18144 2278 0
-18144 -2306 0
18111 18109 18110 0
2278 -2292 18110 0
-18104 -18106 0
-18106 -18105 0
18106 18104 18105 0
-18105 -2277 0
-18105 2291 0
18105 -2291 2277 0
-18099 -18101 0
-18101 -18100 0
18101 18099 18100 0
-18100 -2276 0
-18100 2290 0
18100 -2290 2276 0
-18096 -18095 0
18094 18096 18095 0
-18095 -2275 0
-18095 2289 0
18095 2275 -2289 0
-18091 -18090 0
18090 18089 18091 0
-18090 -2274 0
-18090 2288 0
18090 2274 -2288 0
-18086 -18085 0
18085 18084 18086 0
-18085 -2273 0
-18085 2287 0
18085 2273 -2287 0
18081 18080 18082 0
-18080 2272 0
-18080 -2286 0
-18084 2273 0
-18084 -2287 0
-18089 2274 0
-18089 -2288 0
-18094 2275 0
-18094 -2289 0
-18099 2276 0
-18099 -2290 0
18099 -2276 2290 0
-18104 2277 0
-18104 -2291 0
-2277 18104 2291 0
-18109 2278 0
-18109 -2292 0
18109 2292 -2278 0
-10460 18078 18079 0
-18074 -18078 0
-18077 -18078 0
18073 -18076 18077 0
18076 18075 18074 0
-18075 2320 0
-18073 -18069 0
-18073 -18072 0
18072 18068 -18071 0
18069 18071 18070 0
-18070 2319 0
-18070 -3247 0
-18068 -18064 0
-18068 -18067 0
18067 18063 -18066 0
18064 18066 18065 0
-18065 2318 0
-18063 -18059 0
18059 -3245 2317 0
-3246 18064 2318 0
-3247 18069 2319 0
-3248 2320 18074 0
18043 -10460 18044 0
-18039 -18043 0
-18042 -18043 0
18038 -18041 18042 0
18041 18040 18039 0
-18040 2306 0
-18040 -3212 0
3212 18040 -2306 0
-18038 -18034 0
-18038 -18037 0
18037 18033 -18036 0
18034 18036 18035 0
-18035 2305 0
-18035 -3211 0
-18033 -18029 0
-18033 -18032 0
18032 18028 -18031 0
18029 18031 18030 0
-18030 2304 0
-18030 -3210 0
-18028 -18024 0
18024 -3209 2303 0
-3210 18029 2304 0
-3211 18034 2305 0
-3212 2306 18039 0
18008 -10460 18009 0
-18004 -18008 0
-18007 -18008 0
18003 -18006 18007 0
18006 18005 18004 0
-18005 -1851 0
-18005 2292 0
-18003 -18002 0
18002 17998 -18001 0
17999 18001 18000 0
-18000 -1850 0
-18000 2291 0
-17998 -17994 0
-17998 -17997 0
17997 17993 -17996 0
17994 17996 17995 0
-17995 -1849 0
-17995 2290 0
-17993 -17989 0
-17993 -17992 0
17992 17988 -17991 0
17990 17989 17991 0
-17990 -1848 0
-17990 2289 0
-17988 -17984 0
17984 -1847 2288 0
1848 -17989 0
17989 -1848 2289 0
17994 -1849 2290 0
-17999 1850 0
-17999 -2291 0
2292 -1851 18004 0
17973 -10460 17974 0
-17969 -17973 0
-17972 -17973 0
17968 -17971 17972 0
17971 17970 17969 0
-17970 2278 0
-17968 -17964 0
-17968 -17967 0
17967 17963 -17966 0
17964 17966 17965 0
-17965 -1836 0
-17965 2277 0
-17963 -17959 0
-17963 -17962 0
17962 17958 -17961 0
17959 17961 17960 0
-17960 -1835 0
-17960 2276 0
-17958 -17954 0
-17958 -17957 0
17957 17953 -17956 0
17955 17954 17956 0
-17955 -1834 0
-17953 -17949 0
-1833 17949 2274 0
-1834 17954 2275 0
17959 -1835 2276 0
-17964 1836 0
-17964 -2277 0
2278 -1837 17969 0
-3860 17938 17939 0
-17934 -17938 0
-17937 -17938 0
-17936 17933 17937 0
-17936 -17934 0
-17935 -17936 0
17936 17934 17935 0
-17935 -2250 0
-17935 2320 0
2250 -2320 17935 0
-17933 -17929 0
-17933 -17932 0
17932 17928 -17931 0
-17931 -17929 0
-17930 -17931 0
17931 17930 17929 0
-17930 -2249 0
-17930 2319 0
17930 -2319 2249 0
-17928 -17924 0
-17928 -17927 0
17923 -17926 17927 0
-17926 -17924 0
17926 17925 17924 0
-17925 -2248 0
-17925 2318 0
17925 -2318 2248 0
-17923 -17919 0
-17923 -17922 0
17918 -17921 17922 0
-17921 -17919 0
-17920 -17921 0
17919 17921 17920 0
-17920 -2247 0
-17920 2317 0
17920 2247 -2317 0
-17918 -17914 0
-17915 -17916 0
17915 17916 17914 0
-17915 2316 0
17915 2246 -2316 0
17910 2245 -2315 0
-17914 2246 0
-17914 -2316 0
17914 -2246 2316 0
-17919 2247 0
-17919 -2317 0
17919 -2247 2317 0
-17924 2248 0
-17924 -2318 0
17924 -2248 2318 0
-17929 2249 0
-17929 -2319 0
17929 -2249 2319 0
-17934 2250 0
-17934 -2320 0
2320 -2250 17934 0
-3000 17903 17904 0
-17899 -17903 0
-17902 -17903 0
-17901 17898 17902 0
-17901 -17899 0
-17900 -17901 0
17901 17899 17900 0
-17900 2320 0
-17900 -2684 0
2684 -2320 17900 0
-17898 -17894 0
-17898 -17897 0
17897 17893 -17896 0
-17896 -17894 0
17894 17896 17895 0
-17895 2319 0
-2683 -17895 0
2683 -2319 17895 0
-17893 -17889 0
-17893 -17892 0
17888 -17891 17892 0
17889 17891 17890 0
-17890 2318 0
-17890 -2682 0
2682 -2318 17890 0
-17888 -17884 0
-17888 -17887 0
17883 -17886 17887 0
-17885 -17886 0
17884 17886 17885 0
-17885 2317 0
-17885 -2681 0
2681 17885 -2317 0
-17883 -17879 0
-17883 -17882 0
17878 -17881 17882 0
17879 17880 17881 0
-17880 2316 0
-2680 -17880 0
2680 17880 -2316 0
-17878 -17874 0
-17878 -17877 0
17873 -17876 17877 0
17875 17874 17876 0
-17875 2315 0
-17875 -2679 0
-17873 -17870 0
-17873 -17872 0
17871 17870 17872 0
-17871 2314 0
-17871 -2678 0
-2679 17874 2315 0
-17879 -2316 0
2680 -17879 0
17879 -2680 2316 0
-17884 -2317 0
2681 -17884 0
17884 -2681 2317 0
-17889 -2318 0
-17889 2682 0
17889 -2682 2318 0
-17894 -2319 0
-17894 2683 0
17894 -2683 2319 0
-17899 -2320 0
2684 -17899 0
2320 -2684 17899 0
-3831 17868 17869 0
-17864 -17868 0
-17867 -17868 0
-17866 17863 17867 0
-17866 -17864 0
-17865 -17866 0
17866 17864 17865 0
-17865 -2250 0
-17865 2306 0
2250 -2306 17865 0
-17863 -17859 0
-17863 -17862 0
17862 17858 -17861 0
-17860 -17861 0
17861 17860 17859 0
-17860 -2249 0
-17860 2305 0
-2305 17860 2249 0
-17858 -17854 0
-17858 -17857 0
17853 -17856 17857 0
-17856 -17854 0
-17855 -17856 0
17856 17855 17854 0
-17855 -2248 0
-17855 2304 0
-2304 17855 2248 0
-17853 -17849 0
-17853 -17852 0
17848 -17851 17852 0
-17851 -17849 0
-17850 -17851 0
17849 17850 17851 0
-17850 -2247 0
-17850 2303 0
17850 2247 -2303 0
-17848 -17844 0
-17848 -17847 0
17843 -17846 17847 0
-17846 -17844 0
-17845 -17846 0
17845 17846 17844 0
-17845 -2246 0
-17845 2302 0
17845 2246 -2302 0
-17843 -17839 0
-17843 -17842 0
17838 -17841 17842 0
17839 17840 17841 0
-17840 2301 0
-17838 -17835 0
-17838 -17837 0
17835 17836 17837 0
-17836 -2244 0
-17839 2245 0
17839 -2245 2301 0
-17844 2246 0
-17844 -2302 0
17844 -2246 2302 0
-17849 2247 0
-17849 -2303 0
17849 -2247 2303 0
-17854 2248 0
-17854 -2304 0
17854 -2248 2304 0
-17859 2249 0
-17859 -2305 0
17859 -2249 2305 0
-17864 2250 0
-17864 -2306 0
2306 -2250 17864 0
-3000 17833 17834 0
-17829 -17833 0
-17832 -17833 0
-17831 17828 17832 0
-17831 -17829 0
17831 17829 17830 0
-17830 2306 0
-17830 -2670 0
2670 -2306 17830 0
-17828 -17824 0
-17828 -17827 0
17823 -17826 17827 0
17824 17826 17825 0
-17825 2305 0
-17825 -2669 0
2669 -2305 17825 0
-17823 -17819 0
-17823 -17822 0
17818 -17821 17822 0
17819 17821 17820 0
-17820 2304 0
-17820 -2668 0
2668 -2304 17820 0
-17818 -17814 0
17814 -2667 2303 0
-17819 -2304 0
-17819 2668 0
17819 -2668 2304 0
-17824 -2305 0
-17824 2669 0
17824 -2669 2305 0
-17829 -2306 0
2670 -17829 0
2306 -2670 17829 0
-3802 17798 17799 0
-17794 -17798 0
-17797 -17798 0
-17796 17793 17797 0
-17796 -17794 0
17796 17794 17795 0
-17795 -2250 0
-17795 2292 0
2250 -2292 17795 0
-17793 -17792 0
17792 17788 -17791 0
-17790 -17791 0
17791 17790 17789 0
-17790 -2249 0
-17790 2291 0
-2291 17790 2249 0
-17788 -17784 0
-17788 -17787 0
17783 -17786 17787 0
-17785 -17786 0
17786 17785 17784 0
-17785 -2248 0
-17785 2290 0
-2290 17785 2248 0
-17783 -17779 0
-17783 -17782 0
17778 -17781 17782 0
-17780 -17781 0
17779 17781 17780 0
-17780 -2247 0
-17780 2289 0
17780 2247 -2289 0
-17778 -17774 0
-17778 -17777 0
17777 -17776 17773 0
-17775 -17776 0
17775 17776 17774 0
-17775 2288 0
17775 2246 -2288 0
-17773 -17769 0
17769 -2245 2287 0
-17774 2246 0
17774 -2246 2288 0
-17779 2247 0
-17779 -2289 0
17779 -2247 2289 0
-17784 2248 0
-17784 -2290 0
17784 -2248 2290 0
-17789 2249 0
-17789 -2291 0
-17794 2250 0
-17794 -2292 0
2292 -2250 17794 0
-3773 17763 17764 0
-17759 -17763 0
-17762 -17763 0
-17761 17758 17762 0
-17761 -17759 0
17761 17759 17760 0
-17760 -2250 0
-17760 2278 0
2250 -2278 17760 0
-17758 -17757 0
17753 -17756 17757 0
-17754 -17756 0
-17755 -17756 0
17756 17755 17754 0
-17755 -2249 0
-17755 2277 0
-2277 17755 2249 0
-17753 -17749 0
-17753 -17752 0
17748 -17751 17752 0
-17751 -17749 0
-17750 -17751 0
17751 17750 17749 0
-17750 -2248 0
-17750 2276 0
-2276 17750 2248 0
-17748 -17744 0
-17748 -17747 0
17743 -17746 17747 0
-17745 -17746 0
17744 17745 17746 0
-17745 -2247 0
-17745 2275 0
17745 2247 -2275 0
-17743 -17739 0
-17743 -17742 0
17738 -17741 17742 0
-17740 -17741 0
17740 17741 17739 0
-17740 -2246 0
-17740 2274 0
17740 2246 -2274 0
-17738 -17734 0
17735 17734 17736 0
17735 2245 -2273 0
17732 17731 17730 0
-17730 2244 0
-17730 -2272 0
-17734 2245 0
-17734 -2273 0
17734 -2245 2273 0
-17739 2246 0
-17739 -2274 0
17739 -2246 2274 0
-17744 2247 0
-17744 -2275 0
17744 -2247 2275 0
-17749 2248 0
-17749 -2276 0
17749 -2248 2276 0
-17754 2249 0
-17754 -2277 0
17754 -2249 2277 0
-17759 2250 0
-17759 -2278 0
2278 -2250 17759 0
-3000 17728 17729 0
-17724 -17728 0
-17727 -17728 0
-17726 17723 17727 0
-17726 -17724 0
-17725 -17726 0
17726 17724 17725 0
-17725 2278 0
2642 -2278 17725 0
-17723 -17719 0
-17723 -17722 0
17722 17718 -17721 0
-17721 -17719 0
-17720 -17721 0
17719 17721 17720 0
-17720 2277 0
-2641 -17720 0
2641 -2277 17720 0
-17718 -17714 0
-17716 -17715 0
17714 17716 17715 0
-17715 2276 0
-17715 -2640 0
2640 -2276 17715 0
17709 17710 17711 0
-17710 2275 0
-2639 -17710 0
17710 2639 -2275 0
17704 17705 17706 0
-17705 2274 0
-2638 -17705 0
2638 17705 -2274 0
17700 17699 17701 0
17700 2637 -2273 0
17696 17695 17697 0
-17695 -2272 0
-17695 2636 0
-17699 -2273 0
-17699 2637 0
-17704 -2274 0
-17704 2638 0
-17709 -2275 0
-17709 2639 0
-17714 -2276 0
2640 -17714 0
17714 -2640 2276 0
-17719 -2277 0
-17719 2641 0
17719 -2641 2277 0
-17724 -2278 0
2642 -17724 0
2278 -2642 17724 0
17693 -10460 17694 0
-16352 -17693 0
-17692 -17693 0
17691 -16353 17692 0
-17691 -16347 0
-17691 -17690 0
17689 -16348 17690 0
-17689 -16342 0
-17689 -17688 0
17687 -16343 17688 0
-17687 -16337 0
-17687 -17686 0
17685 -16338 17686 0
-17685 -16332 0
-17685 -17684 0
17683 -16333 17684 0
-17683 -16327 0
-17683 -17682 0
17681 -16328 17682 0
-17681 -16323 0
-17681 -16324 0
-3744 17679 17680 0
-17675 -17679 0
-17678 -17679 0
-17677 17674 17678 0
-17677 -17675 0
17677 17675 17676 0
-17676 -2250 0
-17676 2264 0
2250 -2264 17676 0
-17674 -17670 0
-17674 -17673 0
17673 17669 -17672 0
-17672 -17670 0
17672 17671 17670 0
-2249 -17671 0
-17671 2263 0
17671 -2263 2249 0
-17669 -17665 0
-17669 -17668 0
17664 -17667 17668 0
-17667 -17665 0
17667 17666 17665 0
-2248 -17666 0
-17666 2262 0
17666 -2262 2248 0
-17664 -17660 0
-17664 -17663 0
17659 -17662 17663 0
-17662 -17660 0
17662 17661 17660 0
-2247 -17661 0
-17661 2261 0
2247 17661 -2261 0
-17659 -17655 0
-17659 -17658 0
17654 -17657 17658 0
-17657 -17655 0
17657 17656 17655 0
-2246 -17656 0
-17656 2260 0
2246 17656 -2260 0
-17654 -17650 0
-17654 -17653 0
17649 -17652 17653 0
17652 17651 17650 0
-2245 -17651 0
-17651 2259 0
2245 17651 -2259 0
-17649 -17646 0
-17649 -17648 0
17648 17647 17646 0
-2244 -17647 0
-17647 2258 0
2244 -17646 0
-17646 -2258 0
-17650 2245 0
-17650 -2259 0
-2245 2259 17650 0
-17655 2246 0
-17655 -2260 0
-2246 2260 17655 0
-17660 2247 0
-17660 -2261 0
-2247 2261 17660 0
-17665 2248 0
-17665 -2262 0
-2248 2262 17665 0
-17670 2249 0
-17670 -2263 0
-2249 2263 17670 0
-17675 2250 0
-17675 -2264 0
2264 -2250 17675 0
17644 -11250 17645 0
-2992 -17644 0
-17643 -17644 0
17642 -2994 17643 0
-17642 -2989 0
-17642 -17641 0
17641 17640 -2991 0
-17640 -17639 0
17639 17638 -2988 0
-17638 -2983 0
-17638 -17637 0
17637 17636 -2985 0
-17636 -2980 0
-17636 -17635 0
17635 17634 -2982 0
-17634 -17633 0
17633 17632 -2979 0
-17632 -2974 0
-17632 -2976 0
-17621 -17620 0
17621 17620 17619 0
-17620 -1808 0
17620 1808 -2627 0
-17619 1808 0
-17619 -2627 0
-17624 -17623 0
17624 17622 17623 0
-17623 2628 0
1809 -2628 17623 0
-17622 1809 0
-17622 -2628 0
-3715 17602 17603 0
-17601 -17602 0
17597 -17600 17601 0
-17598 -17600 0
17600 17598 17599 0
-17599 -2236 0
-17599 2320 0
2236 -2320 17599 0
-17597 -17593 0
-17597 -17596 0
17592 -17595 17596 0
-17593 -17595 0
17595 17594 17593 0
-17594 -2235 0
-17594 2319 0
17594 -2319 2235 0
-17592 -17588 0
-17592 -17591 0
17587 -17590 17591 0
-17588 -17590 0
17590 17589 17588 0
-17589 -2234 0
-17589 2318 0
17589 -2318 2234 0
-17587 -17583 0
-17587 -17586 0
17582 -17585 17586 0
-17583 -17585 0
17583 17585 17584 0
-17584 -2233 0
-17584 2317 0
17584 2233 -2317 0
-17582 -17578 0
-17580 -17578 0
-17579 -17580 0
17578 17580 17579 0
-17579 -2232 0
-17579 2316 0
17579 2232 -2316 0
-17574 -17575 0
17573 17574 17575 0
-17574 2315 0
17574 2231 -2315 0
17571 17570 17569 0
-17569 2230 0
-17573 2231 0
-17573 -2315 0
-17578 2232 0
-17578 -2316 0
17578 -2232 2316 0
-17583 2233 0
-17583 -2317 0
17583 -2233 2317 0
-17588 2234 0
-17588 -2318 0
17588 -2234 2318 0
-17593 2235 0
-17593 -2319 0
17593 -2235 2319 0
-17598 2236 0
-17598 -2320 0
2320 17598 -2236 0
16551 -6663 17568 0
-2971 17566 17567 0
-17562 -17566 0
-17565 -17566 0
-17564 17561 17565 0
-17564 -17562 0
-17563 -17564 0
17564 17563 17562 0
-17563 2320 0
-17563 -2614 0
2614 17563 -2320 0
-17561 -17557 0
-17561 -17560 0
17556 -17559 17560 0
17557 17559 17558 0
-17558 2319 0
-2613 -17558 0
2613 -2319 17558 0
-17556 -17552 0
-17556 -17555 0
17551 -17554 17555 0
-17553 -17554 0
17552 17554 17553 0
-17553 2318 0
-17553 -2612 0
2612 -2318 17553 0
-17551 -17547 0
-17551 -17550 0
17546 -17549 17550 0
-17549 -17547 0
17547 17548 17549 0
-17548 2317 0
-17548 -2611 0
17548 2611 -2317 0
-17546 -17542 0
-17546 -17545 0
17541 -17544 17545 0
17542 17543 17544 0
-17543 2316 0
-17543 -2610 0
-17541 -17537 0
-17541 -17540 0
17536 -17539 17540 0
17538 17537 17539 0
-17538 2315 0
-17538 -2609 0
-17536 -17533 0
-17536 -17535 0
17534 17533 17535 0
-17534 2314 0
-17534 -2608 0
17537 -2609 2315 0
-17542 -2316 0
2610 -17542 0
17542 -2610 2316 0
-17547 -2317 0
2611 -17547 0
17547 -2611 2317 0
-17552 -2318 0
-17552 2612 0
17552 -2612 2318 0
-17557 -2319 0
-17557 2613 0
17557 -2613 2319 0
-17562 -2320 0
2614 -17562 0
2320 -2614 17562 0
-3686 17531 17532 0
-17530 -17531 0
-17529 17526 17530 0
-17527 -17529 0
-17528 -17529 0
17529 17527 17528 0
-17528 -2236 0
-17528 2306 0
2236 -2306 17528 0
-17526 -17522 0
-17526 -17525 0
17525 17521 -17524 0
-17523 -17524 0
17524 17523 17522 0
-17523 -2235 0
-17523 2305 0
-2305 17523 2235 0
-17521 -17517 0
-17521 -17520 0
17516 -17519 17520 0
-17518 -17519 0
17519 17518 17517 0
-17518 -2234 0
-17518 2304 0
-2304 17518 2234 0
-17516 -17512 0
-17516 -17515 0
17515 -17514 17511 0
-17514 -17512 0
-17513 -17514 0
17512 17513 17514 0
-17513 -2233 0
-17513 2303 0
17513 2233 -2303 0
-17511 -17507 0
-17509 -17507 0
17507 17509 17508 0
-17508 -2232 0
17507 -2232 2302 0
-17512 2233 0
-17512 -2303 0
17512 -2233 2303 0
-17517 2234 0
-17517 -2304 0
17517 -2234 2304 0
-17522 2235 0
-17522 -2305 0
17522 -2235 2305 0
-17527 2236 0
-17527 -2306 0
2306 17527 -2236 0
16516 -6634 17497 0
-2971 17495 17496 0
-17491 -17495 0
-17494 -17495 0
-17493 17490 17494 0
-17493 -17491 0
-17492 -17493 0
17493 17491 17492 0
-17492 2306 0
-17492 -2600 0
2600 -2306 17492 0
-17490 -17486 0
-17490 -17489 0
17485 -17488 17489 0
17486 17488 17487 0
-17487 2305 0
-17487 -2599 0
-17485 -17481 0
-17485 -17484 0
17484 -17483 17480 0
-17482 -17483 0
17481 17483 17482 0
-17482 2304 0
-17482 -2598 0
2598 -2304 17482 0
-17480 -17476 0
17476 -2597 2303 0
-17481 -2304 0
-17481 2598 0
17481 -2598 2304 0
-17486 -2305 0
-17486 2599 0
17486 -2599 2305 0
-17491 -2306 0
2600 -17491 0
2306 -2600 17491 0
-3657 17460 17461 0
-17459 -17460 0
-17458 17455 17459 0
-17457 -17458 0
17458 17456 17457 0
-17457 -2236 0
-17457 2292 0
2236 -2292 17457 0
-17455 -17451 0
-17455 -17454 0
17454 17450 -17453 0
-17452 -17453 0
17453 17452 17451 0
-17452 -2235 0
-17452 2291 0
-2291 17452 2235 0
-17450 -17446 0
-17450 -17449 0
17449 -17448 17445 0
-17448 -17446 0
-17447 -17448 0
17448 17447 17446 0
-17447 -2234 0
-17447 2290 0
-2290 17447 2234 0
-17445 -17441 0
-17442 -17443 0
17441 17443 17442 0
-17442 -2233 0
-17442 2289 0
17442 2233 -2289 0
-17437 -17438 0
17436 17438 17437 0
-17437 -2232 0
-17437 2288 0
17437 2232 -2288 0
17431 17432 17433 0
17428 17429 17427 0
-17427 2230 0
-17431 2231 0
-17436 2232 0
-17436 -2288 0
-17441 2233 0
-17441 -2289 0
17441 -2233 2289 0
-17446 2234 0
-17446 -2290 0
17446 -2234 2290 0
-17451 2235 0
-17451 -2291 0
17451 -2235 2291 0
-17456 2236 0
-17456 -2292 0
16481 -6605 17426 0
-2971 17424 17425 0
-17420 -17424 0
-17423 -17424 0
-17422 17419 17423 0
-17422 -17420 0
17422 17420 17421 0
-17421 2292 0
-17421 -2586 0
2586 -2292 17421 0
-17419 -17415 0
-17419 -17418 0
17414 -17417 17418 0
17415 17417 17416 0
-17416 2291 0
-17416 -2585 0
-17414 -17410 0
-17414 -17413 0
17409 -17412 17413 0
17410 17412 17411 0
-17411 2290 0
-17411 -2584 0
-17409 -17405 0
-17407 -17406 0
17405 17407 17406 0
-17406 -2583 0
17406 2583 -2289 0
-17402 -17401 0
17400 17401 17402 0
-17401 2288 0
17401 2582 -2288 0
17396 17395 17397 0
17392 17391 17393 0
-17391 -2286 0
-17395 -2287 0
-17400 -2288 0
-17400 2582 0
-17405 -2289 0
17405 -2583 2289 0
-17410 -2290 0
-17410 2584 0
17410 -2584 2290 0
-17415 -2291 0
-17415 2585 0
17415 -2585 2291 0
-17420 -2292 0
2586 -17420 0
2292 -2586 17420 0
-3628 17389 17390 0
-17388 -17389 0
-17387 17384 17388 0
-17385 -17387 0
17387 17385 17386 0
-17386 -2236 0
-17386 2278 0
2236 -2278 17386 0
-17384 -17380 0
-17384 -17383 0
17379 -17382 17383 0
-17382 -17380 0
-17381 -17382 0
17382 17381 17380 0
-17381 -2235 0
-17381 2277 0
-2277 17381 2235 0
-17379 -17375 0
-17379 -17378 0
17374 -17377 17378 0
-17377 -17375 0
-17376 -17377 0
17377 17376 17375 0
-17376 -2234 0
-17376 2276 0
-2276 17376 2234 0
-17374 -17370 0
-17372 -17371 0
17370 17371 17372 0
-17371 -2233 0
-17371 2275 0
17371 2233 -2275 0
-17367 -17366 0
17365 17367 17366 0
-17366 -2232 0
-17366 2274 0
17366 2232 -2274 0
17361 17360 17362 0
17361 2231 -2273 0
17358 17357 17356 0
-17356 2230 0
-17356 -2272 0
-17360 2231 0
-17360 -2273 0
-17365 2232 0
-17365 -2274 0
-17370 2233 0
-17370 -2275 0
17370 -2233 2275 0
-17375 2234 0
-17375 -2276 0
17375 -2234 2276 0
-17380 2235 0
-17380 -2277 0
17380 -2235 2277 0
-17385 2236 0
-17385 -2278 0
2278 17385 -2236 0
16446 -6576 17355 0
-2971 17353 17354 0
-17349 -17353 0
-17352 -17353 0
-17351 17348 17352 0
-17351 -17349 0
17351 17349 17350 0
-17350 2278 0
-17350 -2572 0
2572 -2278 17350 0
-17348 -17344 0
-17348 -17347 0
17343 -17346 17347 0
-17345 -17346 0
17344 17346 17345 0
-17345 2277 0
-2571 -17345 0
2571 -2277 17345 0
-17343 -17339 0
-17343 -17342 0
17338 -17341 17342 0
-17341 -17339 0
-17340 -17341 0
17341 17339 17340 0
-17340 2276 0
-17340 -2570 0
2570 -2276 17340 0
-17338 -17334 0
-17336 -17335 0
17334 17335 17336 0
-17335 2275 0
-17335 -2569 0
17335 2569 -2275 0
-17331 -17330 0
17329 17330 17331 0
-17330 2274 0
-17330 -2568 0
17330 2568 -2274 0
17325 17324 17326 0
17325 2567 -2273 0
17321 17320 17322 0
-17320 -2272 0
-17320 2566 0
-17324 -2273 0
-17324 2567 0
-17329 -2274 0
-17329 2568 0
-17334 -2275 0
2569 -17334 0
17334 -2569 2275 0
-17339 -2276 0
-17339 2570 0
17339 -2570 2276 0
-17344 -2277 0
-17344 2571 0
17344 -2571 2277 0
-17349 -2278 0
2572 -17349 0
2278 -2572 17349 0
17318 -10460 17319 0
-6427 -17318 0
-17317 -17318 0
17316 -6428 17317 0
-17316 -6424 0
-17316 -17315 0
17314 17315 -6425 0
-17314 -6421 0
-17314 -17313 0
17312 17313 -6422 0
-17312 -17311 0
17310 17311 -6419 0
-17310 -17309 0
17308 17309 -6416 0
-17308 -17307 0
17306 17307 -6413 0
-17306 -6409 0
-17306 -6410 0
-3599 17304 17305 0
-17300 -17304 0
-17303 -17304 0
-17302 17299 17303 0
-17302 -17300 0
-17302 -17301 0
17302 17300 17301 0
-17301 -2236 0
-17301 2264 0
2236 -2264 17301 0
-17299 -17295 0
-17299 -17298 0
17294 -17297 17298 0
-17297 -17295 0
-17297 -17296 0
17297 17296 17295 0
-2235 -17296 0
-17296 2263 0
17296 -2263 2235 0
-17294 -17290 0
-17294 -17293 0
17289 -17292 17293 0
-17292 -17290 0
17292 17291 17290 0
-2234 -17291 0
-17291 2262 0
17291 -2262 2234 0
-17289 -17285 0
-17289 -17288 0
17284 -17287 17288 0
-17287 -17285 0
17287 17286 17285 0
-2233 -17286 0
-17286 2261 0
2233 17286 -2261 0
-17284 -17280 0
-17284 -17283 0
17279 -17282 17283 0
-17282 -17280 0
17282 17281 17280 0
-2232 -17281 0
-17281 2260 0
2232 17281 -2260 0
-17279 -17275 0
-17279 -17278 0
17274 -17277 17278 0
-17277 -17276 0
17277 17276 17275 0
-2231 -17276 0
-17276 2259 0
2231 17276 -2259 0
-17274 -17271 0
-17274 -17273 0
-17273 -17272 0
17273 17272 17271 0
-2230 -17272 0
-17272 2258 0
2230 17272 -2258 0
-17271 2230 0
-17271 -2258 0
-17275 2231 0
-17275 -2259 0
-17280 2232 0
-17280 -2260 0
-2232 2260 17280 0
-17285 2233 0
-17285 -2261 0
-2233 2261 17285 0
-17290 2234 0
-17290 -2262 0
-2234 2262 17290 0
-17295 2235 0
-17295 -2263 0
-2235 2263 17295 0
-17300 2236 0
-17300 -2264 0
2264 -2236 17300 0
17269 -11221 17270 0
-2963 -17269 0
-17268 -17269 0
17267 -2965 17268 0
-17267 -2960 0
-17267 -17266 0
17265 17266 -2962 0
-17265 -2957 0
-17265 -17264 0
17263 17264 -2959 0
-17263 -2954 0
-17263 -17262 0
17261 17262 -2956 0
-17261 -2951 0
-17261 -17260 0
17259 17260 -2953 0
-17259 -2948 0
-17259 -17258 0
17257 17258 -2950 0
-17257 -2945 0
-17257 -2947 0
16396 -6547 17256 0
-2971 17254 17255 0
-11214 -17254 0
-17253 -17254 0
-17253 11215 0
-17253 -17252 0
-11215 17252 17253 0
-17252 -11211 0
-17252 -17251 0
17252 17251 11211 0
-17251 11212 0
-17251 -17250 0
-11212 17250 17251 0
-17250 -11208 0
-17250 -17249 0
17250 17249 11208 0
-17249 11209 0
-17249 -17248 0
-11209 17248 17249 0
-17248 -11205 0
-17248 -17247 0
17248 17247 11205 0
-17247 11206 0
-17247 -17246 0
-11206 17246 17247 0
-17246 -11202 0
-17246 -17245 0
17246 17245 11202 0
-17245 11203 0
-17245 -17244 0
-11203 17244 17245 0
-17244 -11199 0
-17244 -17243 0
17244 17243 11199 0
-17243 11200 0
-17243 -17242 0
-11200 17242 17243 0
-17242 -11196 0
-17242 -11197 0
17242 11197 11196 0
-3570 17239 17240 0
-17235 -17239 0
-17238 -17239 0
-17237 17234 17238 0
-17237 -17235 0
-17236 -17237 0
17237 17235 17236 0
-17236 -2236 0
-17236 2250 0
2236 -2250 17236 0
-17234 -17230 0
-17234 -17233 0
17233 17229 -17232 0
-17232 -17230 0
17232 17230 17231 0
-17231 -2235 0
-17231 2249 0
17231 -2249 2235 0
-17229 -17225 0
-17229 -17228 0
17224 -17227 17228 0
-17227 -17225 0
-17226 -17227 0
17227 17225 17226 0
-17226 -2234 0
-17226 2248 0
17226 -2248 2234 0
-17224 -17220 0
-17224 -17223 0
17219 -17222 17223 0
-17222 -17220 0
17220 17221 17222 0
-17221 -2233 0
-17221 2247 0
17221 -2247 2233 0
-17219 -17215 0
-17219 -17218 0
17214 -17217 17218 0
-17217 -17215 0
17215 17216 17217 0
-17216 -2232 0
-17216 2246 0
-17214 -17210 0
-17214 -17213 0
17209 -17212 17213 0
17210 17212 17211 0
-17211 -2231 0
-17211 2245 0
-17209 -17206 0
-17209 -17208 0
17207 17208 17206 0
-17207 -2230 0
-17207 2244 0
-17210 2231 0
-17210 -2245 0
17210 -2231 2245 0
-17215 2232 0
-17215 -2246 0
17215 -2232 2246 0
-17220 2233 0
-17220 -2247 0
17220 -2233 2247 0
-17225 2234 0
-17225 -2248 0
17225 -2234 2248 0
-17230 2235 0
-17230 -2249 0
17230 -2235 2249 0
-17235 2236 0
-17235 -2250 0
2250 -2236 17235 0
16706 -6519 17205 0
-2971 17203 17204 0
-17199 -17203 0
-17202 -17203 0
17198 -17201 17202 0
-17199 -17201 0
17201 17200 17199 0
-17200 2250 0
-17200 -2544 0
-17198 -17194 0
-17198 -17197 0
17193 -17196 17197 0
17194 17196 17195 0
-17195 2249 0
-17195 -2543 0
-17193 -17189 0
-17193 -17192 0
17188 -17191 17192 0
17189 17191 17190 0
-17190 2248 0
-17190 -2542 0
-17188 -17184 0
-17188 -17187 0
17183 -17186 17187 0
-17184 -17186 0
17185 17184 17186 0
-17185 2247 0
-17185 -2541 0
-17183 -17179 0
-17183 -17182 0
17178 -17181 17182 0
-17179 -17181 0
17180 17179 17181 0
-17180 2246 0
-17180 -2540 0
-17178 -17174 0
-17178 -17177 0
17173 -17176 17177 0
17175 17174 17176 0
-17175 2245 0
-17173 -17170 0
-17173 -17172 0
17171 17170 17172 0
-17171 2244 0
-17174 2539 0
17174 -2539 2245 0
-17179 -2246 0
-17179 2540 0
17179 -2540 2246 0
-17184 -2247 0
17184 -2541 2247 0
-17189 -2248 0
-17189 2542 0
17189 -2542 2248 0
-17194 -2249 0
-17194 2543 0
17194 -2543 2249 0
-17199 -2250 0
-17199 2544 0
2250 -2544 17199 0
-17166 -17165 0
17166 17164 17165 0
-17165 -2222 0
-17165 2320 0
2222 -2320 17165 0
-17159 -17161 0
-17161 -17160 0
17161 17160 17159 0
-17160 -2221 0
-17160 2319 0
17160 -2319 2221 0
-17156 -17155 0
17156 17155 17154 0
-17155 -2220 0
-17155 2318 0
17155 -2318 2220 0
-17151 -17150 0
17150 17149 17151 0
-17150 2317 0
17150 2219 -2317 0
-17146 -17145 0
17145 17144 17146 0
17145 2218 -2316 0
-17144 2218 0
-17149 2219 0
-17154 2220 0
-17154 -2318 0
-17159 2221 0
-17159 -2319 0
17159 -2221 2319 0
-17164 2222 0
-17164 -2320 0
16551 -8572 17134 0
-2942 17132 17133 0
-17128 -17132 0
-17131 -17132 0
-17130 17127 17131 0
-17130 -17128 0
-17129 -17130 0
17130 17129 17128 0
-17129 2320 0
-17129 -2530 0
2530 17129 -2320 0
-17127 -17123 0
-17127 -17126 0
17126 17122 -17125 0
-17125 -17123 0
-17124 -17125 0
17123 17125 17124 0
-17124 2319 0
-2529 -17124 0
2529 -2319 17124 0
-17122 -17118 0
-17122 -17121 0
17117 -17120 17121 0
-17120 -17118 0
17118 17120 17119 0
-17119 2318 0
-17119 -2528 0
2528 -2318 17119 0
-17117 -17113 0
-17117 -17116 0
17112 -17115 17116 0
17113 17114 17115 0
-17114 2317 0
-17114 -2527 0
-17112 -17108 0
-17112 -17111 0
17107 -17110 17111 0
17108 17109 17110 0
-17109 2316 0
-17109 -2526 0
17109 2526 -2316 0
-17107 -17103 0
-17107 -17106 0
17102 -17105 17106 0
17104 17103 17105 0
-17104 2315 0
-17104 -2525 0
-17102 -17099 0
-17102 -17101 0
17100 17099 17101 0
-17100 2314 0
-17100 -2524 0
-2525 17103 2315 0
-17108 -2316 0
2526 -17108 0
17108 -2526 2316 0
-17113 -2317 0
2527 -17113 0
17113 -2527 2317 0
-17118 -2318 0
-17118 2528 0
17118 -2528 2318 0
-17123 -2319 0
-17123 2529 0
17123 -2529 2319 0
-17128 -2320 0
2530 -17128 0
2320 -2530 17128 0
-17094 -17095 0
17095 17094 17093 0
-17094 -2222 0
-17094 2306 0
2222 17094 -2306 0
-17090 -17089 0
17090 17089 17088 0
-17089 -2221 0
-17089 2305 0
-2305 17089 2221 0
17085 17084 17083 0
-17084 -2220 0
-17084 2304 0
-2304 17084 2220 0
17078 17079 17080 0
-17079 -2219 0
-17079 2303 0
17079 2219 -2303 0
17073 17074 17075 0
-17074 -2218 0
-17074 2302 0
17069 17068 17070 0
17065 17064 17066 0
-17064 2216 0
-17064 -2300 0
-17068 2217 0
-17068 -2301 0
-17073 2218 0
-17073 -2302 0
-17078 2219 0
-17078 -2303 0
-17083 2220 0
-17083 -2304 0
-17088 2221 0
-17088 -2305 0
-17093 2222 0
-17093 -2306 0
16516 -8543 17063 0
-2942 17061 17062 0
-17057 -17061 0
-17060 -17061 0
-17059 17056 17060 0
17059 17057 17058 0
-17058 2306 0
-17058 -2516 0
2516 -2306 17058 0
-17056 -17052 0
-17056 -17055 0
17051 -17054 17055 0
-17054 -17052 0
-17053 -17054 0
17052 17054 17053 0
-17053 2305 0
-2515 -17053 0
2515 -2305 17053 0
-17051 -17047 0
-17051 -17050 0
17046 -17049 17050 0
-17049 -17047 0
17047 17049 17048 0
-17048 2304 0
-17048 -2514 0
2514 -2304 17048 0
-17046 -17042 0
-17046 -17045 0
17045 -17044 17041 0
17042 17044 17043 0
-17043 2303 0
-17043 -2513 0
-17041 -17037 0
17037 -2512 2302 0
-17042 -2303 0
2513 -17042 0
17042 -2513 2303 0
-17047 -2304 0
-17047 2514 0
17047 -2514 2304 0
-17052 -2305 0
-17052 2515 0
17052 -2515 2305 0
-17057 -2306 0
2516 -17057 0
2306 -2516 17057 0
17026 -3483 17027 0
-17025 -17026 0
17021 -17024 17025 0
17024 17022 17023 0
-17023 -2222 0
-17023 2292 0
2222 -2292 17023 0
-17021 -17020 0
17020 17016 -17019 0
-17017 -17019 0
-17018 -17019 0
17019 17018 17017 0
-17018 -2221 0
-17018 2291 0
-2291 17018 2221 0
-17016 -17015 0
17011 -17014 17015 0
-17012 -17014 0
-17013 -17014 0
17014 17013 17012 0
-17013 -2220 0
-17013 2290 0
-2290 17013 2220 0
-17011 -17007 0
17007 17009 17008 0
-17008 -2219 0
-17008 2289 0
17008 2219 -2289 0
17002 17003 17004 0
-17003 -2218 0
-17003 2288 0
17003 2218 -2288 0
16998 16997 16999 0
16995 16994 16993 0
-16993 2216 0
-16993 -2286 0
-16997 2217 0
-16997 -2287 0
-17002 2218 0
-17002 -2288 0
-17007 2219 0
-17007 -2289 0
17007 -2219 2289 0
-17012 2220 0
-17012 -2290 0
17012 -2220 2290 0
-17017 2221 0
-17017 -2291 0
17017 -2221 2291 0
-17022 2222 0
-17022 -2292 0
16481 -8514 16992 0
-2942 16990 16991 0
-16986 -16990 0
-16989 -16990 0
-16988 16985 16989 0
-16987 -16988 0
16988 16986 16987 0
-16987 2292 0
-16987 -2502 0
2502 -2292 16987 0
-16985 -16981 0
-16985 -16984 0
16980 -16983 16984 0
-16983 -16981 0
-16982 -16983 0
16981 16983 16982 0
-16982 2291 0
-2501 -16982 0
2501 -2291 16982 0
-16980 -16979 0
16975 -16978 16979 0
16978 16976 16977 0
-16977 2290 0
-16977 -2500 0
-16975 -16971 0
-16975 -16974 0
16970 -16973 16974 0
-16973 -16971 0
-16972 -16973 0
16971 16972 16973 0
-2499 -16972 0
16972 2499 -2289 0
-16970 -16966 0
16966 16967 16968 0
-16967 2288 0
-2498 -16967 0
16967 2498 -2288 0
16962 16961 16963 0
16958 16957 16959 0
-16957 -2286 0
-16961 -2287 0
-16966 -2288 0
2498 -16966 0
16966 -2498 2288 0
-16971 -2289 0
2499 -16971 0
16971 -2499 2289 0
-16976 -2290 0
-16976 2500 0
-16981 -2291 0
-16981 2501 0
16981 -2501 2291 0
-16986 -2292 0
2502 -16986 0
2292 -2502 16986 0
-16951 -16953 0
-16953 -16952 0
16953 16951 16952 0
-16952 -2222 0
-16952 2278 0
2222 -2278 16952 0
-16946 -16948 0
-16948 -16947 0
16948 16947 16946 0
-16947 -2221 0
-16947 2277 0
-2277 16947 2221 0
-16943 -16942 0
16943 16942 16941 0
-16942 -2220 0
-16942 2276 0
-2276 16942 2220 0
-16938 -16937 0
16937 16936 16938 0
-16937 -2219 0
-16937 2275 0
16937 2219 -2275 0
-16933 -16932 0
16932 16931 16933 0
-16932 -2218 0
-16932 2274 0
16932 2218 -2274 0
-16928 -16927 0
16927 16926 16928 0
-16927 -2217 0
-16927 2273 0
16927 2217 -2273 0
16923 16922 16924 0
-16922 2216 0
-16922 -2272 0
-16926 2217 0
-16926 -2273 0
-16931 2218 0
-16931 -2274 0
-16936 2219 0
-16936 -2275 0
-16941 2220 0
-16941 -2276 0
-16946 2221 0
-16946 -2277 0
16946 -2221 2277 0
-16951 2222 0
-16951 -2278 0
2278 16951 -2222 0
16446 -8485 16921 0
-2942 16919 16920 0
-16915 -16919 0
-16918 -16919 0
-16917 16914 16918 0
-16917 -16915 0
16917 16915 16916 0
-16916 2278 0
-16916 -2488 0
2488 -2278 16916 0
-16914 -16910 0
-16914 -16913 0
16909 -16912 16913 0
-16912 -16910 0
-16911 -16912 0
16910 16912 16911 0
-16911 2277 0
-2487 -16911 0
2487 -2277 16911 0
-16909 -16905 0
-16909 -16908 0
16904 -16907 16908 0
-16907 -16905 0
-16906 -16907 0
16907 16905 16906 0
-16906 2276 0
-16906 -2486 0
2486 -2276 16906 0
-16904 -16900 0
-16902 -16901 0
16900 16902 16901 0
-16901 2275 0
-2485 -16901 0
16901 2485 -2275 0
-16897 -16896 0
16895 16896 16897 0
-16896 2274 0
-2484 -16896 0
16896 2484 -2274 0
16891 16890 16892 0
16891 2483 -2273 0
16888 16887 16886 0
-16886 -2272 0
-16886 2482 0
-16890 -2273 0
-16890 2483 0
-16895 -2274 0
-16895 2484 0
-16900 -2275 0
2485 -16900 0
16900 -2485 2275 0
-16905 -2276 0
2486 -16905 0
16905 -2486 2276 0
-16910 -2277 0
-16910 2487 0
16910 -2487 2277 0
-16915 -2278 0
2488 -16915 0
2278 -2488 16915 0
-15449 -16885 0
16884 -16885 0
-15463 -16884 0
16883 -16884 0
-15464 -16883 0
16882 -16883 0
-15478 -16882 0
16881 -16882 0
-15492 -16881 0
16880 -16881 0
-15527 -16880 0
16879 -16880 0
-15528 -16879 0
16878 -16879 0
-15542 -16878 0
16877 -16878 0
-15577 -16877 0
16876 -16877 0
-15578 -16876 0
16875 -16876 0
-15592 -16875 0
16874 -16875 0
16873 -16874 0
-15628 -16873 0
16872 -16873 0
-15642 -16872 0
16871 -16872 0
-15677 -16871 0
16870 -16871 0
-15678 -16870 0
16869 -16870 0
-15692 -16869 0
16868 -16869 0
-15706 -16868 0
16867 -16868 0
-15720 -16867 0
16866 -16867 0
16865 -16866 0
-15741 -16865 0
16864 -16865 0
-15755 -16864 0
16863 -16864 0
-15769 -16863 0
16862 -16863 0
16861 -16862 0
-15818 -16861 0
16860 -16861 0
16859 -16860 0
-15867 -16859 0
16858 -16859 0
-15902 -16858 0
16857 -16858 0
-15916 -16857 0
16856 -16857 0
-15951 -16856 0
16855 -16856 0
-15986 -16855 0
16854 -16855 0
-16021 -16854 0
16853 -16854 0
-16056 -16853 0
16852 -16853 0
16851 -16852 0
-16126 -16851 0
16850 -16851 0
-16161 -16850 0
16849 -16850 0
16848 -16849 0
-16224 -16848 0
16847 -16848 0
16846 -16847 0
16845 -16846 0
16844 -16845 0
16843 -16844 0
-16398 -16843 0
16842 -16843 0
-16412 -16842 0
16841 -16842 0
-16447 -16841 0
16840 -16841 0
-16482 -16840 0
16839 -16840 0
-16517 -16839 0
16838 -16839 0
-16552 -16838 0
16837 -16838 0
-16566 -16837 0
16836 -16837 0
-16567 -16836 0
16835 -16836 0
-16581 -16835 0
16834 -16835 0
-16616 -16834 0
16833 -16834 0
-16630 -16833 0
16832 -16833 0
16831 -16832 0
-16672 -16831 0
16830 -16831 0
-16707 -16830 0
16829 -16830 0
-16742 -16829 0
16828 -16829 0
-16743 -16828 0
16827 -16828 0
-16757 -16827 0
16826 -16827 0
-16758 -16826 0
16825 -16826 0
-16759 -16825 0
16824 -16825 0
-16794 -16824 0
16823 -16824 0
-16808 -16823 0
-16822 -16823 0
16821 -10460 16822 0
-8333 -16821 0
-16820 -16821 0
16819 -8334 16820 0
-16819 -8330 0
-16819 -16818 0
16818 16817 -8331 0
-16817 -8327 0
-16817 -16816 0
16816 16815 -8328 0
-16815 -8324 0
-16815 -16814 0
16814 16813 -8325 0
-16813 -8321 0
-16813 -16812 0
16812 16811 -8322 0
-16811 -16810 0
16810 16809 -8319 0
-16809 -8316 0
-8340 16807 16808 0
-10452 -16807 0
-16806 -16807 0
-16806 10454 0
-16806 -16805 0
16805 16806 -10454 0
-16805 -10449 0
-16805 -16804 0
16805 16804 10449 0
-16804 10451 0
-16804 -16803 0
-10451 16803 16804 0
-16803 -10446 0
-16803 -16802 0
16803 16802 10446 0
-16802 10448 0
-16802 -16801 0
-10448 16801 16802 0
-16801 -10443 0
-16801 -16800 0
16801 16800 10443 0
-16800 10445 0
-16800 -16799 0
-10445 16799 16800 0
-16799 -10440 0
-16799 -16798 0
16799 16798 10440 0
-16798 10442 0
-16798 -16797 0
-10442 16797 16798 0
-16797 -10437 0
-16797 -16796 0
16797 16796 10437 0
-16796 10439 0
-16796 -16795 0
-10439 16795 16796 0
-16795 -10434 0
-16795 -10436 0
16795 10436 10434 0
-3425 16793 16794 0
-16789 -16793 0
-16792 -16793 0
16788 -16791 16792 0
16791 16790 16789 0
-16790 -2222 0
-16790 2264 0
-16788 -16784 0
-16788 -16787 0
16787 16783 -16786 0
16786 16785 16784 0
-2221 -16785 0
-16785 2263 0
-16783 -16779 0
-16783 -16782 0
16782 16778 -16781 0
16781 16780 16779 0
-2220 -16780 0
-16780 2262 0
-16778 -16774 0
-16778 -16777 0
16777 16773 -16776 0
16776 16775 16774 0
-2219 -16775 0
-16775 2261 0
-16773 -16769 0
-16773 -16772 0
16772 16768 -16771 0
16771 16770 16769 0
-16770 2260 0
-16768 -16764 0
-2217 2259 16764 0
-2218 2260 16769 0
-16774 -2261 0
-2219 2261 16774 0
-16779 2220 0
-16779 -2262 0
-2220 2262 16779 0
-16784 2221 0
-16784 -2263 0
-2221 2263 16784 0
-16789 2222 0
-16789 -2264 0
2264 -2222 16789 0
16580 -11192 16759 0
16396 -8456 16758 0
-2942 16756 16757 0
-11185 -16756 0
-16756 -16755 0
-16755 11186 0
-16755 -16754 0
16755 16754 -11186 0
-16754 -11182 0
-16754 -16753 0
16754 16753 11182 0
-16753 11183 0
-16753 -16752 0
16753 16752 -11183 0
-16752 -11179 0
-16752 -16751 0
16752 16751 11179 0
-16751 11180 0
-16751 -16750 0
16751 16750 -11180 0
-16750 -11176 0
-16750 -16749 0
16750 16749 11176 0
-16749 11177 0
-16749 -16748 0
16749 16748 -11177 0
-16748 -11173 0
-16748 -16747 0
16748 16747 11173 0
-16747 11174 0
-16747 -16746 0
16747 16746 -11174 0
-16746 -11170 0
-16746 -16745 0
16746 16745 11170 0
-16745 11171 0
-16745 -16744 0
16745 16744 -11171 0
-16744 -11167 0
-16744 -11168 0
16744 11168 11167 0
16355 -8340 16743 0
-3396 16741 16742 0
-16737 -16741 0
-16740 -16741 0
16736 -16739 16740 0
16739 16738 16737 0
-16738 -2222 0
-16738 2250 0
-16736 -16732 0
-16736 -16735 0
16731 -16734 16735 0
-16732 -16734 0
16734 16732 16733 0
-16733 -2221 0
-16733 2249 0
-16731 -16727 0
-16731 -16730 0
16726 -16729 16730 0
-16728 -16729 0
16729 16727 16728 0
-16728 -2220 0
-16728 2248 0
16728 -2248 2220 0
-16726 -16722 0
-16726 -16725 0
16721 -16724 16725 0
-16722 -16724 0
16723 16722 16724 0
-16723 -2219 0
-16723 2247 0
-16721 -16717 0
-16721 -16720 0
16716 -16719 16720 0
16718 16717 16719 0
-16718 -2218 0
-16718 2246 0
-16716 -16712 0
-16716 -16715 0
16711 -16714 16715 0
16713 16712 16714 0
-16713 -2217 0
-16713 2245 0
-16711 -16708 0
-16711 -16710 0
16709 16708 16710 0
-16709 -2216 0
-16709 2244 0
-16712 2217 0
-16712 -2245 0
16712 -2217 2245 0
-16717 2218 0
-16717 -2246 0
16717 -2218 2246 0
-16722 2219 0
16722 -2219 2247 0
-16727 2220 0
-16727 -2248 0
16727 -2220 2248 0
-16732 2221 0
-16732 -2249 0
16732 -2221 2249 0
-16737 2222 0
-16737 -2250 0
2250 -2222 16737 0
16706 -8427 16707 0
-16702 -16706 0
-16705 -16706 0
16701 -16704 16705 0
16704 16703 16702 0
-16703 -1753 0
-16703 2250 0
-16701 -16697 0
-16701 -16700 0
16700 16696 -16699 0
16699 16697 16698 0
-16698 -1752 0
-16698 2249 0
-16696 -16692 0
-16696 -16695 0
16695 16691 -16694 0
16694 16692 16693 0
-16693 -1751 0
-16693 2248 0
-16691 -16687 0
-16691 -16690 0
16690 16686 -16689 0
16688 16687 16689 0
-16688 -1750 0
-16688 2247 0
-16686 -16682 0
-16686 -16685 0
16685 16681 -16684 0
16683 16682 16684 0
-16683 -1749 0
-16683 2246 0
-16681 -16677 0
-16681 -16680 0
16680 16676 -16679 0
16678 16677 16679 0
-16678 2245 0
-16676 -16673 0
-16676 -16675 0
16675 16673 16674 0
-16674 -1747 0
-16674 2244 0
16677 -1748 2245 0
16682 -1749 2246 0
1750 -16687 0
-16687 -2247 0
16687 -1750 2247 0
-16692 1751 0
-16692 -2248 0
16692 -1751 2248 0
-16697 1752 0
-16697 -2249 0
16697 -1752 2249 0
2250 -1753 16702 0
-2942 16671 16672 0
-16667 -16671 0
-16670 -16671 0
16666 -16669 16670 0
-16667 -16669 0
-16669 -16668 0
16669 16668 16667 0
-16668 2250 0
-16668 -2460 0
2460 -2250 16668 0
-16666 -16662 0
-16666 -16665 0
16661 16665 -16664 0
-16662 -16664 0
-16664 -16663 0
16662 16664 16663 0
-16663 2249 0
-2459 -16663 0
2459 -2249 16663 0
-16661 -16657 0
-16661 -16660 0
16656 16660 -16659 0
-16657 -16659 0
-16659 -16658 0
16657 16659 16658 0
-16658 2248 0
-16658 -2458 0
2458 -2248 16658 0
-16656 -16652 0
-16656 -16655 0
16651 16655 -16654 0
-16654 -16653 0
16653 16654 16652 0
-16653 2247 0
-16653 -2457 0
16653 2457 -2247 0
-16651 -16647 0
-16651 -16650 0
16646 -16649 16650 0
16648 16647 16649 0
-16648 2246 0
-2456 -16648 0
16648 2456 -2246 0
-16646 -16642 0
-16646 -16645 0
16641 -16644 16645 0
-16642 -16644 0
16643 16644 16642 0
-16643 2245 0
-16643 -2455 0
-16641 -16638 0
-16641 -16640 0
16639 16638 16640 0
-16639 2244 0
-16639 -2454 0
-16642 -2245 0
-16642 2455 0
16642 -2455 2245 0
-16647 -2246 0
-16647 2456 0
16647 -2456 2246 0
-16652 -2247 0
-16652 2457 0
16652 -2457 2247 0
-16657 -2248 0
-16657 2458 0
16657 -2458 2248 0
-16662 -2249 0
-16662 2459 0
16662 -2459 2249 0
-16667 -2250 0
-16667 2460 0
2250 -2460 16667 0
16629 -8340 16630 0
-6426 -16629 0
-16628 -16629 0
16627 -6428 16628 0
-16627 -16626 0
16625 -6425 16626 0
-16625 -16624 0
16623 -6422 16624 0
-16623 -16622 0
16621 -6419 16622 0
-16621 -6414 0
-16621 -16620 0
16619 -6416 16620 0
-16619 -16618 0
16618 -6413 16617 0
-16617 -6408 0
-16617 -6410 0
-3304 16615 16616 0
-16611 -16615 0
-16614 -16615 0
16610 -16613 16614 0
-16612 -16613 0
16613 16612 16611 0
-16612 -2222 0
-16612 2236 0
2222 16612 -2236 0
-16610 -16606 0
-16610 -16609 0
16605 -16608 16609 0
-16606 -16608 0
-16607 -16608 0
16608 16606 16607 0
-16607 -2221 0
-16607 2235 0
-2235 16607 2221 0
-16605 -16601 0
-16605 -16604 0
16600 -16603 16604 0
-16601 -16603 0
16603 16601 16602 0
-16602 -2220 0
-16602 2234 0
-16600 -16596 0
-16600 -16599 0
16595 -16598 16599 0
16597 16596 16598 0
-16597 -2219 0
-16597 2233 0
-16595 -16591 0
-16595 -16594 0
16590 -16593 16594 0
16592 16591 16593 0
-16592 -2218 0
-16592 2232 0
-16590 -16586 0
-16590 -16589 0
16585 -16588 16589 0
16587 16588 16586 0
-16587 -2217 0
-16587 2231 0
-16585 -16582 0
-16585 -16584 0
-16584 -16582 0
16582 16584 16583 0
-16583 -2216 0
-16583 2230 0
-16582 2216 0
-16582 -2230 0
16582 -2216 2230 0
-16586 2217 0
-16586 -2231 0
16586 -2217 2231 0
-16591 2218 0
-16591 -2232 0
16591 -2218 2232 0
-16596 2219 0
-16596 -2233 0
16596 -2219 2233 0
-16601 2220 0
-16601 -2234 0
16601 -2220 2234 0
-16606 2221 0
-16606 -2235 0
16606 -2221 2235 0
-16611 2222 0
-16611 -2236 0
2236 -2222 16611 0
16580 -7290 16581 0
-2934 -16580 0
-16579 -16580 0
16578 -2936 16579 0
-16578 -2931 0
-16578 -16577 0
16577 16576 -2933 0
-16576 -2928 0
-16576 -16575 0
16574 16575 -2930 0
-16574 -2925 0
-16574 -16573 0
16572 16573 -2927 0
-16572 -2922 0
-16572 -16571 0
16570 16571 -2924 0
-16570 -2919 0
-16570 -16569 0
16569 16568 -2921 0
-16568 -2916 0
-16568 -2918 0
16222 -8398 16567 0
-2942 16565 16566 0
-7283 -16565 0
-16564 -16565 0
16563 -7284 16564 0
-16563 -7280 0
-16563 -16562 0
16562 16561 -7281 0
-16561 -7277 0
-16561 -16560 0
16560 16559 -7278 0
-16559 -7274 0
-16559 -16558 0
16558 16557 -7275 0
-16557 -7271 0
-16557 -16556 0
16556 16555 -7272 0
-16555 -7268 0
-16555 -16554 0
16554 16553 -7269 0
-16553 -7265 0
-16553 -7266 0
16551 -5380 16552 0
-16547 -16551 0
-16550 -16551 0
16546 -16549 16550 0
16549 16548 16547 0
-16548 -1753 0
-16548 2320 0
1753 16548 -2320 0
-16546 -16542 0
-16546 -16545 0
16545 16541 -16544 0
16544 16542 16543 0
-16543 -1752 0
-16543 2319 0
-16541 -16537 0
-16541 -16540 0
16540 16536 -16539 0
16539 16537 16538 0
-16538 -1751 0
-16538 2318 0
16538 -2318 1751 0
-16536 -16532 0
-16536 -16535 0
16535 16531 -16534 0
16533 16532 16534 0
-16533 -1750 0
-16533 2317 0
16533 1750 -2317 0
-16531 -16527 0
-16531 -16530 0
16530 16526 -16529 0
16528 16527 16529 0
-16528 -1749 0
-16528 2316 0
-16526 -16522 0
-16526 -16525 0
16525 16521 -16524 0
16523 16522 16524 0
-16523 -1748 0
-16523 2315 0
-16521 -16518 0
-16521 -16520 0
16520 16518 16519 0
-16519 -1747 0
-16519 2314 0
16522 -1748 2315 0
-16527 -2316 0
16527 -1749 2316 0
16532 -1750 2317 0
-16537 1751 0
-16537 -2318 0
16537 -1751 2318 0
-16542 1752 0
-16542 -2319 0
16542 -1752 2319 0
-16547 1753 0
-16547 -2320 0
2320 -1753 16547 0
16516 -5351 16517 0
-16512 -16516 0
-16515 -16516 0
16511 -16514 16515 0
-16512 -16514 0
-16513 -16514 0
16514 16513 16512 0
-16513 -1753 0
-16513 2306 0
1753 16513 -2306 0
-16511 -16507 0
-16511 -16510 0
16506 -16509 16510 0
-16507 -16509 0
-16508 -16509 0
16509 16507 16508 0
-16508 -1752 0
-16508 2305 0
-2305 16508 1752 0
-16506 -16502 0
-16506 -16505 0
16501 -16504 16505 0
-16502 -16504 0
16504 16502 16503 0
-16503 -1751 0
-16503 2304 0
-16501 -16497 0
-16501 -16500 0
16496 -16499 16500 0
-16498 -16499 0
16498 16497 16499 0
-16498 -1750 0
-16498 2303 0
16498 1750 -2303 0
-16496 -16492 0
-16496 -16495 0
16491 -16494 16495 0
-16492 -16494 0
16493 16492 16494 0
-16493 -1749 0
-16493 2302 0
-16491 -16487 0
-16491 -16490 0
16486 -16489 16490 0
16488 16487 16489 0
-16488 -1748 0
-16488 2301 0
-16486 -16483 0
-16486 -16485 0
16484 16483 16485 0
-16484 2300 0
-16487 1748 0
-16487 -2301 0
16487 -1748 2301 0
-16492 1749 0
16492 -1749 2302 0
-16497 1750 0
-16497 -2303 0
16497 -1750 2303 0
-16502 1751 0
-16502 -2304 0
16502 -1751 2304 0
-16507 1752 0
-16507 -2305 0
16507 -1752 2305 0
-16512 1753 0
-16512 -2306 0
2306 -1753 16512 0
16481 -5322 16482 0
-16477 -16481 0
-16480 -16481 0
16476 -16479 16480 0
-16477 -16479 0
-16478 -16479 0
16479 16478 16477 0
-16478 -1753 0
-16478 2292 0
1753 16478 -2292 0
-16476 -16472 0
-16476 -16475 0
16471 -16474 16475 0
16474 16472 16473 0
-16473 -1752 0
-16473 2291 0
-16471 -16467 0
-16471 -16470 0
16466 -16469 16470 0
16469 16467 16468 0
-16468 -1751 0
-16468 2290 0
-16466 -16462 0
-16466 -16465 0
16461 -16464 16465 0
16463 16462 16464 0
-16463 -1750 0
-16463 2289 0
-16461 -16457 0
-16461 -16460 0
16456 -16459 16460 0
-16457 -16459 0
16458 16457 16459 0
-16458 -1749 0
-16458 2288 0
-16456 -16452 0
-16456 -16455 0
16451 -16454 16455 0
16453 16452 16454 0
-16453 -1748 0
-16453 2287 0
-16451 -16448 0
-16451 -16450 0
16449 16448 16450 0
-16449 -1747 0
-16452 1748 0
-16452 -2287 0
16452 -1748 2287 0
-16457 1749 0
16457 -1749 2288 0
-16462 1750 0
-16462 -2289 0
16462 -1750 2289 0
-16467 1751 0
-16467 -2290 0
16467 -1751 2290 0
-16472 1752 0
-16472 -2291 0
16472 -1752 2291 0
-16477 1753 0
-16477 -2292 0
2292 -1753 16477 0
16446 -5293 16447 0
-16442 -16446 0
-16445 -16446 0
16441 -16444 16445 0
-16443 -16444 0
16444 16443 16442 0
-16443 -1753 0
-16443 2278 0
1753 16443 -2278 0
-16441 -16437 0
-16441 -16440 0
16436 -16439 16440 0
-16437 -16439 0
16439 16437 16438 0
-16438 -1752 0
-16438 2277 0
-16436 -16432 0
-16436 -16435 0
16431 -16434 16435 0
-16432 -16434 0
-16433 -16434 0
16434 16432 16433 0
-16433 -1751 0
-16433 2276 0
-2276 16433 1751 0
-16431 -16427 0
-16431 -16430 0
16426 -16429 16430 0
16428 16427 16429 0
-16428 -1750 0
-16428 2275 0
-16426 -16422 0
-16424 -16422 0
16423 16422 16424 0
-16423 2274 0
16422 -1749 2274 0
-16427 1750 0
-16427 -2275 0
16427 -1750 2275 0
-16432 1751 0
-16432 -2276 0
16432 -1751 2276 0
-16437 1752 0
-16437 -2277 0
16437 -1752 2277 0
-16442 1753 0
-16442 -2278 0
2278 -1753 16442 0
16411 -10460 16412 0
-16314 -16411 0
-16410 -16411 0
16409 -16315 16410 0
-16409 -16311 0
-16409 -16408 0
16408 16407 -16312 0
-16407 -16308 0
-16407 -16406 0
16406 -16309 16405 0
-16405 -16305 0
16125 -11163 16398 0
-12125 -16396 0
-16395 -16396 0
16394 -12126 16395 0
-16394 -12120 0
-16394 -16393 0
16392 -12121 16393 0
-16392 -12115 0
-16392 -16391 0
16390 -12116 16391 0
-16390 -12110 0
-16390 -16389 0
16388 -12111 16389 0
-16388 -12105 0
-16388 -16387 0
16386 -12106 16387 0
-16386 -12100 0
16362 16360 16361 0
-16361 -1762 0
-16361 2371 0
1762 -16360 0
-16360 -2371 0
-1762 16360 2371 0
16359 16357 16358 0
-16358 -1761 0
-16358 2370 0
16365 16363 16364 0
-16364 -1763 0
-16364 2372 0
1763 -16363 0
-16363 -2372 0
-1763 16363 2372 0
16368 16366 16367 0
-16367 -1764 0
-16367 2373 0
1764 -16366 0
-16366 -2373 0
-1764 16366 2373 0
16371 16369 16370 0
-16370 -1765 0
-16370 2374 0
-16369 1765 0
-16369 -2374 0
-1765 16369 2374 0
16374 16372 16373 0
-16373 -1766 0
-16373 2375 0
-16372 1766 0
-16372 -2375 0
-1766 16372 2375 0
-16377 -16375 0
16377 16376 16375 0
-16376 -1767 0
-16376 2376 0
1767 -16375 0
-16375 -2376 0
2376 -1767 16375 0
-16351 -16355 0
-16354 -16355 0
16350 -16353 16354 0
-16351 -16353 0
16353 16351 16352 0
-16352 -1809 0
-16352 2250 0
1809 -2250 16352 0
-16350 -16346 0
-16350 -16349 0
16345 16349 -16348 0
16346 16348 16347 0
-16347 -1808 0
-16347 2249 0
1808 -2249 16347 0
-16345 -16341 0
-16345 -16344 0
16340 16344 -16343 0
-16341 -16343 0
16341 16343 16342 0
-16342 -1807 0
-16342 2248 0
-16340 -16339 0
16335 16339 -16338 0
-16338 -16337 0
16337 16336 16338 0
-16337 -1806 0
16337 1806 -2247 0
-16335 -16331 0
-16333 -16332 0
16332 16331 16333 0
-16332 -1805 0
-16332 2246 0
16332 1805 -2246 0
16327 16326 16328 0
-16327 -1804 0
16327 1804 -2245 0
16323 16322 16324 0
-16322 1803 0
-16326 -2245 0
-16331 1805 0
-16331 -2246 0
16331 -1805 2246 0
-16336 1806 0
-16336 -2247 0
-16341 1807 0
-16341 -2248 0
16341 -1807 2248 0
-16346 1808 0
-16346 -2249 0
16346 -1808 2249 0
-16351 1809 0
-16351 -2250 0
2250 -1809 16351 0
16305 -5618 1764 0
16307 16308 16309 0
-16308 -1765 0
5619 -16308 0
16308 -5619 1765 0
-16307 1765 0
-16307 -5619 0
16310 16311 16312 0
-16311 -1766 0
16311 -5620 1766 0
-16310 -5620 0
16313 16315 16314 0
5621 -16314 0
1767 -5621 16314 0
-16313 1767 0
16125 -7262 16224 0
-16218 -16222 0
-16221 -16222 0
16217 -16220 16221 0
16220 16219 16218 0
-16219 -1753 0
-16219 2236 0
-16217 -16213 0
-16217 -16216 0
16212 -16215 16216 0
-16213 -16215 0
16215 16213 16214 0
-16214 -1752 0
-16214 2235 0
-16212 -16208 0
-16212 -16211 0
16207 -16210 16211 0
16208 16210 16209 0
-16209 -1751 0
-16209 2234 0
-16207 -16203 0
-16207 -16206 0
16202 -16205 16206 0
16204 16203 16205 0
-16204 -1750 0
-16204 2233 0
-16202 -16198 0
16198 -1749 2232 0
-16203 1750 0
-16203 -2233 0
16203 -1750 2233 0
16208 -1751 2234 0
-16213 1752 0
-16213 -2235 0
16213 -1752 2235 0
-16218 1753 0
-16218 -2236 0
2236 -1753 16218 0
-16173 -16171 0
16172 16171 16173 0
-16172 -1764 0
16171 2345 -1764 0
-16176 -16174 0
16175 16174 16176 0
-16175 -1765 0
-16175 2346 0
-16174 1765 0
-16174 -2346 0
16174 2346 -1765 0
-16179 -16177 0
16178 16177 16179 0
-16178 -1766 0
-16178 2347 0
-16177 1766 0
-16177 -2347 0
16177 2347 -1766 0
-16182 -16180 0
16182 16181 16180 0
-16181 -1767 0
-16181 2348 0
1767 -16180 0
-16180 -2348 0
2348 -1767 16180 0
-3058 16160 16161 0
16125 -9180 16126 0
-16121 -16125 0
-16124 -16125 0
16120 -16123 16124 0
16123 16122 16121 0
-16122 -1753 0
-16122 1767 0
-16120 -16116 0
-16120 -16119 0
16119 16115 -16118 0
16117 16118 16116 0
-16117 -1752 0
-16117 1766 0
-16115 -16111 0
-16115 -16114 0
16114 16110 -16113 0
16112 16113 16111 0
-16112 -1751 0
-16112 1765 0
-16110 -16106 0
-16110 -16109 0
16109 16105 -16108 0
16107 16106 16108 0
-16107 -1750 0
-16105 -16101 0
-16105 -16104 0
16104 16100 -16103 0
16102 16101 16103 0
-16102 -1749 0
-16102 1763 0
-16100 -16096 0
-16100 -16099 0
16099 16095 -16098 0
16097 16096 16098 0
-16097 1762 0
-16095 -16092 0
-16095 -16094 0
16094 16092 16093 0
-16093 -1747 0
1762 16096 -1748 0
1763 16101 -1749 0
-16106 -1764 0
1764 16106 -1750 0
-16111 1751 0
1765 -1751 16111 0
-16116 1752 0
-16116 -1766 0
1767 -1753 16121 0
-10431 16055 16056 0
-16051 -16055 0
-16054 -16055 0
16050 -16053 16054 0
16053 16052 16051 0
-16052 2208 0
-16050 -16046 0
-16050 -16049 0
16049 16045 -16048 0
16046 16048 16047 0
-16047 2207 0
-16045 -16041 0
16041 -3246 2206 0
-3247 16046 2207 0
-3248 2208 16051 0
16020 -10431 16021 0
-16016 -16020 0
-16019 -16020 0
16015 -16018 16019 0
16018 16017 16016 0
-16017 2194 0
-16017 -3212 0
-16015 -16011 0
-16015 -16014 0
16014 16010 -16013 0
16013 16011 16012 0
-16012 2193 0
-16010 -16006 0
-3210 16006 2192 0
-3211 16011 2193 0
-3212 2194 16016 0
15985 -10431 15986 0
-15981 -15985 0
-15984 -15985 0
15980 -15983 15984 0
15983 15982 15981 0
-15982 2180 0
-15980 -15976 0
-15980 -15979 0
15979 15975 -15978 0
15978 15976 15977 0
-15977 -1850 0
-15977 2179 0
-15975 -15971 0
-15975 -15974 0
15974 15970 -15973 0
15973 15971 15972 0
-15972 -1849 0
-15970 -15966 0
-1848 15966 2177 0
-15971 -2178 0
-15976 1850 0
2180 -1851 15981 0
15950 -10431 15951 0
-15946 -15950 0
-15949 -15950 0
15945 -15948 15949 0
15948 15947 15946 0
-15947 -1837 0
-15947 2166 0
-15945 -15941 0
-15945 -15944 0
15944 15940 -15943 0
15943 15941 15942 0
-15942 -1836 0
-15942 2165 0
-15940 -15939 0
15939 15935 -15938 0
15936 15938 15937 0
-15937 2164 0
-15935 -15931 0
-15932 2163 0
-15936 1835 0
-15941 1836 0
-15941 -2165 0
2166 -1837 15946 0
15915 -3860 15916 0
-4904 -15915 0
-15914 -15915 0
15913 15914 -4906 0
-15913 -4901 0
-15913 -15912 0
15912 15911 -4903 0
-15911 -4898 0
-15911 -15910 0
15909 15910 -4900 0
-15909 -4895 0
-15909 -15908 0
15908 -4897 15907 0
-15907 -4892 0
-2913 15901 15902 0
-15901 -15897 0
15897 15899 15898 0
-15898 2208 0
2684 -15897 0
15897 2208 -2684 0
15866 -3831 15867 0
-4876 -15866 0
-15865 -15866 0
15864 15865 -4878 0
-15864 -4873 0
-15864 -15863 0
15863 15862 -4875 0
-15862 -4870 0
-15862 -15861 0
15861 15860 -4872 0
-15860 -4867 0
-15860 -15859 0
15859 15858 -4869 0
-15858 -4864 0
15817 -3802 15818 0
-4848 -15817 0
-15816 -15817 0
15815 15816 -4850 0
-15815 -4845 0
-15815 -15814 0
15814 15813 -4847 0
-15813 -4842 0
-15813 -15812 0
15812 15811 -4844 0
-15811 -4839 0
-15811 -15810 0
15810 15809 -4841 0
-15809 -4836 0
15799 15801 15800 0
-15800 2180 0
15794 15796 15795 0
-15795 2179 0
-15794 2655 0
-15799 2656 0
15768 -3773 15769 0
-4820 -15768 0
-15767 -15768 0
15766 15767 -4822 0
-15766 -4817 0
-15766 -15765 0
15765 15764 -4819 0
-15764 -4814 0
-15764 -15763 0
15763 15762 -4816 0
-15762 -4811 0
-15762 -15761 0
15761 15760 -4813 0
-15760 -4808 0
15754 -4800 15755 0
-3737 -15754 0
-15753 -15754 0
15752 -3738 15753 0
-15752 -3734 0
-15752 -15751 0
15751 15750 -3735 0
-15750 -3731 0
-15750 -15749 0
15749 15748 -3732 0
-15748 -3728 0
-15748 -15747 0
15747 15746 -3729 0
-15746 -3725 0
-15746 -15745 0
15745 15744 -3726 0
-15744 -3722 0
-15744 -15743 0
15743 15742 -3723 0
-15742 -3719 0
-15742 -3720 0
15740 -10431 15741 0
-14996 -15740 0
-15739 -15740 0
15738 -14997 15739 0
-15738 -14991 0
-15738 -15737 0
15736 15737 -14992 0
-15736 -14986 0
-15736 -15735 0
15734 15735 -14987 0
-15734 -14981 0
-15734 -15733 0
15732 15733 -14982 0
-15732 -14976 0
-15732 -15731 0
15730 -14977 15731 0
-15730 -14971 0
-15730 -15729 0
15728 -14972 15729 0
-15728 -14967 0
-15728 -14968 0
15719 -3744 15720 0
-4792 -15719 0
-15718 -15719 0
15717 15718 -4794 0
-15717 -4789 0
-15717 -15716 0
15716 15715 -4791 0
-15715 -4786 0
-15715 -15714 0
15714 15713 -4788 0
-15713 -4783 0
-15713 -15712 0
15712 15711 -4785 0
-15711 -4780 0
-15711 -15710 0
15710 15709 -4782 0
-15709 -4777 0
-15709 -15708 0
15708 15707 -4779 0
-15707 -4774 0
-15707 -4776 0
15705 -11018 15706 0
-15704 -15705 0
15703 -2907 15704 0
-15703 -2902 0
-15703 -15702 0
15702 15701 -2904 0
-15701 -2899 0
-15701 -15700 0
15700 15699 -2901 0
-15699 -15698 0
15698 15697 -2898 0
-15697 -15696 0
15696 15695 -2895 0
-15695 -15694 0
15694 15693 -2892 0
-15693 -2889 0
15691 -3715 15692 0
-15690 -15691 0
15689 15690 -4766 0
-15689 -4761 0
-15689 -15688 0
15688 15687 -4763 0
-15687 -4758 0
14740 -6663 15678 0
-2884 15676 15677 0
-15672 -15676 0
-15675 -15676 0
15671 -15674 15675 0
15674 15673 15672 0
-15673 2208 0
-15673 -2614 0
-15671 -15667 0
-15671 -15670 0
15666 -15669 15670 0
-15667 -15669 0
15667 15669 15668 0
-15668 2207 0
-15668 -2613 0
-15666 -15662 0
-15666 -15665 0
15661 -15664 15665 0
-15662 -15664 0
15662 15664 15663 0
-15663 2206 0
-15663 -2612 0
-15661 -15657 0
-15659 -15657 0
15658 15657 15659 0
-15658 2205 0
15657 -2611 2205 0
-15662 2612 0
15662 -2612 2206 0
-15667 -2207 0
-15667 2613 0
15667 -2613 2207 0
-15672 -2208 0
-15672 2614 0
2208 -2614 15672 0
15641 -3686 15642 0
-15640 -15641 0
15639 15640 -4738 0
-15639 -15638 0
15638 15637 -4735 0
-15637 -15636 0
15635 -4732 15636 0
-15635 -4727 0
-15635 -15634 0
15633 15634 -4729 0
-15633 -4724 0
14670 -6634 15628 0
15624 15622 15623 0
-15623 2194 0
15619 15617 15618 0
-15618 2193 0
-2599 -15618 0
2599 -2193 15618 0
15614 15612 15613 0
-15613 -2598 0
2598 -2192 15613 0
-15612 -2192 0
-15617 -2193 0
-15617 2599 0
-15622 2600 0
15591 -3657 15592 0
-15590 -15591 0
15589 15590 -4710 0
-15589 -15588 0
15588 15587 -4707 0
-15587 -4702 0
-15587 -15586 0
15585 15586 -4704 0
-15585 -4699 0
-15585 -15584 0
15584 -4701 15583 0
-15583 -4696 0
14635 -6605 15578 0
15576 -2884 15577 0
-15575 -15576 0
15571 -15574 15575 0
15574 15572 15573 0
-15573 2180 0
-15571 -15567 0
-15571 -15570 0
15566 -15569 15570 0
15569 15567 15568 0
-15568 2179 0
-2585 -15568 0
2585 -2179 15568 0
-15566 -15562 0
-15564 -15563 0
15562 15564 15563 0
2584 -2178 15563 0
-15562 2584 0
15562 -2584 2178 0
-15567 -2179 0
-15567 2585 0
-2585 15567 2179 0
-15572 2586 0
15541 -3628 15542 0
-15540 -15541 0
15539 15540 -4682 0
-15539 -15538 0
15538 15537 -4679 0
-15537 -15536 0
15535 -4676 15536 0
-15535 -4671 0
14565 -6576 15528 0
15526 -2884 15527 0
-15525 -15526 0
15521 -15524 15525 0
15524 15522 15523 0
-15523 2166 0
-15523 -2572 0
2572 -2166 15523 0
-15521 -15517 0
-15521 -15520 0
15520 15516 -15519 0
15519 15517 15518 0
-15518 2165 0
-2571 -15518 0
2571 -2165 15518 0
-15516 -15512 0
-15514 -15512 0
-15514 -15513 0
15514 15512 15513 0
-15513 2164 0
-15513 -2570 0
2570 -2164 15513 0
15507 15509 15508 0
-15508 2163 0
2569 -2163 15508 0
2568 -2162 15503 0
-15507 2569 0
-15512 -2164 0
-15512 2570 0
-2570 15512 2164 0
-15517 -2165 0
-15517 2571 0
-2571 15517 2165 0
-15522 -2166 0
-15522 2572 0
15491 -4660 15492 0
-15490 -15491 0
15489 -3593 15490 0
-15489 -3589 0
-15489 -15488 0
15488 15487 -3590 0
-15487 -3586 0
-15487 -15486 0
15486 15485 -3587 0
-15485 -3583 0
-15485 -15484 0
15484 15483 -3584 0
-15483 -3580 0
-15483 -15482 0
15482 15481 -3581 0
-15481 -15480 0
15480 15479 -3578 0
-15479 -3575 0
15477 -10431 15478 0
-6398 -15477 0
-15476 -15477 0
15475 -6399 15476 0
-15475 -6395 0
-15475 -15474 0
15474 15473 -6396 0
-15473 -6392 0
-15473 -15472 0
15472 15471 -6393 0
-15471 -6389 0
-15471 -15470 0
15470 15469 -6390 0
-15469 -6386 0
-15469 -15468 0
15468 15467 -6387 0
-15467 -6383 0
-15467 -15466 0
15466 15465 -6384 0
-15465 -6380 0
-15465 -6381 0
14235 -6405 15464 0
15462 -3599 15463 0
-4652 -15462 0
-15461 -15462 0
15460 15461 -4654 0
-15460 -4649 0
-15459 -15460 0
15458 15459 -4651 0
-15458 -4646 0
-15457 -15458 0
15456 15457 -4648 0
-15456 -4643 0
-15455 -15456 0
15454 15455 -4645 0
-15454 -4640 0
-15453 -15454 0
15452 15453 -4642 0
-15452 -4637 0
15448 -10989 15449 0
-2876 -15448 0
-15447 -15448 0
15446 -2878 15447 0
-15446 -15445 0
15445 15444 -2875 0
-15444 -15443 0
15443 15442 -2872 0
-15442 -15441 0
15441 15440 -2869 0
-15440 -15439 0
15439 15438 -2866 0
-15438 -15437 0
15437 15436 -2863 0
-15436 -2860 0
-14055 -15435 0
15434 -15435 0
-14069 -15434 0
15433 -15434 0
15432 -15433 0
-14118 -15432 0
15431 -15432 0
-14132 -15431 0
15430 -15431 0
-14146 -15430 0
15429 -15430 0
15428 -15429 0
-14174 -15428 0
15427 -15428 0
15426 -15427 0
-14216 -15426 0
15425 -15426 0
15424 -15425 0
-14237 -15424 0
15423 -15424 0
-14251 -15423 0
15422 -15423 0
15421 -15422 0
-14348 -15421 0
15420 -15421 0
-14383 -15420 0
15419 -15420 0
-14418 -15419 0
15418 -15419 0
-14453 -15418 0
15417 -15418 0
-14454 -15417 0
15416 -15417 0
-14489 -15416 0
15415 -15416 0
15414 -15415 0
-14531 -15414 0
15413 -15414 0
-14566 -15413 0
15412 -15413 0
15411 -15412 0
-14636 -15411 0
15410 -15411 0
-14671 -15410 0
15409 -15410 0
-14706 -15409 0
15408 -15409 0
-14741 -15408 0
15407 -15408 0
15406 -15407 0
-14790 -15406 0
15405 -15406 0
15404 -15405 0
-14839 -15404 0
15403 -15404 0
-14853 -15403 0
15402 -15403 0
-14867 -15402 0
15401 -15402 0
-14881 -15401 0
15400 -15401 0
-14916 -15400 0
15399 -15400 0
-14951 -15399 0
15398 -15399 0
-14965 -15398 0
15397 -15398 0
-15000 -15397 0
15396 -15397 0
-15014 -15396 0
15395 -15396 0
-15028 -15395 0
15394 -15395 0
-15042 -15394 0
15393 -15394 0
-15043 -15393 0
15392 -15393 0
-15057 -15392 0
15391 -15392 0
15390 -15391 0
-15072 -15390 0
15389 -15390 0
-15086 -15389 0
15388 -15389 0
15387 -15388 0
-15122 -15387 0
15386 -15387 0
-15136 -15386 0
15385 -15386 0
-15171 -15385 0
15384 -15385 0
-15172 -15384 0
15383 -15384 0
-15207 -15383 0
15382 -15383 0
-15242 -15382 0
15381 -15382 0
-15243 -15381 0
15380 -15381 0
-15278 -15380 0
15379 -15380 0
-15313 -15379 0
15378 -15379 0
-15314 -15378 0
15377 -15378 0
-15328 -15377 0
15376 -15377 0
-15329 -15376 0
15375 -15376 0
-15343 -15375 0
15374 -15375 0
-15357 -15374 0
15373 -15374 0
-15371 -15373 0
-15372 -15373 0
15041 -6547 15372 0
15370 -2884 15371 0
-10982 -15370 0
-15369 -15370 0
15368 -10983 15369 0
-15368 -10979 0
-15368 -15367 0
15367 -10980 15366 0
-15366 -10976 0
-15366 -15365 0
15365 -10977 15364 0
-15364 -10973 0
-15364 -15363 0
15363 -10974 15362 0
-15362 -10970 0
-15362 -15361 0
15361 -10971 15360 0
-15360 -10967 0
-15360 -15359 0
15359 -10968 15358 0
-15358 -10964 0
-15358 -10965 0
15356 -4632 15357 0
-3563 -15356 0
-15355 -15356 0
15354 -3564 15355 0
-15354 -3560 0
-15354 -15353 0
15352 15353 -3561 0
-15352 -3557 0
-15352 -15351 0
15350 15351 -3558 0
-15350 -3554 0
-15350 -15349 0
15348 15349 -3555 0
-15348 -3551 0
-3570 15342 15343 0
-4624 -15342 0
-15342 -15341 0
15341 15340 -4626 0
-15340 -4621 0
-15340 -15339 0
15339 15338 -4623 0
-15338 -4618 0
-15338 -15337 0
15337 15336 -4620 0
-15336 -4615 0
-15336 -15335 0
15335 15334 -4617 0
-15334 -4612 0
-15334 -15333 0
15333 15332 -4614 0
-15332 -4609 0
-15332 -15331 0
15331 15330 -4611 0
-15330 -4606 0
-15330 -4608 0
14950 -6519 15329 0
15327 -3541 15328 0
-15326 -15327 0
15325 -4598 15326 0
-15325 -4593 0
-15324 -15325 0
15323 15324 -4595 0
-15323 -4590 0
14740 -8572 15314 0
-2855 15312 15313 0
-15308 -15312 0
-15311 -15312 0
15307 -15310 15311 0
-15308 -15310 0
15310 15309 15308 0
-15309 2208 0
-15309 -2530 0
-15307 -15303 0
-15307 -15306 0
15302 -15305 15306 0
-15303 -15305 0
15303 15305 15304 0
-15304 2207 0
-15304 -2529 0
-15302 -15298 0
-15302 -15301 0
15297 -15300 15301 0
-15298 -15300 0
15298 15300 15299 0
-15299 2206 0
-15299 -2528 0
-15297 -15293 0
-15297 -15296 0
15292 -15295 15296 0
-15293 -15295 0
15294 15293 15295 0
-15294 2205 0
-15292 -15288 0
-15292 -15291 0
15287 -15290 15291 0
-15288 -15290 0
15288 15290 15289 0
-15289 2204 0
-15289 -2526 0
-15287 -15283 0
-15287 -15286 0
15282 -15285 15286 0
15284 15283 15285 0
-15284 2203 0
-15284 -2525 0
-15282 -15279 0
-15282 -15281 0
15280 15279 15281 0
-15280 2202 0
-15280 -2524 0
-15283 -2203 0
-15283 2525 0
15283 -2525 2203 0
-15288 2526 0
15288 -2526 2204 0
-15293 2527 0
15293 -2527 2205 0
-15298 -2206 0
-15298 2528 0
15298 -2528 2206 0
-15303 -2207 0
-15303 2529 0
15303 -2529 2207 0
-15308 -2208 0
-15308 2530 0
2208 -2530 15308 0
15277 -3512 15278 0
-15276 -15277 0
15272 -15275 15276 0
15275 15274 15273 0
-15274 2194 0
-15272 -15268 0
-15272 -15271 0
15267 -15270 15271 0
-15270 -15268 0
-15269 -15270 0
15270 15269 15268 0
-15269 -2109 0
-15269 2193 0
15269 -2193 2109 0
-15267 -15263 0
-15267 -15266 0
15266 -15265 15262 0
-15265 -15263 0
15265 15264 15263 0
-15264 -2108 0
-15264 2192 0
-15262 -15258 0
-2107 15258 2191 0
-15263 2108 0
-15263 -2192 0
-2108 15263 2192 0
-15268 2109 0
-15268 -2193 0
-2109 15268 2193 0
-15273 2110 0
14670 -8543 15243 0
15241 -2855 15242 0
-15240 -15241 0
15236 -15239 15240 0
15239 15237 15238 0
-15238 2194 0
2516 -2194 15238 0
-15236 -15235 0
15231 -15234 15235 0
15234 15232 15233 0
-15233 2193 0
-15233 -2515 0
-15231 -15230 0
15226 -15229 15230 0
15229 15227 15228 0
-15228 2192 0
-15228 -2514 0
-15226 -15222 0
15224 15223 15222 0
-15223 -2513 0
15219 15217 15218 0
-15218 2190 0
15214 15212 15213 0
15210 15209 15208 0
-15208 -2188 0
-15212 -2189 0
-15217 2512 0
-15222 -2191 0
-2513 15222 2191 0
-15227 -2192 0
-15227 2514 0
-15232 -2193 0
-15232 2515 0
-15237 2516 0
15206 -3483 15207 0
-15205 -15206 0
15201 -15204 15205 0
-15203 -15204 0
15204 15202 15203 0
-15203 -2110 0
-15203 2180 0
2110 -2180 15203 0
-15201 -15197 0
-15201 -15200 0
15196 -15199 15200 0
-15199 -15197 0
-15198 -15199 0
15199 15198 15197 0
-15198 -2109 0
-15198 2179 0
15198 -2179 2109 0
-15196 -15192 0
-15196 -15195 0
15191 -15194 15195 0
15194 15193 15192 0
-15193 -2108 0
-15193 2178 0
-15191 -15187 0
15189 15188 15187 0
15184 15182 15183 0
15179 15177 15178 0
15175 15174 15173 0
-15173 2104 0
-15173 -2174 0
-15177 2105 0
-15177 -2175 0
-15182 2106 0
-15182 -2176 0
-15187 2107 0
-15187 -2177 0
-2107 15187 2177 0
-15192 2108 0
-15192 -2178 0
-2108 15192 2178 0
-15197 2109 0
-15197 -2179 0
-2109 15197 2179 0
-15202 2110 0
-15202 -2180 0
14635 -8514 15172 0
15170 -2855 15171 0
-15169 -15170 0
15165 -15168 15169 0
-15167 -15168 0
15168 15166 15167 0
-15167 2180 0
2502 -2180 15167 0
-15165 -15164 0
15164 -15163 15160 0
15163 15161 15162 0
-15162 2179 0
-15162 -2501 0
-15160 -15156 0
15158 15156 15157 0
-15157 -2500 0
2500 -2178 15157 0
-15156 -2178 0
-2500 15156 2178 0
-15161 -2179 0
-15161 2501 0
-15166 2502 0
-3454 15135 15136 0
-15134 -15135 0
15133 -4570 15134 0
-15133 -4565 0
-15132 -15133 0
15131 15132 -4567 0
-15131 -4562 0
-15130 -15131 0
15129 15130 -4564 0
-15129 -4559 0
14565 -8485 15122 0
15118 15116 15117 0
-15117 2166 0
-15117 -2488 0
2488 -2166 15117 0
15113 15111 15112 0
-15112 2165 0
-2487 -15112 0
2487 -2165 15112 0
15108 15106 15107 0
-15107 2164 0
-15107 -2486 0
2486 -2164 15107 0
-15103 -15102 0
15103 15102 15101 0
2485 15102 -2163 0
-15101 -2163 0
-15106 -2164 0
-15106 2486 0
-15111 -2165 0
-15111 2487 0
-15116 -2166 0
-15116 2488 0
15085 -4548 15086 0
-15084 -15085 0
15083 -3419 15084 0
-15083 -3415 0
-15083 -15082 0
15082 15081 -3416 0
-15081 -3412 0
-15081 -15080 0
15080 15079 -3413 0
-15079 -3409 0
-15079 -15078 0
15078 15077 -3410 0
-15077 -3406 0
-15077 -15076 0
15076 15075 -3407 0
-15075 -3403 0
-15075 -15074 0
15074 15073 -3404 0
-15073 -3400 0
-15073 -3401 0
15071 -10431 15072 0
-15070 -15071 0
15069 -8305 15070 0
-15069 -8301 0
-15069 -15068 0
15068 15067 -8302 0
-15067 -8298 0
-15067 -15066 0
15066 15065 -8299 0
-15065 -8295 0
-15065 -15064 0
15064 15063 -8296 0
-15063 -8292 0
-15063 -15062 0
15062 15061 -8293 0
-15061 -8289 0
-15061 -15060 0
15060 15059 -8290 0
-15059 -8286 0
-15059 -8287 0
-3425 15056 15057 0
-15056 -15055 0
15055 15054 -4542 0
-15054 -4537 0
-15054 -15053 0
15053 15052 -4539 0
-15052 -4534 0
-15052 -15051 0
15051 15050 -4536 0
-15050 -4531 0
-15050 -15049 0
15049 15048 -4533 0
-15048 -4528 0
-15048 -15047 0
15047 15046 -4530 0
-15046 -15045 0
15045 15044 -4527 0
-15044 -4524 0
14838 -10960 15043 0
15041 -8456 15042 0
-15040 -15041 0
-11791 15039 15040 0
-15039 -11785 0
-15039 -15038 0
15038 15037 -11786 0
-15037 -11780 0
-15037 -15036 0
15035 -11781 15036 0
-15035 -11775 0
-15035 -15034 0
15033 -11776 15034 0
-15033 -15032 0
15031 -11771 15032 0
-15031 -11765 0
15027 -2855 15028 0
-10953 -15027 0
-15026 -15027 0
15025 15026 -10954 0
-15025 -10950 0
-15025 -15024 0
15024 -10951 15023 0
-15023 -10947 0
-15023 -15022 0
15022 -10948 15021 0
-15021 -10944 0
-15021 -15020 0
15020 -10945 15019 0
-15019 -10941 0
-15019 -15018 0
15018 -10942 15017 0
-15017 -10938 0
-15017 -15016 0
15016 -10939 15015 0
-15015 -10935 0
-15015 -10936 0
15013 -4520 15014 0
-3389 -15013 0
-8311 14999 15000 0
-14998 -14999 0
14994 -14997 14998 0
-14995 -14997 0
-14996 -14997 0
14997 14995 14996 0
-14996 -1809 0
-14996 2138 0
1809 -2138 14996 0
-14994 -14993 0
14989 -14992 14993 0
14992 14990 14991 0
-14991 -1808 0
-14991 2137 0
1808 -2137 14991 0
-14989 -14988 0
14984 -14987 14988 0
-14985 -14987 0
14987 14985 14986 0
-14986 -1807 0
-14986 2136 0
1807 -2136 14986 0
-14984 -14983 0
14979 -14982 14983 0
-14981 -14982 0
14982 14980 14981 0
-14981 -1806 0
-14981 2135 0
1806 -2135 14981 0
-14979 -14975 0
-14977 -14976 0
14977 14975 14976 0
-14976 -1805 0
-14976 2134 0
1805 -2134 14976 0
-14972 -14971 0
14972 14970 14971 0
1804 -2133 14971 0
14968 14966 14967 0
-14966 -2132 0
-14970 1804 0
1805 -14975 0
-14975 -2134 0
-1805 14975 2134 0
-14980 1806 0
-14980 -2135 0
-14985 1807 0
-14985 -2136 0
-1807 14985 2136 0
-14990 1808 0
-14990 -2137 0
-14995 1809 0
-14995 -2138 0
14995 2138 -1809 0
-3396 14964 14965 0
-4512 -14964 0
-14964 -14963 0
14963 14962 -4514 0
-14962 -4509 0
-14962 -14961 0
14961 14960 -4511 0
-14960 -4506 0
-14960 -14959 0
14959 14958 -4508 0
-14958 -4503 0
-14958 -14957 0
14957 14956 -4505 0
-14956 -4500 0
-14956 -14955 0
14955 14954 -4502 0
-14954 -4497 0
-14954 -14953 0
14953 14952 -4499 0
-14952 -4494 0
-14952 -4496 0
14950 -8427 14951 0
-14946 -14950 0
-14949 -14950 0
14945 -14948 14949 0
14948 14947 14946 0
-14947 -1739 0
-14947 2138 0
-14945 -14944 0
14944 14940 -14943 0
14943 14941 14942 0
-14942 -1738 0
-14942 2137 0
-14940 -14936 0
-14940 -14939 0
14939 14935 -14938 0
14938 14936 14937 0
-14937 2136 0
-14935 -14934 0
14934 14930 -14933 0
14933 14931 14932 0
-14932 2135 0
-14930 -14929 0
14929 14925 -14928 0
14928 14926 14927 0
-14927 2134 0
-14925 -14921 0
-14925 -14924 0
14924 14920 -14923 0
14923 14922 14921 0
-14922 -1734 0
-14920 -14917 0
-14920 -14919 0
14919 14917 14918 0
-14918 2132 0
14921 -1734 2133 0
-14926 1735 0
-14931 1736 0
-14936 1737 0
-14941 1738 0
-14941 -2137 0
-2855 14915 14916 0
-14911 -14915 0
-14914 -14915 0
-14913 14910 14914 0
-14912 -14913 0
14913 14912 14911 0
-14912 2138 0
-14912 -2460 0
2460 -2138 14912 0
-14910 -14906 0
-14910 -14909 0
14905 -14908 14909 0
-14907 -14908 0
14908 14906 14907 0
-14907 2137 0
-2459 -14907 0
2459 -2137 14907 0
-14905 -14901 0
-14905 -14904 0
14900 -14903 14904 0
14903 14901 14902 0
-14902 2136 0
-14902 -2458 0
2458 -2136 14902 0
-14900 -14896 0
-14900 -14899 0
14895 -14898 14899 0
-14897 -14898 0
14898 14896 14897 0
-14897 2135 0
-14897 -2457 0
2457 -2135 14897 0
-14895 -14891 0
-14895 -14894 0
14890 -14893 14894 0
14891 14893 14892 0
-14892 2134 0
-14890 -14886 0
-14890 -14889 0
14885 -14888 14889 0
14888 14886 14887 0
-14887 -2455 0
-14885 -14882 0
-14885 -14884 0
14882 14884 14883 0
-14883 -2454 0
2456 -14891 0
14891 -2456 2134 0
-14896 -2135 0
2457 -14896 0
-2457 14896 2135 0
-14901 -2136 0
-14901 2458 0
-2458 14901 2136 0
-14906 -2137 0
-14906 2459 0
-2459 14906 2137 0
-14911 -2138 0
2460 -14911 0
2138 -2460 14911 0
14880 -4492 14881 0
-3297 -14880 0
-8311 14866 14867 0
-6397 -14866 0
-14866 -14865 0
14865 14864 -6399 0
-14864 -14863 0
14863 14862 -6396 0
-14862 -14861 0
14861 14860 -6393 0
-14860 -6388 0
-14860 -14859 0
14859 14858 -6390 0
-14858 -6385 0
-14858 -14857 0
14857 14856 -6387 0
-14856 -6382 0
-14856 -14855 0
14855 14854 -6384 0
-14854 -6379 0
-14854 -6381 0
-3304 14852 14853 0
-4484 -14852 0
-14852 -14851 0
14851 14850 -4486 0
-14850 -4481 0
-14850 -14849 0
14849 14848 -4483 0
-14848 -4478 0
-14848 -14847 0
14847 14846 -4480 0
-14846 -4475 0
-14846 -14845 0
14845 14844 -4477 0
-14844 -4472 0
-14844 -14843 0
14843 14842 -4474 0
-14842 -4469 0
-14842 -14841 0
14841 14840 -4471 0
-14840 -4466 0
-14840 -4468 0
14838 -7001 14839 0
-14837 -14838 0
14836 -2849 14837 0
-14836 -2844 0
-14836 -14835 0
14835 14834 -2846 0
-14834 -14833 0
14833 14832 -2843 0
-14832 -14831 0
14831 14830 -2840 0
-14830 -2835 0
-14830 -14829 0
14829 14828 -2837 0
-14828 -2832 0
-14828 -14827 0
14827 14826 -2834 0
-14826 -2829 0
-14826 -2831 0
-2855 14789 14790 0
-6994 -14789 0
-14788 -14789 0
14787 -6995 14788 0
-14787 -6991 0
-14787 -14786 0
14786 14785 -6992 0
-14785 -6988 0
-14785 -14784 0
14784 14783 -6989 0
-14783 -6985 0
-14783 -14782 0
14782 14781 -6986 0
-14781 -6982 0
-14781 -14780 0
14780 14779 -6983 0
-14779 -6979 0
-14779 -14778 0
14778 14777 -6980 0
-14777 -6976 0
-14777 -6977 0
14740 -5380 14741 0
-14736 -14740 0
-14739 -14740 0
14735 -14738 14739 0
14738 14737 14736 0
-14737 -1739 0
-14737 2208 0
-14735 -14731 0
-14735 -14734 0
14734 14730 -14733 0
14733 14731 14732 0
-14732 -1738 0
-14732 2207 0
-14730 -14726 0
-14730 -14729 0
14729 14725 -14728 0
14728 14726 14727 0
-14727 -1737 0
-14727 2206 0
-14725 -14721 0
-14725 -14724 0
14724 14720 -14723 0
14722 14721 14723 0
-14722 -1736 0
-14722 2205 0
-14720 -14716 0
-14720 -14719 0
14719 14715 -14718 0
14717 14716 14718 0
-14717 -1735 0
-14717 2204 0
-14715 -14711 0
-14715 -14714 0
14714 14710 -14713 0
14712 14711 14713 0
-14712 -1734 0
-14712 2203 0
-14710 -14707 0
-14710 -14709 0
14709 14707 14708 0
-14708 -1733 0
-14708 2202 0
2203 14711 -1734 0
-1735 14716 2204 0
14721 2205 -1736 0
-14726 1737 0
-2206 -14726 0
-1737 14726 2206 0
-14731 1738 0
-14731 -2207 0
-1738 14731 2207 0
-14736 1739 0
-14736 -2208 0
2208 -1739 14736 0
-3239 14705 14706 0
-14701 -14705 0
-14704 -14705 0
14700 -14703 14704 0
14703 14702 14701 0
-14702 2194 0
-14700 -14699 0
14699 14695 -14698 0
14698 14696 14697 0
-14697 -2032 0
-14695 -14691 0
-14696 -2193 0
14670 -5351 14671 0
-14666 -14670 0
-14669 -14670 0
14665 -14668 14669 0
-14666 -14668 0
14668 14667 14666 0
-14667 2194 0
-14665 -14661 0
-14665 -14664 0
14660 -14663 14664 0
14663 14661 14662 0
-14662 -1738 0
-14662 2193 0
-14660 -14656 0
-14660 -14659 0
14655 -14658 14659 0
-14656 -14658 0
14658 14656 14657 0
-14657 -1737 0
-14657 2192 0
-14655 -14651 0
-14653 -14651 0
14653 14652 14651 0
-14652 -1736 0
-1736 14651 2191 0
-14656 -2192 0
-1737 14656 2192 0
-14661 1738 0
-14661 -2193 0
-1738 14661 2193 0
-14666 1739 0
2194 -1739 14666 0
14635 -5322 14636 0
-14631 -14635 0
-14634 -14635 0
14630 -14633 14634 0
-14632 -14633 0
14633 14632 14631 0
-14632 2180 0
14632 1739 -2180 0
-14630 -14626 0
-14630 -14629 0
14625 -14628 14629 0
14628 14626 14627 0
-14627 -1738 0
-14627 2179 0
-14625 -14621 0
14623 14621 14622 0
-14622 -1737 0
-14622 2178 0
-14621 1737 0
-14621 -2178 0
-1737 14621 2178 0
-14626 1738 0
-14626 -2179 0
-1738 14626 2179 0
-14631 1739 0
-14592 2165 0
14565 -5293 14566 0
-14561 -14565 0
-14564 -14565 0
14560 -14563 14564 0
-14561 -14563 0
14563 14562 14561 0
-14562 2166 0
-14560 -14556 0
-14560 -14559 0
14555 -14558 14559 0
14558 14556 14557 0
-14557 -1738 0
-14557 2165 0
-14555 -14551 0
-14553 -14551 0
14553 14551 14552 0
-14552 -1737 0
-14552 2164 0
-14551 1737 0
-14551 -2164 0
-1737 14551 2164 0
-14556 1738 0
-14556 -2165 0
-1738 14556 2165 0
-14561 1739 0
2166 -1739 14561 0
14530 -10431 14531 0
-14509 -14530 0
-14529 -14530 0
14528 -14510 14529 0
-14528 -14506 0
-14528 -14527 0
14527 14526 -14507 0
-14526 -14503 0
-14526 -14525 0
14524 -14504 14525 0
-14524 -14500 0
-14524 -14523 0
14522 -14501 14523 0
-14522 -14497 0
-14522 -14521 0
14520 -14498 14521 0
-14520 -14494 0
-14520 -14519 0
14518 -14495 14519 0
-14518 -14491 0
-14518 -14492 0
-14495 -14494 0
14493 14494 14495 0
-14494 -1762 0
-14494 2028 0
14494 1762 -2028 0
-14493 1762 0
-14493 -2028 0
14491 14490 14492 0
-14490 1761 0
-14490 -2027 0
-14498 -14497 0
14496 14497 14498 0
-14497 -1763 0
-14497 2029 0
14497 1763 -2029 0
-14496 1763 0
-14496 -2029 0
-14501 -14500 0
14499 14500 14501 0
-14500 -1764 0
-14500 2030 0
14500 1764 -2030 0
-14499 1764 0
-14499 -2030 0
-14504 -14503 0
14502 14504 14503 0
-14503 -1765 0
-14503 2031 0
1765 -2031 14503 0
-14502 1765 0
-14502 -2031 0
-14505 -14507 0
14505 14507 14506 0
-14506 -1766 0
-14506 2032 0
1766 -2032 14506 0
-14505 1766 0
-14505 -2032 0
14505 -1766 2032 0
14510 14508 14509 0
-14509 -1767 0
-14509 2033 0
1767 -2033 14509 0
-14508 1767 0
-14508 -2033 0
-3145 14488 14489 0
-14484 -14488 0
-14487 -14488 0
14483 -14486 14487 0
14486 14485 14484 0
-14485 -2033 0
-14485 2152 0
-14483 -14479 0
-14483 -14482 0
14478 -14481 14482 0
-14481 -14479 0
14481 14480 14479 0
-2032 -14480 0
-14480 2151 0
-14478 -14474 0
-14478 -14477 0
14473 -14476 14477 0
-14476 -14474 0
14476 14475 14474 0
-2031 -14475 0
-14475 2150 0
-14473 -14469 0
-14473 -14472 0
14472 -14471 14468 0
-14471 -14469 0
14471 14469 14470 0
-2030 -14470 0
-14470 2149 0
-14468 -14464 0
-2029 14464 2148 0
-14469 2030 0
-14469 -2149 0
-2030 14469 2149 0
-14474 2031 0
-14474 -2150 0
-2031 14474 2150 0
-14479 2032 0
-14479 -2151 0
-2032 14479 2151 0
-14484 2033 0
-14484 -2152 0
14382 -10931 14454 0
14452 -3116 14453 0
-14448 -14452 0
-14451 -14452 0
14447 -14450 14451 0
14450 14449 14448 0
-14449 -2033 0
-14449 2138 0
-14447 -14443 0
-14447 -14446 0
14446 14442 -14445 0
14445 14443 14444 0
-14444 -2032 0
-14444 2137 0
-2137 14444 2032 0
-14442 -14438 0
-14442 -14441 0
14441 14437 -14440 0
14440 14438 14439 0
-14439 -2031 0
-14439 2136 0
-2136 14439 2031 0
-14437 -14433 0
-14437 -14436 0
14436 14432 -14435 0
14435 14433 14434 0
-14434 -2030 0
-14434 2135 0
-14432 -14428 0
-14432 -14431 0
14431 14427 -14430 0
14430 14428 14429 0
-14429 -2029 0
-14429 2134 0
-14427 -14423 0
-14427 -14426 0
14426 14422 -14425 0
14425 14423 14424 0
-14424 -2028 0
-14424 2133 0
-14422 -14419 0
-14422 -14421 0
14421 14419 14420 0
-14420 -2027 0
-14420 2132 0
-2028 14423 2133 0
-14428 -2134 0
-2029 14428 2134 0
-14433 -2135 0
14433 -2030 2135 0
-14438 2031 0
-14438 -2136 0
-2031 14438 2136 0
-14443 2032 0
-14443 -2137 0
-2032 14443 2137 0
-14448 2033 0
-14448 -2138 0
2138 -2033 14448 0
14417 -3087 14418 0
-14413 -14417 0
-14416 -14417 0
14412 -14415 14416 0
-14413 -14415 0
14415 14414 14413 0
-14414 -2033 0
-14414 2124 0
-14412 -14408 0
-14412 -14411 0
14407 -14410 14411 0
-14409 -14410 0
14410 14408 14409 0
-14409 -2032 0
-14409 2123 0
-2123 14409 2032 0
-14407 -14403 0
-14407 -14406 0
14402 -14405 14406 0
14403 14405 14404 0
-14404 -2031 0
-14404 2122 0
-14402 -14398 0
-14402 -14401 0
14397 -14400 14401 0
-14398 -14400 0
14400 14398 14399 0
-14399 -2030 0
-14399 2121 0
-14397 -14393 0
-14397 -14396 0
14392 -14395 14396 0
14395 14393 14394 0
-14394 -2029 0
-14394 2120 0
-14392 -14388 0
-14392 -14391 0
14387 -14390 14391 0
14388 14390 14389 0
-14389 -2028 0
-14389 2119 0
-14387 -14384 0
-14387 -14386 0
14384 14386 14385 0
-14385 -2027 0
-14385 2118 0
14388 -2028 2119 0
-14393 2029 0
-14393 -2120 0
14393 -2029 2120 0
-14398 2030 0
-14398 -2121 0
14398 -2030 2121 0
14403 -2031 2122 0
-14408 2032 0
-14408 -2123 0
-2032 14408 2123 0
-14413 2033 0
2124 -2033 14413 0
14382 -6973 14383 0
-14378 -14382 0
-14381 -14382 0
14377 -14380 14381 0
14379 14380 14378 0
-14379 1767 0
-14377 -14373 0
-14374 1766 0
-3058 14347 14348 0
-14343 -14347 0
-14346 -14347 0
14342 -14345 14346 0
-14343 -14345 0
-14344 -14345 0
14345 14344 14343 0
-14344 -2033 0
-14344 2110 0
2033 14344 -2110 0
-14342 -14338 0
-14342 -14341 0
14337 -14340 14341 0
14340 14338 14339 0
-14339 -2032 0
-14339 2109 0
-14337 -14333 0
-14337 -14336 0
14332 -14335 14336 0
-14333 -14335 0
14335 14333 14334 0
-14334 -2031 0
-14334 2108 0
-14332 -14328 0
-14332 -14331 0
14327 -14330 14331 0
14330 14328 14329 0
-14329 -2030 0
-14329 2107 0
-14327 -14323 0
-14327 -14326 0
14322 -14325 14326 0
-14323 -14325 0
14325 14323 14324 0
-14324 -2029 0
-14324 2106 0
-14322 -14318 0
-14322 -14321 0
14317 -14320 14321 0
14320 14318 14319 0
-14319 -2028 0
-14319 2105 0
-14317 -14314 0
-14317 -14316 0
14314 14316 14315 0
-14315 -2027 0
-14315 2104 0
-14318 2028 0
-14318 -2105 0
-2028 14318 2105 0
-14323 2029 0
-14323 -2106 0
14323 -2029 2106 0
-14328 2030 0
-14328 -2107 0
14328 -2030 2107 0
-14333 2031 0
-14333 -2108 0
-2031 14333 2108 0
-14338 2032 0
-14338 -2109 0
-2032 14338 2109 0
-14343 2033 0
-14343 -2110 0
2110 -2033 14343 0
14250 -4377 14251 0
-14249 -14250 0
14248 -3023 14249 0
-14248 -14247 0
14246 -3020 14247 0
-14246 -3016 0
-14246 -14245 0
14244 -3017 14245 0
-14244 -3013 0
-14244 -14243 0
14242 -3014 14243 0
-14242 -3010 0
-14242 -14241 0
14240 -3011 14241 0
-14240 -3007 0
-14240 -14239 0
14238 -3008 14239 0
-14238 -3004 0
-14238 -3005 0
14103 -10431 14237 0
-14235 -10423 0
-14234 -14235 0
14234 14233 -10425 0
-14233 -10420 0
-14233 -14232 0
14232 -10422 14231 0
-14231 -10417 0
-14231 -14230 0
14230 -10419 14229 0
-14229 -10414 0
-14229 -14228 0
14228 -10416 14227 0
-14227 -10411 0
-14227 -14226 0
14226 -10413 14225 0
-14225 -10408 0
-14225 -14224 0
14224 -10410 14223 0
-14223 -10405 0
-14223 -10407 0
14215 -10902 14216 0
-14211 -14215 0
-14214 -14215 0
14210 -14213 14214 0
14213 14212 14211 0
-14212 -1739 0
-14212 1753 0
-14206 -14210 0
-14209 -14210 0
14205 -14208 14209 0
14208 14207 14206 0
-14207 -1738 0
-14207 1752 0
14207 -1752 1738 0
-14201 -14205 0
-14204 -14205 0
14200 -14203 14204 0
14203 14201 14202 0
-14202 -1737 0
-14202 1751 0
-14196 -14200 0
-14199 -14200 0
14195 -14198 14199 0
14197 14198 14196 0
-14197 -1736 0
-14197 1750 0
-14195 -14191 0
-14195 -14194 0
14194 14190 -14193 0
14192 14191 14193 0
-14192 -1735 0
-14192 1749 0
-14190 -14186 0
-14190 -14189 0
14189 14185 -14188 0
14187 14186 14188 0
-14187 -1734 0
-14187 1748 0
-14185 -14182 0
-14185 -14184 0
14184 14182 14183 0
-14183 -1733 0
-14183 1747 0
1748 14186 -1734 0
-1735 14191 1749 0
1750 -1736 14196 0
1737 -14201 0
-14201 -1751 0
-1737 14201 1751 0
-1738 14206 1752 0
1753 -1739 14211 0
14173 -4349 14174 0
-2993 -14173 0
-14172 -14173 0
14171 -2994 14172 0
-14171 -2990 0
-14171 -14170 0
14170 14169 -2991 0
-14169 -2987 0
-14169 -14168 0
14168 14167 -2988 0
-14167 -2984 0
-14167 -14166 0
14166 14165 -2985 0
-14165 -2981 0
-14165 -14164 0
14164 14163 -2982 0
-14163 -2978 0
-14163 -14162 0
14162 14161 -2979 0
-14161 -2975 0
-14161 -2976 0
-14158 -14159 0
4341 14159 14158 0
-14158 4343 0
-14158 -14157 0
14157 -4343 14158 0
-14157 -4338 0
-14157 -14156 0
14157 14156 4338 0
-14156 4340 0
-14156 -14155 0
-4340 14156 14155 0
-14155 -4335 0
-14155 -14154 0
14155 14154 4335 0
-14154 4337 0
-14154 -14153 0
-4337 14154 14153 0
-14153 -4332 0
-14153 -14152 0
14153 14152 4332 0
-14152 4334 0
-14152 -14151 0
-4334 14152 14151 0
-14151 -4329 0
-14151 -14150 0
14151 14150 4329 0
-14150 4331 0
-14150 -14149 0
-4331 14150 14149 0
-14149 -4326 0
-14149 -14148 0
14149 14148 4326 0
-14148 4328 0
-14148 -14147 0
-4328 14148 14147 0
-14147 -4323 0
-14147 -4325 0
14147 4325 4323 0
14145 -4321 14146 0
-2964 -14145 0
-14144 -14145 0
14143 -2965 14144 0
-14143 -2961 0
-14143 -14142 0
14141 -2962 14142 0
-14141 -2958 0
-14141 -14140 0
14139 -2959 14140 0
-14139 -2955 0
-14139 -14138 0
14137 -2956 14138 0
-14137 -2952 0
-14137 -14136 0
14135 -2953 14136 0
-14135 -2949 0
-14135 -14134 0
14134 -2950 14133 0
-14133 -2946 0
-14133 -2947 0
-2971 14131 14132 0
-4313 -14131 0
-14130 -14131 0
14130 14131 4313 0
-14130 4315 0
-14130 -14129 0
14129 -4315 14130 0
-14129 -4310 0
-14129 -14128 0
14129 14128 4310 0
-14128 4312 0
-14128 -14127 0
-4312 14128 14127 0
-14127 -4307 0
-14127 -14126 0
14127 14126 4307 0
-14126 4309 0
-14126 -14125 0
-4309 14126 14125 0
-14125 -4304 0
-14125 -14124 0
14125 14124 4304 0
-14124 4306 0
-14124 -14123 0
-4306 14124 14123 0
-14123 -4301 0
-14123 -14122 0
14123 14122 4301 0
-14122 4303 0
-14122 -14121 0
-4303 14122 14121 0
-14121 -4298 0
-14121 -14120 0
14121 14120 4298 0
-14120 4300 0
-14120 -14119 0
-4300 14120 14119 0
-14119 -4295 0
-14119 -4297 0
14119 4297 4295 0
14117 -4293 14118 0
-2935 -14117 0
-14116 -14117 0
14115 -2936 14116 0
-14115 -2932 0
-14115 -14114 0
14113 14114 -2933 0
-14113 -2929 0
-14113 -14112 0
14111 14112 -2930 0
-14111 -2926 0
-14111 -14110 0
14109 -2927 14110 0
-14109 -2923 0
-14109 -14108 0
14107 -2924 14108 0
-14107 -2920 0
-14107 -14106 0
14106 -2921 14105 0
-14105 -2917 0
-14105 -2918 0
-14099 -14103 0
-14102 -14103 0
14098 -14101 14102 0
-14101 -14099 0
14101 14100 14099 0
-14100 1753 0
-14100 -2019 0
-14098 -14094 0
-14098 -14097 0
14093 -14096 14097 0
-14096 -14094 0
14096 14095 14094 0
-14095 1752 0
-14095 -2018 0
-14093 -14089 0
-14093 -14092 0
14088 -14091 14092 0
14091 14090 14089 0
-14090 1751 0
-14090 -2017 0
-14088 -14084 0
-14088 -14087 0
14083 -14086 14087 0
14086 14084 14085 0
1750 -14085 0
-14085 -2016 0
-14083 -14079 0
-14081 -14079 0
14081 14079 14080 0
-14080 -2015 0
1749 14079 -2015 0
-14084 2016 0
-1751 -14089 0
-14089 2017 0
-2017 14089 1751 0
-1752 -14094 0
-14094 2018 0
-2018 14094 1752 0
-14099 -1753 0
-14099 2019 0
1753 -2019 14099 0
-2942 14068 14069 0
-4285 -14068 0
-14067 -14068 0
14066 -4287 14067 0
-14066 -4282 0
-14066 -14065 0
14065 14064 -4284 0
-14064 -4279 0
-14064 -14063 0
14063 14062 -4281 0
-14062 -4276 0
-14062 -14061 0
14061 14060 -4278 0
-14060 -4273 0
-14060 -14059 0
14059 14058 -4275 0
-14058 -4270 0
-14058 -14057 0
14057 14056 -4272 0
-14056 -4267 0
-14056 -4269 0
-10402 14054 14055 0
-14050 -14054 0
-14053 -14054 0
14049 -14052 14053 0
14051 14052 14050 0
-14051 2005 0
-14051 -3248 0
-14049 -14045 0
-14049 -14048 0
14048 14044 -14047 0
14045 14047 14046 0
-14046 2004 0
-14046 -3247 0
-14044 -14040 0
-14044 -14043 0
14043 14039 -14042 0
14040 14042 14041 0
-14041 2003 0
-14039 -14035 0
-14039 -14038 0
14038 14034 -14037 0
14036 14035 14037 0
-14036 -3245 0
-14034 -14030 0
14030 2001 -3244 0
-3245 2002 14035 0
3246 -14040 0
-3247 14045 2004 0
2005 -3248 14050 0
-11927 -14020 0
14019 -14020 0
-11989 -14019 0
14018 -14019 0
-12024 -14018 0
14017 -14018 0
-12059 -14017 0
14016 -14017 0
-12094 -14016 0
14015 -14016 0
14014 -14015 0
-12164 -14014 0
14013 -14014 0
-12199 -14013 0
14012 -14013 0
-12234 -14012 0
14011 -14012 0
-12269 -14011 0
14010 -14011 0
-12304 -14010 0
14009 -14010 0
-12339 -14009 0
14008 -14009 0
-12374 -14008 0
14007 -14008 0
-12409 -14007 0
14006 -14007 0
-12444 -14006 0
14005 -14006 0
14004 -14005 0
-12514 -14004 0
14003 -14004 0
-12549 -14003 0
14002 -14003 0
-12584 -14002 0
14001 -14002 0
-12619 -14001 0
14000 -14001 0
-12654 -14000 0
13999 -14000 0
-12668 -13999 0
13998 -13999 0
-12703 -13998 0
13997 -13998 0
-12717 -13997 0
13996 -13997 0
-12752 -13996 0
13995 -13996 0
-12787 -13995 0
13994 -13995 0
13993 -13994 0
-12836 -13993 0
13992 -13993 0
-12871 -13992 0
13991 -13992 0
-12885 -13991 0
13990 -13991 0
13989 -13990 0
-12955 -13989 0
13988 -13989 0
-12990 -13988 0
13987 -13988 0
-13025 -13987 0
13986 -13987 0
-13060 -13986 0
13985 -13986 0
-13095 -13985 0
13984 -13985 0
-13130 -13984 0
13983 -13984 0
-13165 -13983 0
13982 -13983 0
-13200 -13982 0
13981 -13982 0
-13214 -13981 0
13980 -13981 0
-13249 -13980 0
13979 -13980 0
-13263 -13979 0
13978 -13979 0
-13277 -13978 0
13977 -13978 0
-13312 -13977 0
13976 -13977 0
-13347 -13976 0
13975 -13976 0
-13382 -13975 0
13974 -13975 0
-13417 -13974 0
13973 -13974 0
-13452 -13973 0
13972 -13973 0
-13487 -13972 0
13971 -13972 0
-13522 -13971 0
13970 -13971 0
-13523 -13970 0
13969 -13970 0
-13558 -13969 0
13968 -13969 0
-13593 -13968 0
13967 -13968 0
-13607 -13967 0
13966 -13967 0
-13642 -13966 0
13965 -13966 0
-13677 -13965 0
13964 -13965 0
-13712 -13964 0
13963 -13964 0
13962 -13963 0
-13782 -13962 0
13961 -13962 0
13960 -13961 0
-13852 -13960 0
13959 -13960 0
-13887 -13959 0
13958 -13959 0
-13922 -13958 0
-13957 -13958 0
13956 -10402 13957 0
-13952 -13956 0
-13955 -13956 0
13951 -13954 13955 0
13954 13953 13952 0
-13953 1991 0
-13951 -13947 0
-13951 -13950 0
13950 13946 -13949 0
13948 13947 13949 0
-13948 1990 0
-13948 -3211 0
-13946 -13942 0
-13946 -13945 0
13945 13941 -13944 0
13943 13942 13944 0
-13943 1989 0
-13943 -3210 0
-13941 -13937 0
-13941 -13940 0
13940 13936 -13939 0
13938 13937 13939 0
-13938 1988 0
-13936 -13932 0
-13936 -13935 0
13935 13931 -13934 0
13933 13932 13934 0
-13933 1987 0
-13931 -13927 0
-13931 -13930 0
13930 13926 -13929 0
13928 13927 13929 0
-13928 1986 0
-13926 -13923 0
-13926 -13925 0
13924 13923 13925 0
-13924 -3206 0
-3207 1986 13927 0
-3208 1987 13932 0
-1989 -13942 0
3210 -13942 0
1989 -3210 13942 0
-3211 1990 13947 0
-3212 1991 13952 0
13921 -10402 13922 0
-13917 -13921 0
-13920 -13921 0
13916 -13919 13920 0
13919 13918 13917 0
-13918 1977 0
-13916 -13912 0
-13916 -13915 0
13915 13911 -13914 0
13912 13914 13913 0
-13913 -1850 0
-13913 1976 0
-13911 -13907 0
-13908 -1849 0
13907 -1849 1975 0
-1850 13912 1976 0
13886 -10402 13887 0
-13882 -13886 0
-13885 -13886 0
13881 -13884 13885 0
13884 13883 13882 0
-13883 -1837 0
-13883 1963 0
-13881 -13877 0
-13881 -13880 0
13880 13876 -13879 0
13877 13879 13878 0
-13878 -1836 0
-13878 1962 0
13878 -1962 1836 0
-13876 -13872 0
-13876 -13875 0
13875 13871 -13874 0
13872 13874 13873 0
-13873 -1835 0
-13873 1961 0
-13871 -13867 0
-13871 -13870 0
13870 13866 -13869 0
13868 13867 13869 0
-13868 -1834 0
-13868 1960 0
-13866 -13862 0
-13866 -13865 0
13865 13861 -13864 0
13863 13862 13864 0
-13863 1959 0
-13861 -13857 0
-13861 -13860 0
13860 13856 -13859 0
13858 13857 13859 0
-13858 1958 0
-13856 -13853 0
-13856 -13855 0
13855 13853 13854 0
-13854 -1831 0
-13854 1957 0
1958 13857 -1832 0
-1833 1959 13862 0
-1834 1960 13867 0
-13872 1835 0
13872 -1835 1961 0
-1836 13877 1962 0
1963 -1837 13882 0
13851 -3860 13852 0
-13847 -13851 0
-13850 -13851 0
13846 -13849 13850 0
13848 13849 13847 0
-13848 2005 0
-13846 -13842 0
-13846 -13845 0
13845 13841 -13844 0
13844 13843 13842 0
-13843 -1934 0
-13843 2004 0
-13841 -13837 0
-13841 -13840 0
13840 13836 -13839 0
13837 13839 13838 0
-13838 -1933 0
-13838 2003 0
-13836 -13832 0
-13836 -13835 0
13835 13831 -13834 0
13833 13832 13834 0
-13833 -1932 0
-13833 2002 0
-13831 -13827 0
-13831 -13830 0
13830 13826 -13829 0
13828 13827 13829 0
-13828 2001 0
-13826 -13822 0
-13826 -13825 0
13825 13821 -13824 0
13823 13822 13824 0
-13823 -1930 0
-13821 -13818 0
-13821 -13820 0
13820 13818 13819 0
-13819 -1929 0
2001 13827 -1931 0
2002 -1932 13832 0
13837 -1933 2003 0
-13842 1934 0
-1934 13842 2004 0
-13847 1935 0
2005 -1935 13847 0
-13813 2005 0
13781 -3831 13782 0
-13777 -13781 0
-13780 -13781 0
13776 -13779 13780 0
13779 13778 13777 0
-13778 1991 0
-13776 -13772 0
-13776 -13775 0
13775 13771 -13774 0
-13774 -13772 0
-13773 -13774 0
13774 13773 13772 0
-13773 -1934 0
-13773 1990 0
13773 -1990 1934 0
-13771 -13767 0
-13771 -13770 0
13766 -13769 13770 0
-13769 -13767 0
13769 13768 13767 0
-13768 -1933 0
-13768 1989 0
-13766 -13762 0
-13766 -13765 0
13765 -13764 13761 0
13764 13763 13762 0
-13763 -1932 0
-13763 1988 0
-13761 -13757 0
13757 1987 -1931 0
1932 -13762 0
-1988 -13762 0
13762 1988 -1932 0
-13767 1933 0
1989 -1933 13767 0
-13772 1934 0
-1990 -13772 0
1990 -1934 13772 0
-13777 1935 0
1991 -1935 13777 0
13711 -3802 13712 0
-13707 -13711 0
-13710 -13711 0
13706 -13709 13710 0
-13709 -13707 0
13709 13708 13707 0
-13708 -1935 0
-13708 1977 0
-13706 -13702 0
-13706 -13705 0
13701 -13704 13705 0
13704 13703 13702 0
-13703 -1934 0
-13703 1976 0
-13701 -13697 0
-13701 -13700 0
13696 -13699 13700 0
13699 13698 13697 0
-13698 -1933 0
-13698 1975 0
-13696 -13692 0
-13696 -13695 0
13691 -13694 13695 0
13694 13693 13692 0
-13693 -1932 0
-13693 1974 0
-13691 -13687 0
-13691 -13690 0
13686 -13689 13690 0
13687 13688 13689 0
-13688 -1931 0
-13688 1973 0
-13686 -13682 0
-13686 -13685 0
13681 -13684 13685 0
13683 13682 13684 0
-13683 1972 0
-13681 -13678 0
-13681 -13680 0
13679 13678 13680 0
-13679 1971 0
1931 -13687 0
-1973 -13687 0
13687 1973 -1931 0
1932 -13692 0
13692 1974 -1932 0
-13697 1933 0
-13697 -1975 0
-1933 13697 1975 0
-13702 1934 0
-1976 -13702 0
-1934 13702 1976 0
-13707 1935 0
-13707 -1977 0
1977 -1935 13707 0
-2826 13676 13677 0
-13672 -13676 0
-13675 -13676 0
13671 -13674 13675 0
13674 13672 13673 0
-13673 1977 0
-13671 -13667 0
-13671 -13670 0
13666 -13669 13670 0
13667 13669 13668 0
-13666 -13662 0
-13666 -13665 0
13661 -13664 13665 0
13662 13664 13663 0
-13661 -13657 0
-13661 -13660 0
13656 -13659 13660 0
13657 13658 13659 0
1974 -13658 0
-13656 -13652 0
-13656 -13655 0
13651 -13654 13655 0
13652 13653 13654 0
-13651 -13647 0
-13651 -13650 0
13646 -13649 13650 0
13648 13647 13649 0
-13646 -13643 0
-13646 -13645 0
13644 13643 13645 0
-2650 -13644 0
2650 -13643 0
2656 -13672 0
13641 -3773 13642 0
-13637 -13641 0
-13640 -13641 0
13636 -13639 13640 0
-13639 -13637 0
13639 13638 13637 0
-13638 -1935 0
-13638 1963 0
-13636 -13632 0
-13636 -13635 0
13631 -13634 13635 0
13634 13633 13632 0
-13633 -1934 0
-13633 1962 0
-13631 -13627 0
-13631 -13630 0
13626 -13629 13630 0
13629 13628 13627 0
-13628 -1933 0
-13628 1961 0
-13626 -13622 0
-13626 -13625 0
13621 -13624 13625 0
-13624 -13622 0
13623 13624 13622 0
-13623 -1932 0
-13623 1960 0
-13621 -13617 0
-13621 -13620 0
13616 -13619 13620 0
13617 13618 13619 0
-13618 -1931 0
-13618 1959 0
-13616 -13612 0
-13616 -13615 0
13611 -13614 13615 0
13613 13612 13614 0
-13613 -1930 0
-13613 1958 0
-13611 -13608 0
-13611 -13610 0
13609 13608 13610 0
-13609 -1929 0
-13609 1957 0
1958 13612 -1930 0
-1959 -13617 0
13617 1959 -1931 0
1932 -13622 0
-1960 -13622 0
13622 1960 -1932 0
-13627 1933 0
-13627 -1961 0
-1933 13627 1961 0
-13632 1934 0
-1962 -13632 0
-1934 13632 1962 0
-13637 1935 0
-13637 -1963 0
1963 -1935 13637 0
13606 -10402 13607 0
-12818 -13606 0
-13605 -13606 0
13604 -12819 13605 0
-13604 -12813 0
-13604 -13603 0
13603 13602 -12814 0
-13602 -12808 0
-13602 -13601 0
13600 -12809 13601 0
-13600 -12803 0
-13600 -13599 0
13598 -12804 13599 0
-13598 -12798 0
-13598 -13597 0
13596 -12799 13597 0
-13596 -12793 0
-13596 -13595 0
13595 -12794 13594 0
-13594 -12789 0
-13594 -12790 0
13592 -3744 13593 0
-13588 -13592 0
-13591 -13592 0
13587 -13590 13591 0
-13590 -13588 0
-13589 -13590 0
13590 13588 13589 0
-13589 -1935 0
-13589 1949 0
1935 -1949 13589 0
-13587 -13583 0
-13587 -13586 0
13586 13582 -13585 0
-13585 -13583 0
-13584 -13585 0
13585 13584 13583 0
-13584 -1934 0
-13584 1948 0
-1948 13584 1934 0
-13582 -13578 0
-13582 -13581 0
13577 -13580 13581 0
-13580 -13578 0
-13579 -13580 0
13580 13579 13578 0
-13579 -1933 0
-13579 1947 0
-1947 13579 1933 0
-13577 -13573 0
-13577 -13576 0
13572 -13575 13576 0
-13575 -13573 0
13575 13573 13574 0
-13574 -1932 0
-13574 1946 0
-13572 -13568 0
-13572 -13571 0
13567 -13570 13571 0
-13570 -13568 0
13570 13568 13569 0
-13569 -1931 0
-13569 1945 0
-13567 -13563 0
-13567 -13566 0
13562 -13565 13566 0
13565 13563 13564 0
-13564 -1930 0
-13564 1944 0
-13562 -13559 0
-13562 -13561 0
13561 13559 13560 0
-13560 -1929 0
-13560 1943 0
-1930 13563 1944 0
1931 -13568 0
-13568 -1945 0
-1931 13568 1945 0
1932 -13573 0
-13573 -1946 0
-1932 13573 1946 0
-13578 1933 0
-13578 -1947 0
-1933 13578 1947 0
-13583 1934 0
-13583 -1948 0
-1934 13583 1948 0
-13588 1935 0
-13588 -1949 0
1949 -1935 13588 0
13557 -3715 13558 0
-13553 -13557 0
-13556 -13557 0
13552 -13555 13556 0
-13555 -13553 0
-13554 -13555 0
13555 13553 13554 0
-13554 -1921 0
2005 -13554 0
1921 -2005 13554 0
-13552 -13548 0
-13552 -13551 0
13551 13547 -13550 0
13550 13549 13548 0
-13549 2004 0
-13547 -13543 0
-13547 -13546 0
13542 -13545 13546 0
13545 13544 13543 0
-13544 -1919 0
-13542 -13538 0
-13540 -13538 0
13538 13540 13539 0
-13539 2002 0
13538 2002 -1918 0
-13543 -2003 0
13543 -1919 2003 0
-13548 1920 0
-1920 13548 2004 0
-13553 1921 0
-13553 -2005 0
2005 -1921 13553 0
12618 -6663 13523 0
-2797 13521 13522 0
-13517 -13521 0
-13520 -13521 0
13516 -13519 13520 0
13519 13518 13517 0
-13518 2005 0
-13518 -2614 0
-13516 -13512 0
-13516 -13515 0
13515 13511 -13514 0
13512 13514 13513 0
-13513 2004 0
-13513 -2613 0
-13511 -13507 0
-13511 -13510 0
13510 13506 -13509 0
13507 13509 13508 0
-13508 2003 0
-13508 -2612 0
-13506 -13502 0
13502 2002 -2611 0
-13507 2612 0
13507 -2612 2003 0
-13512 2613 0
-2613 13512 2004 0
2005 -2614 13517 0
13486 -3686 13487 0
-13482 -13486 0
-13485 -13486 0
13481 -13484 13485 0
-13484 -13482 0
13484 13483 13482 0
-13483 -1921 0
-13483 1991 0
-13481 -13477 0
-13481 -13480 0
13480 13476 -13479 0
-13479 -13477 0
13479 13478 13477 0
-13478 -1920 0
-13478 1990 0
-13476 -13472 0
-13476 -13475 0
13471 -13474 13475 0
-13474 -13472 0
13474 13473 13472 0
-13473 -1919 0
-13473 1989 0
-13471 -13467 0
-13471 -13470 0
13466 -13469 13470 0
13467 13469 13468 0
-13468 1988 0
-13466 -13462 0
-13466 -13465 0
13461 -13464 13465 0
13462 13463 13464 0
-13463 -1917 0
-13461 -13457 0
-13461 -13460 0
13456 -13459 13460 0
13458 13457 13459 0
-13458 1986 0
-13456 -13453 0
-13456 -13455 0
13454 13453 13455 0
-13454 1985 0
13462 1987 -1917 0
1918 -13467 0
13467 1988 -1918 0
-13472 1919 0
-1989 -13472 0
1989 -1919 13472 0
-13477 1920 0
-1990 -13477 0
1990 -1920 13477 0
-13482 1921 0
-13482 -1991 0
1991 -1921 13482 0
13451 -2797 13452 0
-13447 -13451 0
13449 13447 13448 0
-13448 1991 0
2600 -1991 13448 0
13442 13444 13443 0
-13443 1990 0
-13442 2599 0
2600 -13447 0
1991 -2600 13447 0
13416 -3657 13417 0
-13412 -13416 0
-13415 -13416 0
13411 -13414 13415 0
13414 13413 13412 0
-13413 -1921 0
-13413 1977 0
-13411 -13407 0
-13411 -13410 0
13410 13406 -13409 0
-13409 -13407 0
-13408 -13409 0
13409 13408 13407 0
-13408 -1920 0
-13408 1976 0
13408 -1976 1920 0
-13406 -13402 0
-13406 -13405 0
13401 -13404 13405 0
-13404 -13402 0
13404 13403 13402 0
-13403 -1919 0
-13403 1975 0
-13401 -13397 0
-13401 -13400 0
13396 -13399 13400 0
13397 13399 13398 0
-13398 -1918 0
-13398 1974 0
-13396 -13392 0
-13396 -13395 0
13391 -13394 13395 0
13392 13393 13394 0
-13393 -1917 0
-13391 -13387 0
-13391 -13390 0
13386 -13389 13390 0
13388 13387 13389 0
-13388 -1916 0
-13386 -13383 0
-13386 -13385 0
13384 13383 13385 0
-13384 1971 0
1972 13387 -1916 0
-1973 -13392 0
13392 1973 -1917 0
1918 -13397 0
-1974 -13397 0
13397 1974 -1918 0
-13402 1919 0
-13402 -1975 0
-1919 13402 1975 0
-13407 1920 0
-1976 -13407 0
-1920 13407 1976 0
-13412 1921 0
-13412 -1977 0
1977 -1921 13412 0
13381 -2797 13382 0
-13380 -13381 0
13376 -13379 13380 0
13379 13377 13378 0
-13378 1977 0
-13376 -13372 0
-13376 -13375 0
13375 13371 -13374 0
-13374 -13372 0
13372 13374 13373 0
-13373 1976 0
-13373 -2585 0
-13371 -13367 0
-13369 -13367 0
13367 13369 13368 0
-13368 -2584 0
13367 -2584 1975 0
-13372 2585 0
13372 -2585 1976 0
-13377 2586 0
13346 -3628 13347 0
-13342 -13346 0
-13345 -13346 0
13341 -13344 13345 0
-13344 -13342 0
13344 13343 13342 0
-13343 -1921 0
-13343 1963 0
-13341 -13337 0
-13341 -13340 0
13340 13336 -13339 0
-13338 -13339 0
13339 13338 13337 0
-13338 -1920 0
-13338 1962 0
13338 -1962 1920 0
-13336 -13332 0
-13336 -13335 0
13331 -13334 13335 0
-13334 -13332 0
13334 13333 13332 0
-13333 -1919 0
-13333 1961 0
-13331 -13327 0
-13331 -13330 0
13326 -13329 13330 0
13327 13329 13328 0
-13328 -1918 0
-13328 1960 0
-13326 -13322 0
-13326 -13325 0
13321 -13324 13325 0
13322 13323 13324 0
-13323 1959 0
-13321 -13317 0
-13321 -13320 0
13316 -13319 13320 0
13318 13317 13319 0
-13318 1958 0
-13316 -13313 0
-13316 -13315 0
13314 13313 13315 0
-13314 -1915 0
1958 13317 -1916 0
1917 -13322 0
13322 1959 -1917 0
1918 -13327 0
-1960 -13327 0
13327 1960 -1918 0
-13332 1919 0
-13332 -1961 0
-1919 13332 1961 0
-13337 1920 0
-1962 -13337 0
-1920 13337 1962 0
-13342 1921 0
-13342 -1963 0
1963 -1921 13342 0
13311 -2797 13312 0
-13310 -13311 0
13306 -13309 13310 0
13307 13309 13308 0
-13308 1963 0
2572 -1963 13308 0
-13306 -13302 0
-13306 -13305 0
13305 13301 -13304 0
-13304 -13302 0
13302 13304 13303 0
-13303 1962 0
-13303 -2571 0
-13301 -13297 0
-13299 -13297 0
13299 13297 13298 0
-13298 1961 0
-13298 -2570 0
13292 13293 13294 0
1960 -13293 0
-1960 13293 2569 0
13288 -1959 2568 0
-13292 2569 0
-13297 -1961 0
-13297 2570 0
13297 -2570 1961 0
-1962 -13302 0
-13302 2571 0
13302 -2571 1962 0
-13307 2572 0
13276 -10402 13277 0
-6369 -13276 0
-13275 -13276 0
13274 -6370 13275 0
-13274 -6366 0
-13274 -13273 0
13273 13272 -6367 0
-13272 -6363 0
-13272 -13271 0
13271 13270 -6364 0
-13270 -6360 0
-13270 -13269 0
13269 13268 -6361 0
-13268 -6357 0
-13268 -13267 0
13267 13266 -6358 0
-13266 -6354 0
-13266 -13265 0
13265 13264 -6355 0
-13264 -6351 0
-13264 -6352 0
-6376 13262 13263 0
-13262 -13261 0
13261 13262 10394 0
-13261 10396 0
-13261 -13260 0
13261 13260 -10396 0
-13260 -10391 0
-13260 -13259 0
13259 13260 10391 0
-13259 10393 0
-13259 -13258 0
13259 13258 -10393 0
-13258 -10388 0
-13258 -13257 0
13258 13257 10388 0
-13257 10390 0
-13257 -13256 0
13257 13256 -10390 0
-13256 -10385 0
-13256 -13255 0
13256 13255 10385 0
-13255 10387 0
-13255 -13254 0
13255 13254 -10387 0
-13254 -10382 0
-13254 -13253 0
13254 13253 10382 0
-13253 10384 0
-13253 -13252 0
13253 13252 -10384 0
-13252 -10379 0
-13252 -13251 0
13252 13251 10379 0
-13251 10381 0
-13251 -13250 0
13251 13250 -10381 0
-13250 -10376 0
-13250 -10378 0
13250 10378 10376 0
13248 -3599 13249 0
-13244 -13248 0
-13247 -13248 0
13243 -13246 13247 0
-13246 -13244 0
13246 13245 13244 0
-13245 -1921 0
-13245 1949 0
-13243 -13239 0
-13243 -13242 0
13242 13238 -13241 0
-13241 -13239 0
13241 13240 13239 0
-13240 -1920 0
-13240 1948 0
-1948 13240 1920 0
-13238 -13234 0
-13238 -13237 0
13233 -13236 13237 0
-13236 -13234 0
-13235 -13236 0
13236 13235 13234 0
-13235 -1919 0
-13235 1947 0
-1947 13235 1919 0
-13233 -13229 0
-13233 -13232 0
13228 -13231 13232 0
-13231 -13229 0
13231 13229 13230 0
-13230 -1918 0
-13230 1946 0
1918 -1946 13230 0
-13228 -13224 0
-13228 -13227 0
13223 -13226 13227 0
-13226 -13224 0
13226 13224 13225 0
-13225 -1917 0
-13225 1945 0
-13223 -13219 0
-13223 -13222 0
13218 -13221 13222 0
13221 13220 13219 0
-13220 -1916 0
-13218 -13215 0
-13218 -13217 0
13217 13215 13216 0
-13216 -1915 0
-13216 1943 0
-13219 -1944 0
-1916 13219 1944 0
1917 -13224 0
-13224 -1945 0
-1917 13224 1945 0
1918 -13229 0
-13229 -1946 0
-1918 13229 1946 0
-13234 1919 0
-13234 -1947 0
-1919 13234 1947 0
-13239 1920 0
-13239 -1948 0
-1920 13239 1948 0
-13244 1921 0
-13244 -1949 0
1949 -1921 13244 0
-2797 13213 13214 0
-10714 -13213 0
-13213 -13212 0
13212 13213 10714 0
-13212 10715 0
-13212 -13211 0
13212 13211 -10715 0
-13211 -10711 0
-13211 -13210 0
13210 13211 10711 0
-13210 10712 0
-13210 -13209 0
13210 13209 -10712 0
-13209 -10708 0
-13209 -13208 0
13208 13209 10708 0
-13208 10709 0
-13208 -13207 0
13208 13207 -10709 0
-13207 -10705 0
-13207 -13206 0
13207 13206 10705 0
-13206 10706 0
-13206 -13205 0
13206 13205 -10706 0
-13205 -10702 0
-13205 -13204 0
13205 13204 10702 0
-13204 10703 0
-13204 -13203 0
13204 13203 -10703 0
-13203 -10699 0
-13203 -13202 0
13203 13202 10699 0
-13202 10700 0
-13202 -13201 0
13202 13201 -10700 0
-13201 -10696 0
-13201 -10697 0
10697 13201 10696 0
13199 -3570 13200 0
-13195 -13199 0
-13198 -13199 0
13194 -13197 13198 0
-13196 -13197 0
13197 13195 13196 0
-13196 -1921 0
-13196 1935 0
1921 -1935 13196 0
-13194 -13190 0
-13194 -13193 0
13189 -13192 13193 0
-13190 -13192 0
-13191 -13192 0
13192 13190 13191 0
-13191 -1920 0
-13191 1934 0
13191 -1934 1920 0
-13189 -13185 0
-13189 -13188 0
13184 -13187 13188 0
-13185 -13187 0
13187 13185 13186 0
-13186 -1919 0
-13186 1933 0
13186 -1933 1919 0
-13184 -13180 0
-13184 -13183 0
13179 -13182 13183 0
-13180 -13182 0
-13181 -13182 0
13182 13180 13181 0
-13181 -1918 0
1932 -13181 0
13181 1918 -1932 0
-13179 -13175 0
-13179 -13178 0
13174 -13177 13178 0
-13175 -13177 0
13176 13175 13177 0
-13176 -1917 0
-13176 1931 0
-13174 -13170 0
-13174 -13173 0
13169 -13172 13173 0
13171 13170 13172 0
-13171 -1916 0
-13171 1930 0
-13169 -13166 0
-13169 -13168 0
13167 13168 13166 0
-13167 -1915 0
-13167 1929 0
-13166 1915 0
-13166 -1929 0
13166 -1915 1929 0
-13170 1916 0
-13175 1917 0
-13175 -1931 0
13175 1931 -1917 0
-13180 1918 0
-13180 -1932 0
13180 1932 -1918 0
-13185 1919 0
-13185 -1933 0
-1919 13185 1933 0
-13190 1920 0
-13190 -1934 0
-1920 13190 1934 0
-13195 1921 0
-13195 -1935 0
1935 -1921 13195 0
13164 -3541 13165 0
-13160 -13164 0
-13163 -13164 0
13159 -13162 13163 0
-13162 -13160 0
13162 13161 13160 0
-13161 -1907 0
-13161 2005 0
-13159 -13155 0
-13157 -13155 0
13155 13157 13156 0
-13156 -1906 0
13155 -1906 2004 0
-13160 1907 0
2005 -1907 13160 0
-2768 13129 13130 0
-13125 -13129 0
-13128 -13129 0
13124 -13127 13128 0
13127 13126 13125 0
-13126 2005 0
-13126 -2530 0
-13124 -13120 0
-13124 -13123 0
13123 13119 -13122 0
13120 13122 13121 0
-13121 2004 0
-13121 -2529 0
-13119 -13115 0
-13119 -13118 0
13118 13114 -13117 0
13115 13117 13116 0
-13116 2003 0
-13116 -2528 0
-13114 -13110 0
-13114 -13113 0
13113 13109 -13112 0
13111 13110 13112 0
-13111 2002 0
-13109 -13105 0
-13109 -13108 0
13108 13104 -13107 0
13106 13105 13107 0
-13106 2001 0
-13104 -13100 0
-13104 -13103 0
13103 13099 -13102 0
13101 13100 13102 0
-13101 2000 0
-13101 -2525 0
-13099 -13096 0
-13099 -13098 0
13098 13096 13097 0
-13097 1999 0
-13097 -2524 0
2000 -2525 13100 0
2001 13105 -2526 0
2527 -13110 0
2002 13110 -2527 0
-13115 2528 0
13115 -2528 2003 0
-13120 2529 0
-2529 13120 2004 0
2005 -2530 13125 0
13094 -3512 13095 0
-13090 -13094 0
-13093 -13094 0
13089 -13092 13093 0
-13092 -13090 0
13092 13091 13090 0
-13091 1991 0
-13089 -13085 0
-13087 -13085 0
13085 13087 13086 0
-13086 -1906 0
-13086 1990 0
-1990 -13085 0
13085 1990 -1906 0
-13090 1907 0
1991 -1907 13090 0
13059 -2768 13060 0
-13058 -13059 0
13054 -13057 13058 0
13057 13055 13056 0
-13056 1991 0
2516 -1991 13056 0
-13054 -13050 0
-13054 -13053 0
13053 13049 -13052 0
-13052 -13050 0
13050 13051 13052 0
-13051 1990 0
-13051 -2515 0
-13049 -13045 0
-13047 -13045 0
13045 13047 13046 0
-13046 -2514 0
13045 1989 -2514 0
-1990 -13050 0
-13050 2515 0
13050 1990 -2515 0
-13055 2516 0
13024 -3483 13025 0
-13020 -13024 0
-13023 -13024 0
13019 -13022 13023 0
-13022 -13020 0
13022 13021 13020 0
-13021 1977 0
-13019 -13015 0
-13017 -13015 0
13015 13016 13017 0
-13016 -1906 0
-1976 -13015 0
13015 -1906 1976 0
-13020 1907 0
1977 -1907 13020 0
12989 -2768 12990 0
-12988 -12989 0
12984 -12987 12988 0
12987 12985 12986 0
-12986 1977 0
-12984 -12983 0
12983 12979 -12982 0
-12981 -12982 0
12980 12982 12981 0
-12981 1976 0
-1976 12981 2501 0
-12979 -12975 0
-12977 -12975 0
12976 12977 12975 0
-12976 -2500 0
12975 -2500 1975 0
-12980 2501 0
-12985 2502 0
12954 -3454 12955 0
-12950 -12954 0
-12953 -12954 0
12949 -12952 12953 0
-12952 -12950 0
-12951 -12952 0
12952 12951 12950 0
-12951 -1907 0
-12951 1963 0
12951 1907 -1963 0
-12949 -12945 0
-12949 -12948 0
12944 -12947 12948 0
-12947 -12945 0
12947 12946 12945 0
-12946 -1906 0
-12946 1962 0
-12944 -12940 0
-12944 -12943 0
12939 -12942 12943 0
12942 12941 12940 0
-12941 -1905 0
-12939 -12935 0
-12939 -12938 0
12934 -12937 12938 0
12935 12937 12936 0
1960 -12936 0
-12934 -12930 0
-12934 -12933 0
12929 -12932 12933 0
12930 12932 12931 0
-12931 -1903 0
-12929 -12925 0
-12929 -12928 0
12924 -12927 12928 0
12926 12925 12927 0
-12924 -12921 0
-12924 -12923 0
12922 12921 12923 0
-12922 1957 0
-1957 -12921 0
1902 -12925 0
-1958 -12925 0
1958 12925 -1902 0
1903 -12930 0
-1959 -12930 0
12930 1959 -1903 0
1904 -12935 0
-1960 -12935 0
12935 1960 -1904 0
-12940 1905 0
-12940 -1961 0
-1905 12940 1961 0
-12945 1906 0
-1962 -12945 0
12945 -1906 1962 0
-12950 1907 0
1963 -1907 12950 0
12917 12915 12916 0
-12916 1963 0
2488 -1963 12916 0
-1962 12911 2487 0
-12915 2488 0
12884 -10402 12885 0
-8275 -12884 0
-12883 -12884 0
12882 -8276 12883 0
-12882 -8272 0
-12882 -12881 0
12881 12880 -8273 0
-12880 -8269 0
-12880 -12879 0
12879 12878 -8270 0
-12878 -8266 0
-12878 -12877 0
12877 12876 -8267 0
-12876 -8263 0
-12876 -12875 0
12875 12874 -8264 0
-12874 -8260 0
-12874 -12873 0
12873 12872 -8261 0
-12872 -8257 0
-12872 -8258 0
12870 -3425 12871 0
-12866 -12870 0
-12869 -12870 0
12865 -12868 12869 0
-12868 -12866 0
-12867 -12868 0
12868 12867 12866 0
-12867 -1907 0
-12867 1949 0
1907 12867 -1949 0
-12865 -12861 0
-12865 -12864 0
12860 -12863 12864 0
-12863 -12861 0
-12862 -12863 0
12863 12862 12861 0
-1906 -12862 0
-12862 1948 0
-1948 12862 1906 0
-12860 -12856 0
-12860 -12859 0
12855 -12858 12859 0
-12858 -12856 0
12858 12857 12856 0
-12857 -1905 0
-12857 1947 0
-12855 -12851 0
-12855 -12854 0
12850 -12853 12854 0
-12853 -12851 0
12853 12851 12852 0
-12852 -1904 0
-12852 1946 0
-12850 -12846 0
-12850 -12849 0
12845 -12848 12849 0
-12848 -12846 0
-12847 -12848 0
12848 12846 12847 0
-12847 -1903 0
-12847 1945 0
1903 -1945 12847 0
-12845 -12841 0
-12845 -12844 0
12840 -12843 12844 0
12843 12841 12842 0
-12842 -1902 0
-12842 1944 0
-12840 -12837 0
-12840 -12839 0
12839 12837 12838 0
-12838 -1901 0
-12838 1943 0
1903 -12846 0
-12846 -1945 0
-1903 12846 1945 0
1904 -12851 0
-12851 -1946 0
-1904 12851 1946 0
-12856 1905 0
-12856 -1947 0
-1905 12856 1947 0
-12861 1906 0
-12861 -1948 0
-1906 12861 1948 0
-12866 1907 0
-12866 -1949 0
1949 -1907 12866 0
-2768 12835 12836 0
-10685 -12835 0
-12835 -12834 0
12835 12834 10685 0
-12834 10686 0
-12834 -12833 0
12834 12833 -10686 0
-12833 -10682 0
-12833 -12832 0
12833 12832 10682 0
-12832 10683 0
-12832 -12831 0
12832 12831 -10683 0
-12831 -10679 0
-12831 -12830 0
12831 12830 10679 0
-12830 10680 0
-12830 -12829 0
12830 12829 -10680 0
-12829 -10676 0
-12829 -12828 0
12829 12828 10676 0
-12828 10677 0
-12828 -12827 0
12828 12827 -10677 0
-12827 -10673 0
-12827 -12826 0
12827 12826 10673 0
-12826 10674 0
-12826 -12825 0
12826 12825 -10674 0
-12825 -10670 0
-12825 -12824 0
12825 12824 10670 0
-12824 10671 0
-12824 -12823 0
12824 12823 -10671 0
-12823 -10667 0
-12823 -10668 0
12823 10668 10667 0
-12817 -12819 0
-12819 -12818 0
12819 12817 12818 0
-12818 -1809 0
-12818 1935 0
1809 -1935 12818 0
-12812 -12814 0
-12814 -12813 0
12812 12814 12813 0
-12813 -1808 0
-12813 1934 0
12813 -1934 1808 0
-12809 -12808 0
12807 12809 12808 0
-12808 -1807 0
-12808 1933 0
1807 -1933 12808 0
-12804 -12803 0
12802 12804 12803 0
-12803 -1806 0
1932 -12803 0
12803 -1932 1806 0
-12799 -12798 0
12797 12798 12799 0
1931 -12798 0
12798 1805 -1931 0
12793 12792 12794 0
1930 -12793 0
12793 1804 -1930 0
12789 12788 12790 0
-12788 1803 0
-12788 -1929 0
-12792 1804 0
-12792 -1930 0
-12797 1805 0
-12797 -1931 0
-12802 1806 0
-12802 -1932 0
-12807 1807 0
-12807 -1933 0
-12812 1808 0
-12812 -1934 0
12812 -1808 1934 0
-12817 1809 0
-12817 -1935 0
12817 1935 -1809 0
12786 -3396 12787 0
-12782 -12786 0
-12785 -12786 0
-12784 12781 12785 0
-12784 -12782 0
-12783 -12784 0
12784 12782 12783 0
-12783 -1907 0
-12783 1935 0
1907 -1935 12783 0
-12781 -12777 0
-12781 -12780 0
12780 12776 -12779 0
-12779 -12777 0
-12778 -12779 0
12779 12777 12778 0
-1906 -12778 0
-12778 1934 0
12778 -1934 1906 0
-12776 -12772 0
-12776 -12775 0
12771 -12774 12775 0
-12773 -12774 0
12774 12772 12773 0
-12773 -1905 0
-12773 1933 0
12773 -1933 1905 0
-12771 -12767 0
-12771 -12770 0
12766 -12769 12770 0
-12769 -12767 0
-12768 -12769 0
12767 12769 12768 0
-12768 -1904 0
1932 -12768 0
-1932 12768 1904 0
-12766 -12762 0
-12766 -12765 0
12761 -12764 12765 0
12762 12764 12763 0
-12763 -1903 0
1931 -12763 0
-12761 -12757 0
-12761 -12760 0
12756 -12759 12760 0
12758 12757 12759 0
-12758 -1902 0
1930 -12758 0
12758 1902 -1930 0
-12756 -12753 0
-12756 -12755 0
12754 12753 12755 0
-1901 -12754 0
-12754 1929 0
-1929 -12753 0
1902 -12757 0
1930 12757 -1902 0
1903 -12762 0
-12762 -1931 0
12762 1931 -1903 0
1904 -12767 0
-12767 -1932 0
12767 1932 -1904 0
-12772 1905 0
-12772 -1933 0
-1905 12772 1933 0
-12777 1906 0
-12777 -1934 0
12777 -1906 1934 0
-12782 1907 0
-12782 -1935 0
1935 -1907 12782 0
-2768 12751 12752 0
-12747 -12751 0
-12750 -12751 0
12746 -12749 12750 0
-12747 -12749 0
-12749 -12748 0
12749 12748 12747 0
-12748 1935 0
-12748 -2460 0
2460 -1935 12748 0
-12746 -12742 0
-12746 -12745 0
12741 12745 -12744 0
-12742 -12744 0
-12744 -12743 0
12742 12744 12743 0
-12743 1934 0
-2459 -12743 0
2459 -1934 12743 0
-12741 -12737 0
-12741 -12740 0
12736 12740 -12739 0
-12739 -12738 0
12737 12739 12738 0
-12738 1933 0
-12738 -2458 0
2458 -1933 12738 0
-12736 -12732 0
-12736 -12735 0
12731 12735 -12734 0
-12734 -12733 0
12733 12734 12732 0
1932 -12733 0
-12733 -2457 0
12733 -1932 2457 0
-12731 -12727 0
-12729 -12727 0
12728 12727 12729 0
1931 -12728 0
12728 2456 -1931 0
12727 1931 -2456 0
-12732 -1932 0
-12732 2457 0
12732 1932 -2457 0
-12737 -1933 0
-12737 2458 0
12737 -2458 1933 0
-12742 -1934 0
-12742 2459 0
12742 -2459 1934 0
-12747 -1935 0
-12747 2460 0
1935 -2460 12747 0
-8282 12716 12717 0
-12716 -6368 0
-12716 -12715 0
12715 12714 -6370 0
-12714 -12713 0
12712 12713 -6367 0
-12712 -12711 0
12710 12711 -6364 0
-12710 -12709 0
12708 12709 -6361 0
-12708 -6356 0
12702 -3304 12703 0
-12698 -12702 0
-12701 -12702 0
-12700 12697 12701 0
-12700 -12698 0
-12699 -12700 0
12700 12699 12698 0
-12699 -1907 0
-12699 1921 0
1907 12699 -1921 0
-12697 -12693 0
-12697 -12696 0
12696 12692 -12695 0
-12695 -12693 0
12695 12693 12694 0
-12694 -1906 0
-12694 1920 0
12694 -1920 1906 0
-12692 -12688 0
-12692 -12691 0
12687 -12690 12691 0
-12690 -12688 0
-12689 -12690 0
12690 12688 12689 0
-12689 -1905 0
-12689 1919 0
12689 -1919 1905 0
-12687 -12683 0
-12687 -12686 0
12682 -12685 12686 0
-12685 -12683 0
12683 12685 12684 0
-12684 -1904 0
-12684 1918 0
12684 1904 -1918 0
-12682 -12678 0
-12682 -12681 0
12677 -12680 12681 0
12678 12680 12679 0
-12679 -1903 0
-12679 1917 0
-12677 -12673 0
-12677 -12676 0
12676 -12675 12672 0
12673 12675 12674 0
-12674 -1902 0
-12674 1916 0
12674 1902 -1916 0
-12672 -12669 0
-12672 -12671 0
12669 12671 12670 0
-12670 -1901 0
-12670 1915 0
-12669 1901 0
-1916 -12673 0
12673 -1902 1916 0
1903 -12678 0
-12678 -1917 0
12678 1917 -1903 0
1904 -12683 0
-12683 -1918 0
12683 -1904 1918 0
-12688 1905 0
-12688 -1919 0
-1905 12688 1919 0
-12693 1906 0
-12693 -1920 0
12693 -1906 1920 0
-12698 1907 0
-12698 -1921 0
1921 -1907 12698 0
-2768 12667 12668 0
-6741 -12667 0
-12666 -12667 0
12665 -6742 12666 0
-12665 -6738 0
-12665 -12664 0
12664 12663 -6739 0
-12663 -6735 0
-12663 -12662 0
12662 12661 -6736 0
-12661 -6732 0
-12661 -12660 0
12660 12659 -6733 0
-12659 -12658 0
12658 12657 -6730 0
-12657 -12656 0
12656 12655 -6727 0
-12655 -6723 0
-12655 -6724 0
-3275 12653 12654 0
-12653 -12649 0
-12653 -12652 0
12652 12648 -12651 0
12650 12649 12651 0
-12650 2005 0
-12648 -12644 0
-12648 -12647 0
12647 12643 -12646 0
12646 12645 12644 0
-12645 2004 0
-12643 -12639 0
12639 -1891 2003 0
-12644 1892 0
-1892 12644 2004 0
12618 -5380 12619 0
-12614 -12618 0
-12617 -12618 0
12613 -12616 12617 0
12615 12616 12614 0
-12615 2005 0
-12613 -12609 0
-12613 -12612 0
12612 12608 -12611 0
12610 12609 12611 0
-12610 -2740 0
-12608 -12604 0
-12608 -12607 0
12607 12603 -12606 0
12604 12606 12605 0
-12605 2003 0
-12605 -2739 0
-12603 -12599 0
-12603 -12602 0
12602 12598 -12601 0
12600 12599 12601 0
-12600 2002 0
-12598 -12594 0
12594 -2737 2001 0
-2738 2002 12599 0
-2739 12604 2003 0
-2740 12609 2004 0
12583 -3239 12584 0
-12579 -12583 0
-12582 -12583 0
12578 -12581 12582 0
12581 12580 12579 0
-12580 1991 0
-12578 -12574 0
-12578 -12577 0
12577 12573 -12576 0
12575 12576 12574 0
-12575 -1892 0
-12575 1990 0
-12573 -12569 0
-12570 -1891 0
12569 1989 -1891 0
-12574 1892 0
1990 -1892 12574 0
-12579 1893 0
12548 -5351 12549 0
-12544 -12548 0
-12547 -12548 0
12543 -12546 12547 0
12546 12545 12544 0
-12545 1991 0
-12543 -12539 0
-12543 -12542 0
12542 12538 -12541 0
12540 12539 12541 0
-12540 -2740 0
-12538 -12534 0
-12538 -12537 0
12537 12533 -12536 0
12535 12534 12536 0
-12535 1989 0
-12535 -2739 0
-12533 -12529 0
-3203 12513 12514 0
-12513 -12509 0
-12513 -12512 0
12512 12508 -12511 0
12509 12511 12510 0
-12510 1977 0
-12508 -12504 0
-12505 -1892 0
-12504 1892 0
12504 -1892 1976 0
-3174 12443 12444 0
-12443 -12439 0
-12443 -12442 0
12442 12438 -12441 0
12439 12441 12440 0
-12440 1963 0
-12438 -12434 0
-12438 -12437 0
12437 12433 -12436 0
12436 12435 12434 0
-12435 -1892 0
-12435 1962 0
-12433 -12429 0
-12433 -12432 0
12432 12428 -12431 0
12430 12429 12431 0
-12430 -1891 0
-12428 -12424 0
-12428 -12427 0
12427 12423 -12426 0
12425 12424 12426 0
-12425 -1890 0
-12425 1960 0
-12423 -12419 0
12419 1959 -1889 0
1890 -12424 0
1960 -1890 12424 0
-12429 -1961 0
12429 -1891 1961 0
-12434 1892 0
-1962 -12434 0
-1892 12434 1962 0
12408 -5293 12409 0
-12404 -12408 0
-12407 -12408 0
12403 -12406 12407 0
12406 12405 12404 0
-12405 1963 0
-12403 -12399 0
-12403 -12402 0
12402 12398 -12401 0
12399 12401 12400 0
-12400 1962 0
-12400 -2740 0
-12398 -12394 0
-12398 -12397 0
12397 12393 -12396 0
12394 12396 12395 0
-12395 1961 0
-12395 -2739 0
-12393 -12389 0
-2738 12389 1960 0
-2739 12394 1961 0
-2740 12399 1962 0
12373 -10402 12374 0
-12369 -12373 0
-12372 -12373 0
12368 -12371 12372 0
12371 12370 12369 0
-12370 1767 0
-12370 -1893 0
-12368 -12364 0
-12368 -12367 0
12367 12363 -12366 0
12365 12366 12364 0
-12365 1766 0
-12365 -1892 0
12365 -1766 1892 0
-12363 -12359 0
-12363 -12362 0
12362 12358 -12361 0
12360 12361 12359 0
-12360 1765 0
-12360 -1891 0
-12358 -12354 0
-12358 -12357 0
12357 12353 -12356 0
12355 12354 12356 0
-12355 1764 0
-12355 -1890 0
-12353 -12349 0
-12353 -12352 0
12352 12348 -12351 0
12350 12349 12351 0
-12350 1763 0
-12350 -1889 0
-12348 -12344 0
-12348 -12347 0
12347 12343 -12346 0
12345 12344 12346 0
-12345 1762 0
-12345 -1888 0
-12343 -12340 0
-12343 -12342 0
12342 12340 12341 0
-12341 1761 0
-12341 -1887 0
-1888 1762 12344 0
-12349 -1763 0
1889 -12349 0
-1889 1763 12349 0
-12354 -1764 0
1890 -12354 0
1764 12354 -1890 0
-12359 -1765 0
-12359 1891 0
12359 -1891 1765 0
-12364 1892 0
-1892 12364 1766 0
-12369 -1767 0
1767 -1893 12369 0
12338 -3145 12339 0
-12334 -12338 0
-12337 -12338 0
12333 -12336 12337 0
12336 12335 12334 0
-12335 -1893 0
-12335 1949 0
-12333 -12329 0
-12333 -12332 0
12328 -12331 12332 0
-12331 -12329 0
12331 12330 12329 0
-12330 -1892 0
-12330 1948 0
-12328 -12324 0
-12328 -12327 0
12323 -12326 12327 0
12326 12325 12324 0
-12325 -1891 0
-12325 1947 0
-12323 -12319 0
-12323 -12322 0
12318 -12321 12322 0
12321 12319 12320 0
-12320 -1890 0
-12320 1946 0
-12318 -12314 0
-12318 -12317 0
12313 -12316 12317 0
12316 12314 12315 0
-12315 1945 0
-12313 -12309 0
-12313 -12312 0
12312 -12311 12308 0
12311 12310 12309 0
-12310 -1888 0
-12308 -12305 0
-12308 -12307 0
12307 12305 12306 0
-12306 -1887 0
1889 -12314 0
-1889 12314 1945 0
1890 -12319 0
-12319 -1946 0
-1890 12319 1946 0
-12324 1891 0
-12324 -1947 0
-1891 12324 1947 0
-12329 1892 0
-12329 -1948 0
-1892 12329 1948 0
-12334 1893 0
-12334 -1949 0
1949 -1893 12334 0
12303 -3116 12304 0
-12299 -12303 0
-12302 -12303 0
12298 -12301 12302 0
12301 12300 12299 0
-12300 -1893 0
-12300 1935 0
-12298 -12294 0
-12298 -12297 0
12297 12293 -12296 0
12296 12294 12295 0
-12295 -1892 0
-12295 1934 0
12295 -1934 1892 0
-12293 -12289 0
-12293 -12292 0
12292 12288 -12291 0
12291 12289 12290 0
-12290 -1891 0
-12290 1933 0
-12288 -12284 0
-12288 -12287 0
12287 12283 -12286 0
12285 12284 12286 0
-12285 -1890 0
-12285 1932 0
-12283 -12279 0
-12283 -12282 0
12282 12278 -12281 0
12280 12279 12281 0
-12280 -1889 0
-12280 1931 0
-12278 -12274 0
-12278 -12277 0
12277 12273 -12276 0
12275 12274 12276 0
-12275 1930 0
-12273 -12270 0
-12273 -12272 0
12272 12270 12271 0
-12271 -1887 0
-12271 1929 0
-12279 -1931 0
1931 -1889 12279 0
1932 -1890 12284 0
-12289 1891 0
-12289 -1933 0
12289 -1891 1933 0
-12294 1892 0
-12294 -1934 0
-1892 12294 1934 0
-12299 1893 0
-12299 -1935 0
1935 -1893 12299 0
12268 -3087 12269 0
-12264 -12268 0
-12267 -12268 0
12263 -12266 12267 0
-12264 -12266 0
12266 12265 12264 0
-12265 -1893 0
-12265 1921 0
-12263 -12259 0
-12263 -12262 0
12258 -12261 12262 0
-12259 -12261 0
-12260 -12261 0
12261 12259 12260 0
-12260 -1892 0
-12260 1920 0
12260 -1920 1892 0
-12258 -12254 0
-12258 -12257 0
12253 -12256 12257 0
-12254 -12256 0
12256 12254 12255 0
-12255 -1891 0
-12255 1919 0
-12253 -12249 0
-12253 -12252 0
12248 -12251 12252 0
-12249 -12251 0
12250 12249 12251 0
-12250 -1890 0
-12250 1918 0
-12248 -12244 0
-12248 -12247 0
12243 -12246 12247 0
12245 12244 12246 0
-12245 -1889 0
-12245 1917 0
-12243 -12239 0
-12243 -12242 0
12238 -12241 12242 0
12240 12239 12241 0
-12240 -1888 0
-12240 1916 0
-12238 -12235 0
-12238 -12237 0
12235 12237 12236 0
-12236 -1887 0
-12236 1915 0
-12239 1888 0
-12239 -1916 0
12239 1916 -1888 0
-12244 1889 0
-12244 -1917 0
12244 1917 -1889 0
-12249 1890 0
-12249 -1918 0
12249 1918 -1890 0
-12254 1891 0
-12254 -1919 0
12254 -1891 1919 0
-12259 1892 0
-12259 -1920 0
12259 -1892 1920 0
-12264 1893 0
-12264 -1921 0
1921 -1893 12264 0
-3058 12233 12234 0
-12229 -12233 0
-12232 -12233 0
12228 -12231 12232 0
12231 12230 12229 0
-12230 -1893 0
-12230 1907 0
1893 12230 -1907 0
-12228 -12224 0
-12228 -12227 0
12227 12223 -12226 0
12226 12224 12225 0
-12225 -1892 0
-12225 1906 0
12225 -1906 1892 0
-12223 -12219 0
-12223 -12222 0
12222 12218 -12221 0
12221 12219 12220 0
-12220 -1891 0
-12220 1905 0
-12218 -12214 0
-12218 -12217 0
12217 12213 -12216 0
12215 12214 12216 0
-12215 -1890 0
-12215 1904 0
-12213 -12209 0
-12213 -12212 0
12212 12208 -12211 0
12210 12209 12211 0
-12210 -1889 0
-12210 1903 0
-12208 -12204 0
-12208 -12207 0
12207 12203 -12206 0
12205 12204 12206 0
-12205 -1888 0
-12205 1902 0
-12203 -12200 0
-12203 -12202 0
12202 12200 12201 0
-12201 -1887 0
-12201 1901 0
1902 -1888 12204 0
1889 -12209 0
-12209 -1903 0
1903 -1889 12209 0
-12214 -1904 0
1904 -1890 12214 0
-12219 1891 0
-12219 -1905 0
12219 -1891 1905 0
-12224 1892 0
-1906 -12224 0
-1892 12224 1906 0
-12229 1893 0
-12229 -1907 0
1907 -1893 12229 0
12198 -10402 12199 0
-12194 -12198 0
-12197 -12198 0
12193 -12196 12197 0
12196 12195 12194 0
-12195 1753 0
-12195 -1879 0
-12193 -12189 0
-12193 -12192 0
12192 12188 -12191 0
12191 12190 12189 0
-12190 1752 0
-12190 -1878 0
-1752 12190 1878 0
-12188 -12184 0
-12188 -12187 0
12187 12183 -12186 0
12186 12185 12184 0
-12185 1751 0
-12185 -1877 0
-12183 -12179 0
-12183 -12182 0
12182 12178 -12181 0
12181 12179 12180 0
-12180 1750 0
-12180 -1876 0
-12178 -12174 0
-12178 -12177 0
12177 12173 -12176 0
12176 12175 12174 0
-12175 1749 0
-12175 -1875 0
-1749 12175 1875 0
-12173 -12169 0
-12173 -12172 0
12172 12168 -12171 0
12171 12169 12170 0
-12170 1748 0
-12170 -1874 0
-12168 -12165 0
-12168 -12167 0
12167 12166 12165 0
-12166 1747 0
-12166 -1873 0
1748 12169 -1874 0
-12174 -1749 0
-12174 1875 0
1749 -1875 12174 0
1750 12179 -1876 0
-12184 1877 0
-1877 12184 1751 0
-12189 1878 0
-1878 12189 1752 0
-12194 -1753 0
-12194 1879 0
1753 -1879 12194 0
12163 -10634 12164 0
-12159 -12163 0
-12162 -12163 0
12158 -12161 12162 0
12161 12160 12159 0
-12160 1753 0
-12154 -12158 0
-12157 -12158 0
12153 -12156 12157 0
12156 12154 12155 0
-12155 1752 0
-12155 -2740 0
-12153 -12149 0
-12153 -12152 0
12152 12148 -12151 0
12150 12149 12151 0
-12150 -2739 0
-12148 -12144 0
-2739 12149 1751 0
-2740 12154 1752 0
12126 12124 12125 0
-12125 1753 0
-12125 -2264 0
2264 -1753 12125 0
-12121 -12120 0
12121 12119 12120 0
-12120 1752 0
-12120 -2263 0
-1752 2263 12120 0
-12116 -12115 0
12116 12114 12115 0
-12115 1751 0
-12115 -2262 0
-1751 2262 12115 0
12111 12109 12110 0
-12110 -2261 0
-1750 2261 12110 0
12106 12104 12105 0
-12105 -2260 0
-1749 2260 12105 0
-1748 2259 12100 0
-12104 -1749 0
-12104 2260 0
-12109 -1750 0
-12109 2261 0
-12114 -1751 0
-12114 2262 0
-12119 -1752 0
-12119 2263 0
-12124 -1753 0
-12124 2264 0
-3000 12093 12094 0
-12089 -12093 0
-12092 -12093 0
12088 -12091 12092 0
-12089 -12091 0
-12091 -12090 0
12091 12090 12089 0
-12090 -1879 0
-12090 1935 0
1879 -1935 12090 0
-12088 -12084 0
-12088 -12087 0
12083 12087 -12086 0
-12086 -12085 0
12086 12084 12085 0
-12085 -1878 0
-12085 1934 0
-1934 12085 1878 0
-12083 -12079 0
-12079 -12081 0
12081 12079 12080 0
-12080 -1877 0
-12080 1933 0
-1933 12080 1877 0
-12074 -12076 0
12076 12075 12074 0
-12075 -1876 0
1932 -12075 0
-1932 12075 1876 0
12071 12070 12069 0
-12070 -1875 0
1931 -12070 0
-1931 12070 1875 0
12066 12065 12064 0
-12065 -1874 0
1930 -12065 0
-1930 12065 1874 0
12062 12061 12060 0
-12060 1873 0
-12060 -1929 0
-12064 1874 0
-12064 -1930 0
-12069 1875 0
-12069 -1931 0
-12074 1876 0
-12074 -1932 0
1932 -1876 12074 0
-12079 1877 0
-12079 -1933 0
-1877 12079 1933 0
-12084 1878 0
-12084 -1934 0
-1878 12084 1934 0
-12089 1879 0
-12089 -1935 0
1935 -1879 12089 0
-2971 12058 12059 0
-12054 -12058 0
-12057 -12058 0
12053 -12056 12057 0
-12055 -12056 0
12056 12055 12054 0
-12055 -1879 0
-12055 1921 0
1879 -1921 12055 0
-12053 -12049 0
-12053 -12052 0
12048 12052 -12051 0
12051 12049 12050 0
-12050 -1878 0
-12050 1920 0
-1920 12050 1878 0
-12048 -12044 0
-12048 -12047 0
12043 12047 -12046 0
-12046 -12044 0
-12045 -12046 0
12046 12044 12045 0
-12045 -1877 0
-12045 1919 0
-1919 12045 1877 0
-12043 -12039 0
-12043 -12042 0
12038 -12041 12042 0
-12040 -12041 0
12041 12040 12039 0
-12040 -1876 0
1918 -12040 0
-1918 12040 1876 0
-12038 -12034 0
-12038 -12037 0
12033 -12036 12037 0
-12035 -12036 0
12036 12035 12034 0
-12035 -1875 0
-1917 12035 1875 0
-12033 -12029 0
-12033 -12032 0
12028 -12031 12032 0
12031 12030 12029 0
1916 -12030 0
-1916 12030 1874 0
-12028 -12025 0
-12028 -12027 0
12027 12026 12025 0
-12026 -1873 0
-12025 1873 0
-1915 -12025 0
-12029 1874 0
-1916 -12029 0
-12034 1875 0
-12034 -1917 0
1917 -1875 12034 0
-12039 1876 0
-12039 -1918 0
1918 -1876 12039 0
-12044 1877 0
-12044 -1919 0
-1877 12044 1919 0
-12049 1878 0
-12049 -1920 0
-12054 1879 0
-12054 -1921 0
1921 -1879 12054 0
-2942 12023 12024 0
-12019 -12023 0
-12022 -12023 0
12018 -12021 12022 0
-12019 -12021 0
-12021 -12020 0
12021 12020 12019 0
-12020 -1879 0
-12020 1907 0
1879 -1907 12020 0
-12018 -12014 0
-12018 -12017 0
12013 12017 -12016 0
-12014 -12016 0
-12016 -12015 0
12016 12014 12015 0
-12015 -1878 0
-12015 1906 0
-1906 12015 1878 0
-12013 -12009 0
-12013 -12012 0
12008 12012 -12011 0
-12011 -12010 0
12011 12009 12010 0
-12010 -1877 0
-12010 1905 0
-1905 12010 1877 0
-12008 -12004 0
-12008 -12007 0
12003 12007 -12006 0
-12006 -12005 0
12006 12005 12004 0
-12005 -1876 0
1904 -12005 0
-1904 12005 1876 0
-12003 -12002 0
11998 12002 -12001 0
-12001 -12000 0
12001 12000 11999 0
-12000 -1875 0
1903 -12000 0
-1903 12000 1875 0
-11998 -11994 0
-11994 -11996 0
11996 11995 11994 0
-11995 -1874 0
1902 -11995 0
-1902 11995 1874 0
11992 11991 11990 0
-11990 1873 0
-11990 -1901 0
-11994 1874 0
-11994 -1902 0
1902 -1874 11994 0
-11999 1875 0
-11999 -1903 0
-12004 1876 0
-12004 -1904 0
1904 -1876 12004 0
-12009 1877 0
-12009 -1905 0
-1877 12009 1905 0
-12014 1878 0
-12014 -1906 0
-1878 12014 1906 0
-12019 1879 0
-12019 -1907 0
1907 -1879 12019 0
11988 -11954 11989 0
-11984 -11988 0
-11987 -11988 0
11983 -11986 11987 0
11986 11985 11984 0
-11985 1739 0
-11985 -1823 0
-11983 -11979 0
-11983 -11982 0
11982 11978 -11981 0
11981 11979 11980 0
-11980 1738 0
-11980 -1822 0
-11978 -11974 0
-11978 -11977 0
11977 11973 -11976 0
11976 11974 11975 0
-11975 1737 0
-11975 -1821 0
-11973 -11969 0
-11973 -11972 0
11972 11968 -11971 0
11971 11970 11969 0
-11970 1736 0
-11970 -1820 0
-11968 -11964 0
-11968 -11967 0
11967 11963 -11966 0
11966 11964 11965 0
-11965 1735 0
-11965 -1819 0
-11963 -11959 0
-11963 -11962 0
11962 11958 -11961 0
11961 11959 11960 0
-11960 1734 0
-11960 -1818 0
-11958 -11955 0
-11958 -11957 0
11957 11955 11956 0
-11956 1733 0
-11956 -1817 0
1734 11959 -1818 0
1735 11964 -1819 0
-11969 -1736 0
-11969 1820 0
1736 -1820 11969 0
-11974 -1737 0
-11974 1821 0
-1821 11974 1737 0
-11979 1822 0
-1822 11979 1738 0
1739 -1823 11984 0
-11953 11954 -11948 0
-11952 11953 -11945 0
-11951 11952 -11942 0
-11950 11951 -11939 0
11950 -11949 -11936 0
11949 -11930 -11933 0
11933 11932 11931 0
-11932 1860 0
-11932 -1944 0
-1860 11932 1944 0
-11931 -1860 0
-11931 1944 0
1860 -1944 11931 0
11930 11929 11928 0
-11929 1859 0
-11929 -1943 0
-1859 11929 1943 0
-11928 -1859 0
-11928 1943 0
1859 -1943 11928 0
11936 11935 11934 0
-11935 1861 0
-11935 -1945 0
-1861 11935 1945 0
-11934 -1861 0
-11934 1945 0
1861 -1945 11934 0
11939 11938 11937 0
-11938 1862 0
-11938 -1946 0
-1862 11938 1946 0
-11937 -1862 0
-11937 1946 0
1862 -1946 11937 0
11942 11940 11941 0
-11941 1863 0
-11941 -1947 0
-1863 11941 1947 0
-11940 -1863 0
-11940 1947 0
-1947 11940 1863 0
11945 11943 11944 0
-11944 1864 0
-11944 -1948 0
-1864 11944 1948 0
-11943 -1864 0
-11943 1948 0
-1948 11943 1864 0
11948 11946 11947 0
-11947 1865 0
-11947 -1949 0
11947 1949 -1865 0
-11946 -1865 0
-11946 1949 0
1865 11946 -1949 0
11926 -10402 11927 0
-11922 -11926 0
-11925 -11926 0
11921 -11924 11925 0
11924 11923 11922 0
-11923 1739 0
-11923 -1865 0
-11921 -11917 0
-11921 -11920 0
11920 11916 -11919 0
11919 11918 11917 0
-11918 1738 0
-11918 -1864 0
-11916 -11912 0
-11916 -11915 0
11915 11911 -11914 0
11914 11912 11913 0
-11913 1737 0
-11913 -1863 0
-11911 -11907 0
-11911 -11910 0
11910 11906 -11909 0
11909 11907 11908 0
-11908 1736 0
-11908 -1862 0
-11906 -11902 0
-11906 -11905 0
11905 11901 -11904 0
11904 11903 11902 0
-11903 1735 0
-11903 -1861 0
-11901 -11897 0
-11901 -11900 0
11900 11896 -11899 0
11899 11897 11898 0
-11898 1734 0
-11898 -1860 0
-11896 -11893 0
-11896 -11895 0
11895 11894 11893 0
-11894 1733 0
-11894 -1859 0
1734 11897 -1860 0
1735 -1861 11902 0
1736 11907 -1862 0
11912 -1863 1737 0
-11917 1864 0
-1864 11917 1738 0
-11922 1865 0
1739 -1865 11922 0
-10345 -11892 0
11891 -11892 0
-10347 -11891 0
11890 -11891 0
-10349 -11890 0
11889 -11890 0
11888 -11889 0
-10353 -11888 0
11887 -11888 0
-10355 -11887 0
11886 -11887 0
-10357 -11886 0
11885 -11886 0
-10359 -11885 0
11884 -11885 0
-10361 -11884 0
11883 -11884 0
-10363 -11883 0
11882 -11883 0
-10365 -11882 0
11881 -11882 0
-10367 -11881 0
11880 -11881 0
-10369 -11880 0
11879 -11880 0
-10371 -11879 0
11878 -11879 0
-10373 -11878 0
11877 -11878 0
-10374 -11877 0
11876 -11877 0
-10403 -11876 0
11875 -11876 0
11874 -11875 0
11873 -11874 0
-10490 -11873 0
11872 -11873 0
-10519 -11872 0
11871 -11872 0
-10548 -11871 0
11870 -11871 0
-10577 -11870 0
11869 -11870 0
-10606 -11869 0
11868 -11869 0
-10635 -11868 0
11867 -11868 0
-10664 -11867 0
11866 -11867 0
-10693 -11866 0
11865 -11866 0
-10722 -11865 0
11864 -11865 0
-10751 -11864 0
11863 -11864 0
-10787 -11863 0
11862 -11863 0
-10816 -11862 0
11861 -11862 0
-10845 -11861 0
11860 -11861 0
-10874 -11860 0
11859 -11860 0
-10903 -11859 0
11858 -11859 0
11857 -11858 0
11856 -11857 0
11855 -11856 0
11854 -11855 0
11853 -11854 0
11852 -11853 0
11851 -11852 0
11850 -11851 0
11849 -11850 0
11848 -11849 0
11847 -11848 0
11846 -11847 0
11845 -11846 0
11844 -11845 0
11843 -11844 0
11842 -11843 0
11841 -11842 0
11840 -11841 0
11839 -11840 0
11838 -11839 0
11837 -11838 0
11836 -11837 0
11835 -11836 0
11834 -11835 0
11833 -11834 0
-11662 -11833 0
11832 -11833 0
-11697 -11832 0
11831 -11832 0
11830 -11831 0
-11829 -11830 0
11828 11829 -10605 0
-11824 -11828 0
-11827 -11828 0
-11826 11823 11827 0
11825 11826 11824 0
-11825 1739 0
-11819 -11823 0
-11822 -11823 0
11818 -11821 11822 0
11820 11821 11819 0
-11820 -2740 0
2740 11820 -1738 0
-11818 -11814 0
-11818 -11817 0
11817 11813 -11816 0
11814 11816 11815 0
-11815 1737 0
-11815 -2739 0
-11813 -11809 0
-11813 -11812 0
11812 11808 -11811 0
11810 11809 11811 0
-11810 -2738 0
-11808 -11804 0
-2737 11804 1735 0
-2738 1736 11809 0
-2740 11819 1738 0
1739 -2741 11824 0
11791 11789 11790 0
-11790 1739 0
11786 11784 11785 0
-11785 1738 0
-11785 -2151 0
-1738 11785 2151 0
11781 11779 11780 0
-11780 1737 0
-11780 -2150 0
-1737 11780 2150 0
-11776 -11775 0
11776 11775 11774 0
1736 -11775 0
-11775 -2149 0
-1736 11775 2149 0
11771 11770 11769 0
-11770 1735 0
-1734 11765 2147 0
-11769 2148 0
-11774 -1736 0
-11774 2149 0
-11779 -1737 0
-11779 2150 0
-11784 -1738 0
-11784 2151 0
-11789 2152 0
-11730 -11731 0
11726 -11729 11730 0
11729 11728 11727 0
-11728 -1865 0
-11728 1935 0
-11726 -11725 0
11721 -11724 11725 0
11724 11722 11723 0
-11723 -1864 0
-11723 1934 0
-11721 -11720 0
11716 -11719 11720 0
11719 11717 11718 0
-11718 -1863 0
-11718 1933 0
-11716 -11712 0
-11714 -11712 0
11714 11712 11713 0
-11713 -1862 0
1932 11712 -1862 0
-11717 1863 0
-11717 -1933 0
-11722 1864 0
-11722 -1934 0
-11727 1865 0
-11727 -1935 0
-2884 11696 11697 0
-11695 -11696 0
11691 -11694 11695 0
11694 11693 11692 0
-11693 -1865 0
-11693 1921 0
-11691 -11687 0
-11691 -11690 0
11686 11690 -11689 0
11689 11687 11688 0
-11688 -1864 0
-11688 1920 0
-11686 -11682 0
-11686 -11685 0
11681 11685 -11684 0
11684 11682 11683 0
-11683 -1863 0
-11683 1919 0
-11681 -11677 0
-11681 -11680 0
11676 -11679 11680 0
11679 11677 11678 0
-11678 -1862 0
-11676 -11672 0
11672 1917 -1861 0
-11677 -1918 0
1918 11677 -1862 0
-11682 1863 0
-11682 -1919 0
-1863 11682 1919 0
-11687 1864 0
-11687 -1920 0
-1864 11687 1920 0
-11692 1865 0
-11692 -1921 0
-2855 11661 11662 0
-11660 -11661 0
11656 -11659 11660 0
11659 11658 11657 0
-11658 -1865 0
-11658 1907 0
-11656 -11652 0
-11656 -11655 0
11651 11655 -11654 0
11654 11652 11653 0
-11653 -1864 0
-11653 1906 0
-11651 -11650 0
11646 11650 -11649 0
11649 11647 11648 0
-11648 -1863 0
-11648 1905 0
-11646 -11642 0
11644 11643 11642 0
-11643 1904 0
11637 11639 11638 0
-11638 -1861 0
11634 11633 11632 0
-11633 -1860 0
11630 11629 11628 0
-11629 1901 0
-11628 1859 0
-11632 -1902 0
-11637 -1903 0
-11642 1862 0
1904 -1862 11642 0
-11647 1863 0
-11647 -1905 0
-11652 1864 0
-11652 -1906 0
-1864 11652 1906 0
-11657 1865 0
-11657 -1907 0
11605 11603 11604 0
-11604 2623 0
11604 -2623 2553 0
-11603 2553 0
11602 11601 11600 0
-11600 2552 0
11608 11606 11607 0
-11607 2624 0
11607 -2624 2554 0
-11606 2554 0
-11611 -11610 0
11611 11609 11610 0
-11610 -2555 0
-11610 2625 0
11610 -2625 2555 0
-11609 2555 0
-11609 -2625 0
11614 11612 11613 0
-11613 -2556 0
-11613 2626 0
11613 -2626 2556 0
-11612 2556 0
-11612 -2626 0
11617 11615 11616 0
-11616 -2557 0
-11616 2627 0
11616 -2627 2557 0
-11615 2557 0
-11615 -2627 0
11620 11618 11619 0
-11619 -2558 0
-11619 2628 0
2558 -2628 11619 0
-11618 2558 0
-11618 -2628 0
-11464 -11463 0
11464 11462 11463 0
-11463 2624 0
11463 -2624 2470 0
-11462 2470 0
-11467 -11466 0
11467 11465 11466 0
-11466 -2471 0
-11466 2625 0
11466 -2625 2471 0
-11465 2471 0
-11465 -2625 0
-11470 -11469 0
11470 11468 11469 0
-11469 -2472 0
-11469 2626 0
11469 -2626 2472 0
-11468 2472 0
-11468 -2626 0
-11473 -11472 0
11473 11471 11472 0
-11472 -2473 0
-11472 2627 0
11472 -2627 2473 0
-11471 2473 0
-11471 -2627 0
-11476 -11475 0
11476 11474 11475 0
-11475 -2474 0
-11475 2628 0
2474 -2628 11475 0
-11474 2474 0
-11474 -2628 0
-11365 11366 -11360 0
-11364 11365 -11357 0
-11363 11364 -11354 0
-11362 11363 -11351 0
-11361 11362 -11348 0
11361 -11345 -11342 0
-11345 -11343 0
-11345 -11344 0
11345 11343 11344 0
-11344 -2259 0
-11344 2721 0
-2721 2259 11344 0
-11343 2259 0
-2721 -11343 0
2721 11343 -2259 0
-11342 -11340 0
-11342 -11341 0
11342 11340 11341 0
-11341 -2258 0
-11341 2720 0
-2720 2258 11341 0
-11340 2258 0
-2720 -11340 0
2720 11340 -2258 0
-11348 -11346 0
-11348 -11347 0
11348 11346 11347 0
-11347 -2260 0
-11347 2722 0
-2722 2260 11347 0
-11346 2260 0
-2722 -11346 0
2722 11346 -2260 0
-11351 -11349 0
-11351 -11350 0
11351 11349 11350 0
-11350 -2261 0
-11350 2723 0
-2723 2261 11350 0
-11349 2261 0
-2723 -11349 0
2723 11349 -2261 0
-11354 -11352 0
-11354 -11353 0
11354 11352 11353 0
-11353 -2262 0
-11353 2724 0
-2724 2262 11353 0
-11352 2262 0
-2724 -11352 0
2724 11352 -2262 0
-11357 -11355 0
-11357 -11356 0
11357 11355 11356 0
-11356 -2263 0
-11356 2725 0
-2725 2263 11356 0
-11355 2263 0
-2725 -11355 0
2725 11355 -2263 0
-11360 -11358 0
-11360 -11359 0
11360 11358 11359 0
-11359 -2264 0
-11359 2726 0
2264 -2726 11359 0
-11358 2264 0
-11358 -2726 0
2726 11358 -2264 0
-11336 11337 -11331 0
-11335 11336 -11328 0
-11334 11335 -11325 0
-11333 11334 -11322 0
-11332 11333 -11319 0
11332 -11316 -11313 0
11316 11314 11315 0
-11315 -2259 0
-11315 2707 0
-11314 2259 0
-2707 -11314 0
11313 11311 11312 0
-11312 -2258 0
-11312 2706 0
-11311 2258 0
-2706 -11311 0
11319 11317 11318 0
-11318 -2260 0
-11318 2708 0
-11317 2260 0
-2708 -11317 0
2708 11317 -2260 0
11322 11320 11321 0
-11321 -2261 0
-11321 2709 0
-11320 2261 0
-2709 -11320 0
2709 11320 -2261 0
11325 11323 11324 0
-11324 -2262 0
-11324 2710 0
-11323 2262 0
-2710 -11323 0
2710 11323 -2262 0
11328 11326 11327 0
-11327 -2263 0
-11327 2711 0
-11326 2263 0
-2711 -11326 0
2711 11326 -2263 0
11331 11329 11330 0
-11330 -2264 0
-11330 2712 0
-11329 2264 0
-2712 -11329 0
2712 11329 -2264 0
-11307 11308 -11302 0
-11306 11307 -11299 0
-11305 11306 -11296 0
-11304 11305 -11293 0
-11303 11304 -11290 0
11303 -11287 -11284 0
11287 11285 11286 0
-11286 -2259 0
-11286 2693 0
-11285 2259 0
-2693 -11285 0
2693 11285 -2259 0
11284 11282 11283 0
-11283 -2258 0
-11283 2692 0
-11282 2258 0
-2692 -11282 0
2692 11282 -2258 0
11290 11288 11289 0
-11289 -2260 0
-11289 2694 0
-11288 2260 0
-2694 -11288 0
2694 11288 -2260 0
11293 11291 11292 0
-11292 -2261 0
-11292 2695 0
-2695 2261 11292 0
-11291 2261 0
-2695 -11291 0
2695 11291 -2261 0
11296 11294 11295 0
-11295 -2262 0
-11295 2696 0
-11294 2262 0
-2696 -11294 0
2696 11294 -2262 0
11299 11297 11298 0
-11298 -2263 0
-11298 2697 0
-11297 2263 0
-2697 -11297 0
2697 11297 -2263 0
11302 11300 11301 0
-11301 -2264 0
-11301 2698 0
-11300 2264 0
-2698 -11300 0
2698 11300 -2264 0
-11278 -11273 11279 0
-11277 -11270 11278 0
-11276 -11267 11277 0
-11275 -11264 11276 0
-11274 -11261 11275 0
-11258 11274 -11255 0
11258 11256 11257 0
-11257 -2259 0
-11257 10754 0
-11256 2259 0
-10754 -11256 0
10754 11256 -2259 0
11255 11253 11254 0
-11254 -2258 0
-11254 10753 0
-11253 2258 0
-10753 -11253 0
11261 11259 11260 0
-11260 -2260 0
-11260 10755 0
-10755 2260 11260 0
-11259 2260 0
-10755 -11259 0
10755 11259 -2260 0
11264 11262 11263 0
-11263 -2261 0
-11263 10756 0
-10756 2261 11263 0
-11262 2261 0
-10756 -11262 0
10756 11262 -2261 0
11267 11265 11266 0
-11266 -2262 0
-11266 10757 0
-11265 2262 0
-10757 -11265 0
10757 11265 -2262 0
11270 11268 11269 0
-11269 -2263 0
-11269 10758 0
-10758 2263 11269 0
-11268 2263 0
-10758 -11268 0
10758 11268 -2263 0
11273 11271 11272 0
-11272 -2264 0
-11272 10759 0
-10759 2264 11272 0
-11271 2264 0
-10759 -11271 0
10759 11271 -2264 0
-11249 -11244 11250 0
-11248 -11241 11249 0
-11247 -11238 11248 0
-11246 -11235 11247 0
-11245 -11232 11246 0
-11229 -11226 11245 0
11229 11227 11228 0
-11228 -2259 0
-11228 2623 0
-11227 2259 0
-2623 -11227 0
2623 11227 -2259 0
11226 11224 11225 0
-11225 -2258 0
-11225 2622 0
-2622 2258 11225 0
-11224 2258 0
-2622 -11224 0
2622 11224 -2258 0
11232 11230 11231 0
-11231 -2260 0
-11231 2624 0
-11230 2260 0
-2624 -11230 0
2624 11230 -2260 0
11235 11233 11234 0
-11234 -2261 0
-11234 2625 0
-2625 2261 11234 0
-11233 2261 0
-2625 -11233 0
2625 11233 -2261 0
11238 11236 11237 0
-11237 -2262 0
-11237 2626 0
-2626 2262 11237 0
-11236 2262 0
-2626 -11236 0
2626 11236 -2262 0
11241 11239 11240 0
-11240 -2263 0
-11240 2627 0
-2627 2263 11240 0
-11239 2263 0
-2627 -11239 0
2627 11239 -2263 0
11244 11243 11242 0
-11243 -2264 0
-11243 2628 0
2264 11243 -2628 0
-11242 2264 0
-11242 -2628 0
2628 11242 -2264 0
-11220 -11215 11221 0
-11219 11220 -11212 0
-11218 11219 -11209 0
-11217 11218 -11206 0
-11216 11217 -11203 0
11216 -11200 -11197 0
-11200 -11198 0
-11200 -11199 0
11200 11198 11199 0
-11199 -2259 0
-11199 2553 0
-2553 2259 11199 0
-11198 2259 0
-2553 -11198 0
2553 11198 -2259 0
-11197 -11195 0
-11197 -11196 0
11197 11195 11196 0
-11196 -2258 0
-11196 2552 0
-2552 2258 11196 0
-11195 2258 0
-2552 -11195 0
2552 11195 -2258 0
-11203 -11201 0
-11203 -11202 0
11203 11201 11202 0
-11202 -2260 0
-11202 2554 0
-2554 2260 11202 0
-11201 2260 0
-2554 -11201 0
2554 11201 -2260 0
-11206 -11204 0
-11206 -11205 0
11206 11204 11205 0
-11205 -2261 0
-11205 2555 0
-2555 2261 11205 0
-11204 2261 0
-2555 -11204 0
2555 11204 -2261 0
-11209 -11207 0
-11209 -11208 0
11209 11207 11208 0
-11208 -2262 0
-11208 2556 0
-2556 2262 11208 0
-11207 2262 0
-2556 -11207 0
2556 11207 -2262 0
-11212 -11210 0
-11212 -11211 0
11212 11210 11211 0
-11211 -2263 0
-11211 2557 0
-2557 2263 11211 0
-11210 2263 0
-2557 -11210 0
2557 11210 -2263 0
-11215 -11213 0
-11215 -11214 0
11215 11213 11214 0
-11214 -2264 0
-11214 2558 0
2264 -2558 11214 0
-11213 2264 0
-11213 -2558 0
2558 11213 -2264 0
11186 -11192 0
11191 -11192 0
-11186 11192 -11191 0
11183 -11191 0
11190 -11191 0
-11183 11191 -11190 0
11180 -11190 0
11189 -11190 0
-11180 11190 -11189 0
11177 -11189 0
11188 -11189 0
-11177 11189 -11188 0
11174 -11188 0
11187 -11188 0
-11174 11188 -11187 0
11168 -11187 0
11171 -11187 0
-11168 11187 -11171 0
-11169 -11171 0
-11170 -11171 0
11171 11169 11170 0
-11170 -2259 0
-11170 2469 0
-2469 2259 11170 0
-11169 2259 0
-2469 -11169 0
2469 -2259 11169 0
-11166 -11168 0
-11167 -11168 0
11168 11166 11167 0
-11167 -2258 0
-11167 2468 0
-2468 2258 11167 0
-11166 2258 0
-2468 -11166 0
2468 -2258 11166 0
-11172 -11174 0
-11173 -11174 0
11174 11172 11173 0
-11173 -2260 0
-11173 2470 0
-2470 2260 11173 0
-11172 2260 0
-2470 -11172 0
2470 -2260 11172 0
-11175 -11177 0
-11176 -11177 0
11177 11175 11176 0
-11176 -2261 0
-11176 2471 0
-2471 2261 11176 0
-11175 2261 0
-2471 -11175 0
2471 -2261 11175 0
-11178 -11180 0
-11179 -11180 0
11180 11178 11179 0
-11179 -2262 0
-11179 2472 0
-2472 2262 11179 0
-11178 2262 0
-2472 -11178 0
2472 -2262 11178 0
-11181 -11183 0
-11182 -11183 0
11183 11181 11182 0
-11182 -2263 0
-11182 2473 0
-2473 2263 11182 0
-11181 2263 0
-2473 -11181 0
2473 -2263 11181 0
-11184 -11186 0
-11185 -11186 0
11186 11185 11184 0
-11185 -2264 0
-11185 2474 0
2264 -2474 11185 0
-11184 2264 0
-11184 -2474 0
2474 -2264 11184 0
-11157 -11162 11163 0
-11161 11162 -11154 0
-11160 -11151 11161 0
-11159 11160 -11148 0
-11158 -11145 11159 0
11158 -11142 -11139 0
-11142 -11140 0
-11142 -11141 0
11142 11140 11141 0
-11141 -2259 0
-11141 2371 0
-2371 2259 11141 0
-11140 2259 0
-2371 -11140 0
2371 11140 -2259 0
-11139 -11137 0
-11139 -11138 0
11139 11137 11138 0
-11138 -2258 0
-11138 2370 0
-2370 2258 11138 0
-11137 2258 0
-2370 -11137 0
2370 11137 -2258 0
-11145 -11143 0
-11145 -11144 0
11145 11143 11144 0
-11144 -2260 0
-11144 2372 0
-2372 2260 11144 0
-11143 2260 0
-2372 -11143 0
2372 11143 -2260 0
-11148 -11146 0
-11148 -11147 0
11148 11146 11147 0
-11147 -2261 0
-11147 2373 0
-2373 2261 11147 0
-11146 2261 0
-2373 -11146 0
2373 11146 -2261 0
-11151 -11149 0
-11151 -11150 0
11151 11149 11150 0
-11150 -2262 0
-11150 2374 0
-2374 2262 11150 0
-11149 2262 0
-2374 -11149 0
2374 11149 -2262 0
-11154 -11152 0
-11154 -11153 0
11154 11152 11153 0
-11153 -2263 0
-11153 2375 0
-2375 2263 11153 0
-11152 2263 0
-2375 -11152 0
2375 11152 -2263 0
-11155 -11157 0
-11156 -11157 0
11157 11156 11155 0
-11156 -2264 0
-11156 2376 0
2264 -2376 11156 0
-11155 2264 0
-11155 -2376 0
2376 -2264 11155 0
-11128 -11133 11134 0
11133 -11132 -11125 0
11132 -11131 -11122 0
-11130 11131 -11119 0
11130 -11129 -11116 0
11129 -11113 -11110 0
11113 11112 11111 0
-11112 -2147 0
-11112 2721 0
-2721 11112 2147 0
-11111 2147 0
-11111 -2721 0
11110 11109 11108 0
-11109 -2146 0
-11109 2720 0
-2720 11109 2146 0
-11108 2146 0
-11108 -2720 0
11116 11115 11114 0
-11115 -2148 0
-11115 2722 0
-2722 11115 2148 0
-11114 2148 0
-11114 -2722 0
11119 11118 11117 0
-11118 -2149 0
-11118 2723 0
-2723 11118 2149 0
-11117 2149 0
-11117 -2723 0
11122 11121 11120 0
-11121 -2150 0
-11121 2724 0
-2724 11121 2150 0
-11120 2150 0
-11120 -2724 0
11125 11124 11123 0
-11124 -2151 0
-11124 2725 0
-2725 11124 2151 0
-11123 2151 0
-11123 -2725 0
11128 11126 11127 0
-11127 -2152 0
-11127 2726 0
2152 -2726 11127 0
-11126 2152 0
-11126 -2726 0
-11099 11105 -11104 0
11104 -11103 -11096 0
11103 -11102 -11093 0
11102 -11101 -11090 0
11101 -11100 -11087 0
11100 -11084 -11081 0
-11084 -11082 0
-11084 -11083 0
11084 11083 11082 0
-11083 -2147 0
-11083 2707 0
-2707 11083 2147 0
-11082 2147 0
-11082 -2707 0
2707 -2147 11082 0
-11081 -11079 0
-11081 -11080 0
11081 11080 11079 0
-11080 -2146 0
-11080 2706 0
-2706 11080 2146 0
-11079 2146 0
-11079 -2706 0
2706 -2146 11079 0
-11087 -11085 0
-11087 -11086 0
11087 11086 11085 0
-11086 -2148 0
-11086 2708 0
-2708 11086 2148 0
-11085 2148 0
-11085 -2708 0
2708 -2148 11085 0
-11090 -11088 0
-11090 -11089 0
11090 11089 11088 0
-11089 -2149 0
-11089 2709 0
-2709 11089 2149 0
-11088 2149 0
-11088 -2709 0
2709 -2149 11088 0
-11093 -11091 0
-11093 -11092 0
11093 11092 11091 0
-11092 -2150 0
-11092 2710 0
-2710 11092 2150 0
-11091 2150 0
-11091 -2710 0
2710 -2150 11091 0
-11096 -11094 0
-11096 -11095 0
11096 11095 11094 0
-11095 -2151 0
-11095 2711 0
-2711 11095 2151 0
-11094 2151 0
-11094 -2711 0
2711 -2151 11094 0
-11097 -11099 0
-11098 -11099 0
11099 11097 11098 0
-11098 -2152 0
-11098 2712 0
-2712 2152 11098 0
-11097 2152 0
-11097 -2712 0
2712 -2152 11097 0
-11070 -11075 11076 0
11075 -11074 -11067 0
11074 -11073 -11064 0
11073 -11072 -11061 0
11072 -11071 -11058 0
11071 -11055 -11052 0
-11055 -11053 0
-11055 -11054 0
11055 11054 11053 0
-11054 -2147 0
-11054 2693 0
-2693 11054 2147 0
-11053 2147 0
-11053 -2693 0
2693 -2147 11053 0
-11052 -11050 0
-11052 -11051 0
11052 11051 11050 0
-11051 -2146 0
-11051 2692 0
-2692 11051 2146 0
-11050 2146 0
-11050 -2692 0
2692 -2146 11050 0
-11058 -11056 0
-11058 -11057 0
11058 11057 11056 0
-11057 -2148 0
-11057 2694 0
-2694 11057 2148 0
-11056 2148 0
-11056 -2694 0
2694 -2148 11056 0
-11061 -11059 0
-11061 -11060 0
11061 11060 11059 0
-11060 -2149 0
-11060 2695 0
-2695 11060 2149 0
-11059 2149 0
-11059 -2695 0
2695 -2149 11059 0
-11064 -11062 0
-11064 -11063 0
11064 11063 11062 0
-11063 -2150 0
-11063 2696 0
-2696 11063 2150 0
-11062 2150 0
-11062 -2696 0
2696 -2150 11062 0
-11067 -11065 0
-11067 -11066 0
11067 11066 11065 0
-11066 -2151 0
-11066 2697 0
-2697 11066 2151 0
-11065 2151 0
-11065 -2697 0
2697 -2151 11065 0
-11068 -11070 0
-11069 -11070 0
11070 11068 11069 0
-11069 -2152 0
-11069 2698 0
-2698 2152 11069 0
-11068 2152 0
-11068 -2698 0
2698 -2152 11068 0
-11041 11047 -11046 0
-11045 11046 -11038 0
-11044 11045 -11035 0
-11043 11044 -11032 0
11043 -11042 -11029 0
11042 -11026 -11023 0
11026 11025 11024 0
-11025 -2147 0
-11025 10754 0
-11024 2147 0
-11024 -10754 0
11023 11022 11021 0
-11022 -2146 0
-11022 10753 0
-11021 2146 0
-11021 -10753 0
11029 11028 11027 0
-11028 -2148 0
-11028 10755 0
-11027 2148 0
-11027 -10755 0
11032 11031 11030 0
-11031 -2149 0
-11031 10756 0
-11030 2149 0
-11030 -10756 0
11035 11034 11033 0
-11034 -2150 0
-11034 10757 0
-11033 2150 0
-11033 -10757 0
11038 11037 11036 0
-11037 -2151 0
-11037 10758 0
-11036 2151 0
-11036 -10758 0
11041 11039 11040 0
-11040 -2152 0
-11040 10759 0
-11039 2152 0
-11039 -10759 0
-11017 -11012 11018 0
-11016 11017 -11009 0
-11015 11016 -11006 0
-11014 11015 -11003 0
11014 -11013 -11000 0
11013 -10994 -10997 0
10997 10996 10995 0
-10996 -2147 0
-10996 2623 0
-10995 2147 0
-10995 -2623 0
10994 10993 10992 0
-10993 -2146 0
-10993 2622 0
-10992 2146 0
-10992 -2622 0
11000 10999 10998 0
-10999 -2148 0
-10999 2624 0
-10998 2148 0
-10998 -2624 0
11003 11002 11001 0
-11002 -2149 0
-11002 2625 0
-11001 2149 0
-11001 -2625 0
11006 11005 11004 0
-11005 -2150 0
-11005 2626 0
-11004 2150 0
-11004 -2626 0
11009 11008 11007 0
-11008 -2151 0
-11008 2627 0
-11007 2151 0
-11007 -2627 0
11012 11011 11010 0
-11011 -2152 0
-11011 2628 0
-11010 2152 0
-11010 -2628 0
-10983 -10988 10989 0
-10987 10988 -10980 0
-10986 10987 -10977 0
10986 -10985 -10974 0
-10984 10985 -10971 0
10984 -10968 -10965 0
10968 10967 10966 0
-10967 -2147 0
-10967 2553 0
-2553 10967 2147 0
-10966 2147 0
-10966 -2553 0
10965 10964 10963 0
-10964 -2146 0
-10964 2552 0
-2552 10964 2146 0
-10963 2146 0
-10963 -2552 0
10971 10970 10969 0
-10970 -2148 0
-10970 2554 0
-2554 10970 2148 0
-10969 2148 0
-10969 -2554 0
10974 10973 10972 0
-10973 -2149 0
-10973 2555 0
-2555 10973 2149 0
-10972 2149 0
-10972 -2555 0
10977 10976 10975 0
-10976 -2150 0
-10976 2556 0
-2556 10976 2150 0
-10975 2150 0
-10975 -2556 0
10980 10979 10978 0
-10979 -2151 0
-10979 2557 0
-2557 10979 2151 0
-10978 2151 0
-10978 -2557 0
10983 10981 10982 0
-10982 -2152 0
-10982 2558 0
2152 -2558 10982 0
-10981 2152 0
-10981 -2558 0
-10954 -10959 10960 0
10959 -10958 -10951 0
10958 -10957 -10948 0
-10956 10957 -10945 0
-10955 10956 -10942 0
10955 -10939 -10936 0
10939 10938 10937 0
-10938 -2147 0
-10938 2469 0
-2469 10938 2147 0
-10937 2147 0
-10937 -2469 0
2469 -2147 10937 0
10936 10935 10934 0
-10935 -2146 0
-10935 2468 0
-2468 10935 2146 0
-10934 2146 0
-10934 -2468 0
2468 -2146 10934 0
10942 10941 10940 0
-10941 -2148 0
-10941 2470 0
-2470 10941 2148 0
-10940 2148 0
-10940 -2470 0
2470 -2148 10940 0
10945 10944 10943 0
-10944 -2149 0
-10944 2471 0
-2471 10944 2149 0
-10943 2149 0
-10943 -2471 0
2471 -2149 10943 0
10948 10947 10946 0
-10947 -2150 0
-10947 2472 0
-2472 10947 2150 0
-10946 2150 0
-10946 -2472 0
2472 -2150 10946 0
10951 10950 10949 0
-10950 -2151 0
-10950 2473 0
-2473 10950 2151 0
-10949 2151 0
-10949 -2473 0
2473 -2151 10949 0
10954 10953 10952 0
-10953 -2152 0
-10953 2474 0
2152 -2474 10953 0
-10952 2152 0
-10952 -2474 0
2474 -2152 10952 0
-10925 -10930 10931 0
10930 -10929 -10922 0
10929 -10928 -10919 0
10928 -10927 -10916 0
10927 -10926 -10913 0
10926 -10910 -10907 0
10910 10909 10908 0
-10909 -2147 0
-10909 2371 0
-10908 2147 0
-10908 -2371 0
2371 -2147 10908 0
10907 10906 10905 0
-10906 -2146 0
-10906 2370 0
-10905 2146 0
-10905 -2370 0
2370 -2146 10905 0
10913 10912 10911 0
-10912 -2148 0
-10912 2372 0
-10911 2148 0
-10911 -2372 0
2372 -2148 10911 0
10916 10915 10914 0
-10915 -2149 0
-10915 2373 0
-10914 2149 0
-10914 -2373 0
2373 -2149 10914 0
10919 10918 10917 0
-10918 -2150 0
-10918 2374 0
-10917 2150 0
-10917 -2374 0
2374 -2150 10917 0
10922 10921 10920 0
-10921 -2151 0
-10921 2375 0
-10920 2151 0
-10920 -2375 0
2375 -2151 10920 0
10925 10924 10923 0
-10924 -2152 0
-10924 2376 0
-10923 2152 0
-10923 -2376 0
2376 -2152 10923 0
10902 10903 -10875 0
10875 -1196 -1195 0
-10846 10873 10874 0
10867 -10873 0
10872 -10873 0
10864 -10872 0
10871 -10872 0
10861 -10871 0
10870 -10871 0
10858 -10870 0
10869 -10870 0
10855 -10869 0
10868 -10869 0
10849 -10868 0
10852 -10868 0
-10850 -10852 0
-10851 -10852 0
10852 10851 10850 0
-10851 -1944 0
-10851 2721 0
-2721 1944 10851 0
-10850 1944 0
-2721 -10850 0
2721 -1944 10850 0
-10847 -10849 0
-10848 -10849 0
10849 10848 10847 0
-10848 -1943 0
-10848 2720 0
-2720 1943 10848 0
-10847 1943 0
-2720 -10847 0
2720 -1943 10847 0
-10853 -10855 0
-10854 -10855 0
10855 10854 10853 0
-10854 -1945 0
-10854 2722 0
-2722 1945 10854 0
-10853 1945 0
-2722 -10853 0
2722 -1945 10853 0
-10856 -10858 0
-10857 -10858 0
10858 10857 10856 0
-10857 -1946 0
-10857 2723 0
-2723 1946 10857 0
-10856 1946 0
-2723 -10856 0
2723 -1946 10856 0
-10859 -10861 0
-10860 -10861 0
10861 10860 10859 0
-10860 -1947 0
-10860 2724 0
-2724 1947 10860 0
-10859 1947 0
-2724 -10859 0
2724 -1947 10859 0
-10862 -10864 0
-10863 -10864 0
10864 10863 10862 0
-10863 -1948 0
-10863 2725 0
-2725 1948 10863 0
-10862 1948 0
-2725 -10862 0
2725 -1948 10862 0
-10865 -10867 0
-10866 -10867 0
10867 10866 10865 0
-10866 -1949 0
-10866 2726 0
1949 -2726 10866 0
-10865 1949 0
-10865 -2726 0
2726 -1949 10865 0
-1205 10846 -1194 0
-10817 10844 10845 0
10838 -10844 0
10843 -10844 0
10835 -10843 0
10842 -10843 0
10832 -10842 0
10841 -10842 0
10829 -10841 0
10840 -10841 0
10826 -10840 0
10839 -10840 0
10820 -10839 0
10823 -10839 0
-10821 -10823 0
-10822 -10823 0
10823 10822 10821 0
-10822 -1944 0
-10822 2707 0
-2707 1944 10822 0
-10821 1944 0
-10821 -2707 0
2707 -1944 10821 0
-10818 -10820 0
-10819 -10820 0
10820 10819 10818 0
-10819 -1943 0
-10819 2706 0
-2706 1943 10819 0
-10818 1943 0
-10818 -2706 0
2706 -1943 10818 0
-10824 -10826 0
-10825 -10826 0
10826 10825 10824 0
-10825 -1945 0
-10825 2708 0
-2708 1945 10825 0
-10824 1945 0
-10824 -2708 0
2708 -1945 10824 0
-10827 -10829 0
-10828 -10829 0
10829 10828 10827 0
-10828 -1946 0
-10828 2709 0
-2709 1946 10828 0
-10827 1946 0
-10827 -2709 0
2709 -1946 10827 0
-10830 -10832 0
-10831 -10832 0
10832 10831 10830 0
-10831 -1947 0
-10831 2710 0
-2710 1947 10831 0
-10830 1947 0
-10830 -2710 0
2710 -1947 10830 0
-10833 -10835 0
-10834 -10835 0
10835 10834 10833 0
-10834 -1948 0
-10834 2711 0
-2711 1948 10834 0
-10833 1948 0
-10833 -2711 0
2711 -1948 10833 0
-10836 -10838 0
-10837 -10838 0
10838 10836 10837 0
-10837 -1949 0
-10837 2712 0
-2712 1949 10837 0
-10836 1949 0
-10836 -2712 0
2712 -1949 10836 0
-1204 10817 -1194 0
-10788 10815 10816 0
10809 -10815 0
10814 -10815 0
10806 -10814 0
10813 -10814 0
10803 -10813 0
10812 -10813 0
10800 -10812 0
10811 -10812 0
10797 -10811 0
10810 -10811 0
10791 -10810 0
10794 -10810 0
-10792 -10794 0
-10793 -10794 0
10794 10793 10792 0
-10793 -1944 0
-10793 2693 0
-2693 1944 10793 0
-10792 1944 0
-10792 -2693 0
2693 -1944 10792 0
-10789 -10791 0
-10790 -10791 0
10791 10790 10789 0
-10790 -1943 0
-10790 2692 0
-2692 1943 10790 0
-10789 1943 0
-10789 -2692 0
2692 -1943 10789 0
-10795 -10797 0
-10796 -10797 0
10797 10796 10795 0
-10796 -1945 0
-10796 2694 0
-2694 1945 10796 0
-10795 1945 0
-10795 -2694 0
2694 -1945 10795 0
-10798 -10800 0
-10799 -10800 0
10800 10799 10798 0
-10799 -1946 0
-10799 2695 0
-2695 1946 10799 0
-10798 1946 0
-10798 -2695 0
2695 -1946 10798 0
-10801 -10803 0
-10802 -10803 0
10803 10802 10801 0
-10802 -1947 0
-10802 2696 0
-2696 1947 10802 0
-10801 1947 0
-10801 -2696 0
2696 -1947 10801 0
-10804 -10806 0
-10805 -10806 0
10806 10805 10804 0
-10805 -1948 0
-10805 2697 0
-2697 1948 10805 0
-10804 1948 0
-10804 -2697 0
2697 -1948 10804 0
-10807 -10809 0
-10808 -10809 0
10809 10807 10808 0
-10808 -1949 0
-10808 2698 0
-2698 1949 10808 0
-10807 1949 0
-10807 -2698 0
2698 -1949 10807 0
-1203 10788 -1194 0
-10752 10786 10787 0
10780 -10786 0
10785 -10786 0
10777 -10785 0
10784 -10785 0
10774 -10784 0
10783 -10784 0
10771 -10783 0
10782 -10783 0
10768 -10782 0
10781 -10782 0
10762 -10781 0
10765 -10781 0
-10763 -10765 0
-10764 -10765 0
-10754 1944 10764 0
10754 -1944 10763 0
-10760 -10762 0
-10761 -10762 0
-10753 1943 10761 0
10753 -1943 10760 0
-10766 -10768 0
-10767 -10768 0
-10755 1945 10767 0
10755 -1945 10766 0
-10769 -10771 0
-10770 -10771 0
-10756 1946 10770 0
10756 -1946 10769 0
-10772 -10774 0
-10773 -10774 0
-10757 1947 10773 0
10757 -1947 10772 0
-10775 -10777 0
-10776 -10777 0
-10758 1948 10776 0
10758 -1948 10775 0
-10778 -10780 0
-10779 -10780 0
-10759 1949 10779 0
10759 -1949 10778 0
-1202 10752 -1194 0
-10723 10750 10751 0
10744 -10750 0
10749 -10750 0
10741 -10749 0
10748 -10749 0
10738 -10748 0
10747 -10748 0
10735 -10747 0
10746 -10747 0
10732 -10746 0
10745 -10746 0
10726 -10745 0
10729 -10745 0
-10727 -10729 0
-10728 -10729 0
-2623 1944 10728 0
2623 -1944 10727 0
-10724 -10726 0
-10725 -10726 0
-2622 1943 10725 0
2622 -1943 10724 0
-10730 -10732 0
-10731 -10732 0
-2624 1945 10731 0
2624 -1945 10730 0
-10733 -10735 0
-10734 -10735 0
-2625 1946 10734 0
2625 -1946 10733 0
-10736 -10738 0
-10737 -10738 0
-2626 1947 10737 0
2626 -1947 10736 0
-10739 -10741 0
-10740 -10741 0
-2627 1948 10740 0
2627 -1948 10739 0
-10742 -10744 0
-10743 -10744 0
1949 -2628 10743 0
2628 -1949 10742 0
10723 -1200 -1194 0
-10694 10721 10722 0
10715 -10721 0
10720 -10721 0
10712 -10720 0
10719 -10720 0
10709 -10719 0
10718 -10719 0
10706 -10718 0
10717 -10718 0
10703 -10717 0
10716 -10717 0
10697 -10716 0
10700 -10716 0
-10698 -10700 0
-10699 -10700 0
10700 10699 10698 0
-10699 -1944 0
-10699 2553 0
-2553 1944 10699 0
-10698 1944 0
-2553 -10698 0
2553 -1944 10698 0
-10695 -10697 0
-10696 -10697 0
10697 10696 10695 0
-10696 -1943 0
-10696 2552 0
-2552 1943 10696 0
-10695 1943 0
-2552 -10695 0
2552 -1943 10695 0
-10701 -10703 0
-10702 -10703 0
10703 10702 10701 0
-10702 -1945 0
-10702 2554 0
-2554 1945 10702 0
-10701 1945 0
-2554 -10701 0
2554 -1945 10701 0
-10704 -10706 0
-10705 -10706 0
10706 10705 10704 0
-10705 -1946 0
-10705 2555 0
-2555 1946 10705 0
-10704 1946 0
-2555 -10704 0
2555 -1946 10704 0
-10707 -10709 0
-10708 -10709 0
10709 10708 10707 0
-10708 -1947 0
-10708 2556 0
-2556 1947 10708 0
-10707 1947 0
-2556 -10707 0
2556 -1947 10707 0
-10710 -10712 0
-10711 -10712 0
10712 10711 10710 0
-10711 -1948 0
-10711 2557 0
-2557 1948 10711 0
-10710 1948 0
-2557 -10710 0
2557 -1948 10710 0
-10713 -10715 0
-10714 -10715 0
10715 10713 10714 0
-10714 -1949 0
-10714 2558 0
1949 -2558 10714 0
-10713 1949 0
-10713 -2558 0
2558 -1949 10713 0
10694 -1199 -1194 0
-10665 10692 10693 0
10686 -10692 0
10691 -10692 0
-10691 10692 -10686 0
10683 -10691 0
10690 -10691 0
-10690 10691 -10683 0
10680 -10690 0
10689 -10690 0
-10689 10690 -10680 0
10677 -10689 0
10688 -10689 0
-10688 10689 -10677 0
10674 -10688 0
10687 -10688 0
-10687 10688 -10674 0
10668 -10687 0
10671 -10687 0
-10671 10687 -10668 0
-10669 -10671 0
-10670 -10671 0
10671 10670 10669 0
-10670 -1944 0
-10670 2469 0
-2469 1944 10670 0
-10669 1944 0
-2469 -10669 0
2469 -1944 10669 0
-10666 -10668 0
-10667 -10668 0
10668 10667 10666 0
-10667 -1943 0
-10667 2468 0
-2468 1943 10667 0
-10666 1943 0
-2468 -10666 0
2468 -1943 10666 0
-10672 -10674 0
-10673 -10674 0
10674 10673 10672 0
-10673 -1945 0
-10673 2470 0
-2470 1945 10673 0
-10672 1945 0
-10672 -2470 0
2470 -1945 10672 0
-10675 -10677 0
-10676 -10677 0
10677 10676 10675 0
-10676 -1946 0
-10676 2471 0
-2471 1946 10676 0
-10675 1946 0
-10675 -2471 0
2471 -1946 10675 0
-10678 -10680 0
-10679 -10680 0
10680 10679 10678 0
-10679 -1947 0
-10679 2472 0
-2472 1947 10679 0
-10678 1947 0
-2472 -10678 0
2472 -1947 10678 0
-10681 -10683 0
-10682 -10683 0
10683 10682 10681 0
-10682 -1948 0
-10682 2473 0
-2473 1948 10682 0
-10681 1948 0
-2473 -10681 0
2473 -1948 10681 0
-10684 -10686 0
-10685 -10686 0
10686 10685 10684 0
-10685 -1949 0
-10685 2474 0
1949 -2474 10685 0
-10684 1949 0
-10684 -2474 0
2474 -1949 10684 0
-1198 10665 -1194 0
-10636 10663 10664 0
10657 -10663 0
10662 -10663 0
10654 -10662 0
10661 -10662 0
10651 -10661 0
10660 -10661 0
10648 -10660 0
10659 -10660 0
10645 -10659 0
10658 -10659 0
10639 -10658 0
10642 -10658 0
-10640 -10642 0
-10641 -10642 0
10642 10641 10640 0
-10641 -1944 0
-10641 2371 0
-2371 1944 10641 0
-10640 1944 0
-2371 -10640 0
2371 -1944 10640 0
-10637 -10639 0
-10638 -10639 0
10639 10638 10637 0
-10638 -1943 0
-10638 2370 0
-2370 1943 10638 0
-10637 1943 0
-2370 -10637 0
2370 -1943 10637 0
-10643 -10645 0
-10644 -10645 0
10645 10644 10643 0
-10644 -1945 0
-10644 2372 0
-2372 1945 10644 0
-10643 1945 0
-2372 -10643 0
2372 -1945 10643 0
-10646 -10648 0
-10647 -10648 0
10648 10647 10646 0
-10647 -1946 0
-10647 2373 0
-2373 1946 10647 0
-10646 1946 0
-2373 -10646 0
2373 -1946 10646 0
-10649 -10651 0
-10650 -10651 0
10651 10650 10649 0
-10650 -1947 0
-10650 2374 0
-2374 1947 10650 0
-10649 1947 0
-2374 -10649 0
2374 -1947 10649 0
-10652 -10654 0
-10653 -10654 0
10654 10653 10652 0
-10653 -1948 0
-10653 2375 0
-2375 1948 10653 0
-10652 1948 0
-2375 -10652 0
2375 -1948 10652 0
-10655 -10657 0
-10656 -10657 0
10657 10656 10655 0
-10656 -1949 0
-10656 2376 0
1949 -2376 10656 0
-10655 1949 0
-10655 -2376 0
2376 -1949 10655 0
-1197 10636 -1194 0
10634 10635 -10607 0
10628 -10634 0
10633 -10634 0
10625 -10633 0
10632 -10633 0
10622 -10632 0
10631 -10632 0
10619 -10631 0
10630 -10631 0
10616 -10630 0
10629 -10630 0
10610 -10629 0
10613 -10629 0
-10611 -10613 0
-10612 -10613 0
1944 -2259 10612 0
-1944 2259 10611 0
-10608 -10610 0
-10609 -10610 0
1943 -2258 10609 0
-1943 2258 10608 0
-10614 -10616 0
-10615 -10616 0
1945 -2260 10615 0
-1945 2260 10614 0
-10617 -10619 0
-10618 -10619 0
1946 -2261 10618 0
-1946 2261 10617 0
-10620 -10622 0
-10621 -10622 0
1947 -2262 10621 0
-1947 2262 10620 0
-10623 -10625 0
-10624 -10625 0
1948 -2263 10624 0
-1948 2263 10623 0
-10626 -10628 0
-10627 -10628 0
-2264 1949 10627 0
2264 -1949 10626 0
10607 -1196 -1194 0
10605 10606 -10578 0
10599 -10605 0
10604 -10605 0
10596 -10604 0
10603 -10604 0
10593 -10603 0
10602 -10603 0
10590 -10602 0
10601 -10602 0
10587 -10601 0
10600 -10601 0
10581 -10600 0
10584 -10600 0
-10582 -10584 0
-10583 -10584 0
-2147 1944 10583 0
2147 -1944 10582 0
-10579 -10581 0
-10580 -10581 0
-2146 1943 10580 0
2146 -1943 10579 0
-10585 -10587 0
-10586 -10587 0
-2148 1945 10586 0
2148 -1945 10585 0
-10588 -10590 0
-10589 -10590 0
-2149 1946 10589 0
2149 -1946 10588 0
-10591 -10593 0
-10592 -10593 0
-2150 1947 10592 0
2150 -1947 10591 0
-10594 -10596 0
-10595 -10596 0
-2151 1948 10595 0
2151 -1948 10594 0
-10597 -10599 0
-10598 -10599 0
-2152 1949 10598 0
2152 -1949 10597 0
10578 -1195 -1194 0
10576 -10549 10577 0
-10576 10575 0
-10575 10567 0
-10575 10574 0
-10574 10564 0
-10574 10573 0
-10573 10561 0
-10573 10572 0
-10572 10558 0
-10558 -10556 0
10556 -1819 2624 0
-10561 -10559 0
-10561 -10560 0
10560 -2625 1820 0
10559 -1820 2625 0
-10564 -10562 0
-10564 -10563 0
10563 -2626 1821 0
10562 -1821 2626 0
-10567 -10566 0
10566 -2627 1822 0
10549 -1200 -1193 0
10547 -10520 10548 0
10546 -10547 0
10538 -10546 0
10545 -10546 0
10535 -10545 0
10544 -10545 0
10532 -10544 0
10543 -10544 0
10529 -10543 0
-10528 -10529 0
-2554 1819 10528 0
-10530 -10532 0
-10531 -10532 0
10532 10530 10531 0
-10531 -1820 0
-2555 1820 10531 0
-10530 -2555 0
-1820 2555 10530 0
-10534 -10535 0
-2556 1821 10534 0
-10536 -10538 0
-1822 2557 10536 0
10520 -1199 -1193 0
10518 -10491 10519 0
10512 -10518 0
10517 -10518 0
10509 -10517 0
10516 -10517 0
10506 -10516 0
10515 -10516 0
10503 -10515 0
10514 -10515 0
10500 -10514 0
10513 -10514 0
10494 -10513 0
10497 -10513 0
-10495 -10497 0
10497 10495 10496 0
-10496 -1818 0
-10496 2469 0
-10495 1818 0
-1818 2469 10495 0
-10492 -10494 0
-10493 -10494 0
10494 10492 10493 0
-10493 -1817 0
-10493 2468 0
-2468 1817 10493 0
-10492 1817 0
-10492 -2468 0
-1817 2468 10492 0
10500 10498 10499 0
-10499 -1819 0
-10499 2470 0
-10498 1819 0
-10498 -2470 0
-1819 10498 2470 0
-10501 -10503 0
-10502 -10503 0
10503 10501 10502 0
-10502 -1820 0
-10502 2471 0
-2471 1820 10502 0
-10501 1820 0
-10501 -2471 0
-1820 2471 10501 0
-10504 -10506 0
10506 10504 10505 0
-10505 -1821 0
-10505 2472 0
-10504 1821 0
-10504 -2472 0
-1821 2472 10504 0
10509 10507 10508 0
-10508 -1822 0
-10508 2473 0
-10507 1822 0
-10507 -2473 0
-1822 10507 2473 0
-10510 -10512 0
10512 10511 10510 0
-10511 -1823 0
-10511 2474 0
-10510 1823 0
-10510 -2474 0
2474 -1823 10510 0
10491 -1198 -1193 0
-10462 10489 10490 0
10483 -10489 0
10488 -10489 0
10480 -10488 0
10487 -10488 0
10477 -10487 0
10486 -10487 0
10485 -10486 0
10471 -10485 0
10468 10466 10467 0
-10467 -1818 0
-10467 2371 0
-10466 1818 0
-10466 -2371 0
-1818 10466 2371 0
10465 10463 10464 0
-10464 -1817 0
-10464 2370 0
-10470 -10471 0
10471 10469 10470 0
-10470 -1819 0
-10470 2372 0
-2372 1819 10470 0
-10469 1819 0
-10469 -2372 0
-1819 10469 2372 0
-10473 -10474 0
10474 10472 10473 0
-10473 -1820 0
-10473 2373 0
10473 -2373 1820 0
-10472 1820 0
-10472 -2373 0
-1820 10472 2373 0
-10475 -10477 0
10477 10475 10476 0
-10476 -1821 0
-10476 2374 0
-10475 1821 0
-10475 -2374 0
-1821 2374 10475 0
-10478 -10480 0
10480 10478 10479 0
-10479 -1822 0
-10479 2375 0
-10478 1822 0
-10478 -2375 0
-1822 2375 10478 0
-10481 -10483 0
-10482 -10483 0
10483 10482 10481 0
-10482 -1823 0
-10482 2376 0
1823 -2376 10482 0
-10481 1823 0
-10481 -2376 0
2376 -1823 10481 0
-1197 -1193 10462 0
-10454 10460 -10459 0
-10458 -10451 10459 0
-10457 -10448 10458 0
-10456 10457 -10445 0
-10455 10456 -10442 0
-10439 10455 -10436 0
-10439 -10437 0
-10439 -10438 0
10439 10438 10437 0
-1818 -10438 0
-10438 2259 0
1818 10438 -2259 0
1818 -10437 0
-10437 -2259 0
-1818 2259 10437 0
-10436 -10434 0
-10436 -10435 0
10436 10435 10434 0
-1817 -10435 0
-10435 2258 0
1817 10435 -2258 0
1817 -10434 0
-10434 -2258 0
-1817 2258 10434 0
-10442 -10440 0
-10442 -10441 0
10442 10441 10440 0
-1819 -10441 0
-10441 2260 0
1819 10441 -2260 0
1819 -10440 0
-10440 -2260 0
-1819 2260 10440 0
-10445 -10443 0
-10445 -10444 0
10445 10444 10443 0
-1820 -10444 0
-10444 2261 0
1820 10444 -2261 0
1820 -10443 0
-10443 -2261 0
-1820 2261 10443 0
-10448 -10446 0
-10448 -10447 0
10448 10447 10446 0
-1821 -10447 0
-10447 2262 0
1821 10447 -2262 0
-10446 1821 0
-10446 -2262 0
-1821 2262 10446 0
-10451 -10449 0
-10451 -10450 0
10451 10450 10449 0
-1822 -10450 0
-10450 2263 0
1822 10450 -2263 0
-10449 1822 0
-10449 -2263 0
-1822 2263 10449 0
-10452 -10454 0
-10453 -10454 0
10454 10453 10452 0
-10453 -1823 0
-10453 2264 0
1823 -2264 10453 0
-10452 1823 0
-10452 -2264 0
2264 -1823 10452 0
-10425 10431 -10430 0
10430 -10429 -10422 0
10429 -10428 -10419 0
10428 -10427 -10416 0
10427 -10426 -10413 0
10426 -10410 -10407 0
10410 10408 10409 0
-10409 -1818 0
-10409 2147 0
1818 -10408 0
-10408 -2147 0
-1818 10408 2147 0
10407 10405 10406 0
-10406 -1817 0
-10406 2146 0
1817 -10405 0
-10405 -2146 0
-1817 10405 2146 0
10413 10411 10412 0
-10412 -1819 0
-10412 2148 0
1819 -10411 0
-10411 -2148 0
-1819 10411 2148 0
10416 10414 10415 0
-10415 -1820 0
-10415 2149 0
1820 -10414 0
-10414 -2149 0
-1820 10414 2149 0
10419 10417 10418 0
-10418 -1821 0
-10418 2150 0
-10417 1821 0
-10417 -2150 0
-1821 10417 2150 0
10422 10420 10421 0
-10421 -1822 0
-10421 2151 0
-10420 1822 0
-10420 -2151 0
-1822 10420 2151 0
10425 10424 10423 0
-10424 -1823 0
-10424 2152 0
-10423 1823 0
-10423 -2152 0
10423 2152 -1823 0
-10375 10402 10403 0
10396 -10402 0
10401 -10402 0
10393 -10401 0
10400 -10401 0
10390 -10400 0
10399 -10400 0
10387 -10399 0
10398 -10399 0
10384 -10398 0
10397 -10398 0
10378 -10397 0
10381 -10397 0
-10379 -10381 0
-10380 -10381 0
10381 10379 10380 0
-1818 -10380 0
-10380 1944 0
1818 -1944 10380 0
1818 -10379 0
-10379 -1944 0
-1818 1944 10379 0
-10376 -10378 0
-10377 -10378 0
10378 10376 10377 0
-1817 -10377 0
-10377 1943 0
1817 -1943 10377 0
1817 -10376 0
-10376 -1943 0
-1817 1943 10376 0
-10382 -10384 0
-10383 -10384 0
10384 10382 10383 0
-1819 -10383 0
-10383 1945 0
1819 -1945 10383 0
1819 -10382 0
-10382 -1945 0
-1819 1945 10382 0
-10385 -10387 0
-10386 -10387 0
10387 10385 10386 0
-1820 -10386 0
-10386 1946 0
1820 -1946 10386 0
1820 -10385 0
-10385 -1946 0
-1820 1946 10385 0
-10388 -10390 0
-10389 -10390 0
10390 10388 10389 0
-1821 -10389 0
-10389 1947 0
1821 -1947 10389 0
1821 -10388 0
-10388 -1947 0
-1821 1947 10388 0
-10391 -10393 0
-10392 -10393 0
10393 10391 10392 0
-1822 -10392 0
-10392 1948 0
1822 -1948 10392 0
1822 -10391 0
-10391 -1948 0
-1822 1948 10391 0
-10394 -10396 0
-10395 -10396 0
10396 10395 10394 0
-10395 -1823 0
-10395 1949 0
1823 -1949 10395 0
-10394 1823 0
-10394 -1949 0
1949 -1823 10394 0
-1193 10375 -1194 0
6343 -1481 10374 0
6315 -10372 10373 0
10372 -1460 -1462 0
6286 -10370 10371 0
10370 -1460 -1461 0
6257 -10368 10369 0
10368 -1459 -1462 0
6228 -10366 10367 0
10366 -1459 -1461 0
6199 -10364 10365 0
10364 -1459 -1460 0
-10362 6170 10363 0
-1458 -1462 10362 0
-10360 6141 10361 0
-1458 -1461 10360 0
-10358 6112 10359 0
-1458 -1460 10358 0
-10356 6083 10357 0
-1458 -1459 10356 0
-10354 6054 10355 0
-1457 -1462 10354 0
-10352 6025 10353 0
-1457 -1461 10352 0
-10348 5967 10349 0
-1457 -1459 10348 0
-10346 5938 10347 0
-1456 -1462 10346 0
-10344 5909 10345 0
-1456 -1461 10344 0
-9036 -10343 0
10342 -10343 0
-9065 -10342 0
10341 -10342 0
-9094 -10341 0
10340 -10341 0
-9123 -10340 0
10339 -10340 0
-9152 -10339 0
10338 -10339 0
-9181 -10338 0
10337 -10338 0
-9210 -10337 0
10336 -10337 0
-9239 -10336 0
10335 -10336 0
-9268 -10335 0
10334 -10335 0
-9297 -10334 0
10333 -10334 0
-9326 -10333 0
10332 -10333 0
-9355 -10332 0
10331 -10332 0
-9384 -10331 0
10330 -10331 0
-9413 -10330 0
10329 -10330 0
-9442 -10329 0
10328 -10329 0
-9471 -10328 0
10327 -10328 0
-9500 -10327 0
10326 -10327 0
-9529 -10326 0
10325 -10326 0
-9558 -10325 0
10324 -10325 0
-9587 -10324 0
10323 -10324 0
-9615 -10323 0
10322 -10323 0
-9643 -10322 0
10321 -10322 0
-9671 -10321 0
10320 -10321 0
-9699 -10320 0
10319 -10320 0
-9727 -10319 0
10318 -10319 0
-9755 -10318 0
10317 -10318 0
-9783 -10317 0
10316 -10317 0
-9811 -10316 0
10315 -10316 0
-9839 -10315 0
10314 -10315 0
-9867 -10314 0
10313 -10314 0
-9895 -10313 0
10312 -10313 0
-9923 -10312 0
10311 -10312 0
-9951 -10311 0
10310 -10311 0
-9979 -10310 0
10309 -10310 0
-10007 -10309 0
10308 -10309 0
-10036 -10308 0
10307 -10308 0
-10065 -10307 0
10306 -10307 0
-10094 -10306 0
10305 -10306 0
-10123 -10305 0
10304 -10305 0
-10152 -10304 0
10303 -10304 0
-10180 -10303 0
10302 -10303 0
-10182 -10302 0
10301 -10302 0
-10184 -10301 0
10300 -10301 0
-10186 -10300 0
10299 -10300 0
-10188 -10299 0
10298 -10299 0
-10190 -10298 0
10297 -10298 0
-10192 -10297 0
10296 -10297 0
-10194 -10296 0
10295 -10296 0
-10196 -10295 0
10294 -10295 0
10293 -10294 0
-10227 -10293 0
10292 -10293 0
-10229 -10292 0
10291 -10292 0
-10231 -10291 0
10290 -10291 0
-10233 -10290 0
10289 -10290 0
-10262 -10289 0
10288 -10289 0
-10264 -10288 0
10287 -10288 0
-10266 -10287 0
10286 -10287 0
-10268 -10286 0
10285 -10286 0
10284 -10285 0
-10272 -10284 0
10283 -10284 0
-10274 -10283 0
10282 -10283 0
-10276 -10282 0
10281 -10282 0
-10278 -10281 0
-10280 -10281 0
-10279 5880 10280 0
-1456 -1460 10279 0
-10277 5851 10278 0
-1456 -1459 10277 0
5822 -10275 10276 0
10275 -1455 -1462 0
5793 -10273 10274 0
10273 -1455 -1461 0
5764 -10271 10272 0
10271 -1455 -1460 0
-10267 5706 10268 0
-1453 -1462 10267 0
-10265 5677 10266 0
-1453 -1461 10265 0
-10263 5648 10264 0
-1453 -1460 10263 0
10261 -10234 10262 0
10255 -10261 0
10260 -10261 0
-10255 10261 -10260 0
10252 -10260 0
10259 -10260 0
10260 -10259 -10252 0
10249 -10259 0
10258 -10259 0
-10258 10259 -10249 0
10246 -10258 0
10257 -10258 0
10258 -10257 -10246 0
10243 -10257 0
10256 -10257 0
-10256 10257 -10243 0
10237 -10256 0
10240 -10256 0
10256 -10240 -10237 0
-10238 -10240 0
-10239 -10240 0
10238 10240 10239 0
-10239 2385 0
-10239 -5616 0
-2385 5616 10239 0
-10238 -2385 0
-10238 5616 0
-5616 2385 10238 0
-10235 -10237 0
-10236 -10237 0
10235 10237 10236 0
-10236 2384 0
-10236 -5615 0
-2384 5615 10236 0
-10235 -2384 0
-10235 5615 0
2384 -5615 10235 0
-10241 -10243 0
-10242 -10243 0
10241 10243 10242 0
-10242 2386 0
-10242 -5617 0
5617 -2386 10242 0
-10241 -2386 0
-10241 5617 0
-5617 2386 10241 0
-10244 -10246 0
-10245 -10246 0
10244 10246 10245 0
-10245 2387 0
-10245 -5618 0
5618 -2387 10245 0
-10244 -2387 0
-10244 5618 0
-5618 2387 10244 0
-10247 -10249 0
-10248 -10249 0
10247 10249 10248 0
-10248 2388 0
-10248 -5619 0
5619 -2388 10248 0
-10247 -2388 0
-10247 5619 0
-5619 2388 10247 0
-10250 -10252 0
-10251 -10252 0
10250 10252 10251 0
-10251 2389 0
-10251 -5620 0
-2389 5620 10251 0
-10250 -2389 0
-10250 5620 0
-5620 2389 10250 0
-10253 -10255 0
-10254 -10255 0
10255 10254 10253 0
-10254 2390 0
-10254 -5621 0
5621 -2390 10254 0
-10253 -2390 0
-10253 5621 0
2390 -5621 10253 0
10234 -1453 -1459 0
-10232 5612 10233 0
-1452 -1462 10232 0
-10230 5583 10231 0
-1452 -1461 10230 0
-10228 5554 10229 0
-1452 -1460 10228 0
-10226 5525 10227 0
-1452 -1459 10226 0
-10218 -10216 0
10218 10217 10216 0
-10217 -2033 0
2348 -2033 10216 0
-10195 5496 10196 0
-1451 -1462 10195 0
-10193 5467 10194 0
-1451 -1461 10193 0
-10191 5438 10192 0
-1451 -1460 10191 0
-10189 5409 10190 0
-1451 -1459 10189 0
-10187 5380 10188 0
-1450 -1462 10187 0
-10185 5351 10186 0
-1450 -1461 10185 0
-10183 5322 10184 0
-1450 -1460 10183 0
-10181 5293 10182 0
-1450 -1459 10181 0
-628 10179 10180 0
10173 -10179 0
10178 -10179 0
10170 -10178 0
10177 -10178 0
10167 -10177 0
10176 -10177 0
10164 -10176 0
10175 -10176 0
10161 -10175 0
10174 -10175 0
10155 -10174 0
10158 -10174 0
-10156 -10158 0
10157 10158 10156 0
-10157 -2511 0
-10157 2525 0
2511 -10156 0
-10156 -2525 0
2525 -2511 10156 0
10154 10153 10155 0
-10154 -2510 0
-10154 2524 0
-10159 -10161 0
10160 10161 10159 0
-10160 -2512 0
-10160 2526 0
2512 -10159 0
-10159 -2526 0
2526 -2512 10159 0
-10162 -10164 0
-10163 -10164 0
10163 10164 10162 0
-10163 -2513 0
-10163 2527 0
2513 -2527 10163 0
2513 -10162 0
-10162 -2527 0
2527 -2513 10162 0
-10165 -10167 0
-10166 -10167 0
10166 10167 10165 0
-10166 -2514 0
-10166 2528 0
2514 -2528 10166 0
-10165 2514 0
-10165 -2528 0
2528 -2514 10165 0
-10168 -10170 0
-10169 -10170 0
10169 10170 10168 0
-10169 -2515 0
-10169 2529 0
-2529 2515 10169 0
-10168 2515 0
-2529 -10168 0
-2515 2529 10168 0
-10171 -10173 0
-10172 -10173 0
10173 10172 10171 0
-10172 -2516 0
-10172 2530 0
2516 10172 -2530 0
2516 -10171 0
-10171 -2530 0
2530 -2516 10171 0
10151 -10124 10152 0
-10151 10145 0
-10151 10150 0
-10150 10142 0
-10150 10149 0
-10149 10139 0
-10149 10148 0
-10148 10136 0
-10148 10147 0
-10147 10133 0
-10147 10146 0
-10146 10127 0
-10146 10130 0
-10130 -10128 0
10129 10128 10130 0
-10129 -2497 0
-10129 2525 0
2497 -10128 0
-10128 -2525 0
-2497 2525 10128 0
10126 10125 10127 0
-10126 -2496 0
-10126 2524 0
-10133 -10131 0
10132 10131 10133 0
-10132 -2498 0
-10132 2526 0
2498 -10131 0
-10131 -2526 0
2526 10131 -2498 0
-10136 -10134 0
-10135 -10136 0
10135 10134 10136 0
-10135 -2499 0
-10135 2527 0
10135 2499 -2527 0
2499 -10134 0
-10134 -2527 0
10134 -2499 2527 0
-10139 -10137 0
-10138 -10139 0
10138 10137 10139 0
-10138 -2500 0
-10138 2528 0
10138 2500 -2528 0
2500 -10137 0
-10137 -2528 0
2528 10137 -2500 0
-10142 -10140 0
-10141 -10142 0
10141 10140 10142 0
-10141 -2501 0
-10141 2529 0
10141 -2529 2501 0
-10140 2501 0
-2529 -10140 0
10140 -2501 2529 0
10145 10144 10143 0
-10144 -2502 0
-10144 2530 0
2502 -10143 0
-10143 -2530 0
2530 -2502 10143 0
10124 -609 -607 0
10122 -10095 10123 0
-10122 10116 0
-10122 10121 0
-10121 10113 0
-10121 10120 0
-10120 10110 0
-10120 10119 0
-10119 10107 0
-10119 10118 0
-10118 10104 0
-10118 10117 0
-10117 10098 0
-10117 10101 0
-10101 -10099 0
10100 10099 10101 0
-10100 -2497 0
-10100 2511 0
2497 -10099 0
-10099 -2511 0
-2497 10099 2511 0
10097 10096 10098 0
-10097 -2496 0
-10097 2510 0
-10104 -10102 0
10103 10102 10104 0
-10103 -2498 0
-10103 2512 0
2498 -10102 0
-10102 -2512 0
2512 10102 -2498 0
-10107 -10105 0
10106 10105 10107 0
-10106 -2499 0
-10106 2513 0
2499 -10105 0
-10105 -2513 0
10105 2513 -2499 0
-10110 -10108 0
-10109 -10110 0
10109 10108 10110 0
-10109 -2500 0
-10109 2514 0
10109 2500 -2514 0
2500 -10108 0
-10108 -2514 0
10108 2514 -2500 0
-10113 -10111 0
-10112 -10113 0
10112 10111 10113 0
-10112 -2501 0
-10112 2515 0
10112 -2515 2501 0
-10111 2501 0
-2515 -10111 0
10111 -2501 2515 0
-10115 -10116 0
10116 10115 10114 0
-10115 -2502 0
-10115 2516 0
10115 2502 -2516 0
2502 -10114 0
2516 -2502 10114 0
10095 -608 -607 0
10093 -10066 10094 0
-10093 10087 0
-10093 10092 0
-10092 10084 0
-10092 10091 0
-10091 10081 0
-10091 10090 0
-10090 10078 0
-10090 10089 0
-10089 10075 0
-10089 10088 0
-10088 10069 0
-10088 10072 0
-10072 -10070 0
10071 10070 10072 0
-10071 -2483 0
-10071 2525 0
2483 -10070 0
-10070 -2525 0
10070 -2483 2525 0
10068 10067 10069 0
-10068 -2482 0
-10068 2524 0
-10075 -10073 0
10074 10073 10075 0
-10074 -2484 0
-10074 2526 0
-10073 -2526 0
2526 10073 -2484 0
-10078 -10076 0
10077 10076 10078 0
-10077 -2485 0
-10077 2527 0
2485 -10076 0
-10076 -2527 0
2527 10076 -2485 0
-10081 -10079 0
10080 10079 10081 0
-10080 -2486 0
-10080 2528 0
2486 -10079 0
-10079 -2528 0
10079 2528 -2486 0
-10084 -10082 0
-10083 -10084 0
10083 10082 10084 0
-10083 -2487 0
-10083 2529 0
10083 -2529 2487 0
-10082 2487 0
-2529 -10082 0
10082 -2487 2529 0
-10086 -10087 0
10087 10086 10085 0
-10086 -2488 0
-10086 2530 0
10086 2488 -2530 0
2488 -10085 0
-10085 -2530 0
2530 -2488 10085 0
10066 -606 -609 0
10064 -10037 10065 0
-10064 10058 0
-10064 10063 0
-10063 10055 0
-10063 10062 0
-10062 10052 0
-10062 10061 0
-10061 10049 0
-10061 10060 0
-10060 10046 0
-10060 10059 0
-10059 10040 0
-10059 10043 0
-10043 -10041 0
10042 10041 10043 0
-10042 -2483 0
-10042 2511 0
2483 -10041 0
-10041 -2511 0
10041 -2483 2511 0
10039 10038 10040 0
-10039 -2482 0
-10046 -10044 0
10045 10044 10046 0
-10045 -2484 0
-10045 2512 0
2484 -10044 0
-10044 -2512 0
10044 2512 -2484 0
-10049 -10047 0
-10048 -10049 0
10048 10047 10049 0
-10048 -2485 0
-10048 2513 0
10048 2485 -2513 0
2485 -10047 0
-10047 -2513 0
10047 2513 -2485 0
-10052 -10050 0
10051 10050 10052 0
-10051 -2486 0
-10051 2514 0
2486 -10050 0
-10050 -2514 0
10050 2514 -2486 0
-10053 -10055 0
-10054 -10055 0
10054 10053 10055 0
-10054 -2487 0
-10054 2515 0
10054 -2515 2487 0
-10053 2487 0
-10053 -2515 0
10053 -2487 2515 0
-10057 -10058 0
10058 10057 10056 0
-10057 -2488 0
-10057 2516 0
2488 10057 -2516 0
10037 -606 -608 0
10035 -10008 10036 0
-10035 10029 0
-10035 10034 0
-10034 10026 0
-10034 10033 0
-10033 10023 0
-10033 10032 0
-10032 10020 0
-10032 10031 0
-10031 10017 0
-10031 10030 0
-10030 10011 0
-10030 10014 0
-10014 -10012 0
10013 10012 10014 0
-10013 -2483 0
-10013 2497 0
2483 -10012 0
-2497 -10012 0
10012 -2483 2497 0
10010 10009 10011 0
-10010 -2482 0
-10010 2496 0
-10017 -10015 0
10016 10015 10017 0
-10016 -2484 0
-10016 2498 0
2484 -10015 0
-2498 -10015 0
2498 -2484 10015 0
-10020 -10018 0
10019 10018 10020 0
-10019 -2485 0
-10019 2499 0
2485 -10018 0
-2499 -10018 0
2499 10018 -2485 0
-10023 -10021 0
-10022 -10023 0
10022 10021 10023 0
-10022 -2486 0
-10022 2500 0
2486 10022 -2500 0
2486 -10021 0
-10021 -2500 0
10021 2500 -2486 0
-10026 -10024 0
-10025 -10026 0
10025 10024 10026 0
-10025 -2487 0
-10025 2501 0
10025 -2501 2487 0
-10024 2487 0
-2501 -10024 0
10024 -2487 2501 0
-10029 -10027 0
-10028 -10029 0
10029 10028 10027 0
-10028 -2488 0
-10028 2502 0
2488 10028 -2502 0
2488 -10027 0
2502 -2488 10027 0
10008 -606 -607 0
-1041 10006 10007 0
10000 -10006 0
10005 -10006 0
-10000 -10005 10006 0
9997 -10005 0
10004 -10005 0
10005 -10004 -9997 0
9994 -10004 0
10003 -10004 0
-10003 10004 -9994 0
9991 -10003 0
10002 -10003 0
10003 -10002 -9991 0
9988 -10002 0
10001 -10002 0
-10001 10002 -9988 0
9982 -10001 0
9985 -10001 0
10001 -9982 -9985 0
9985 9983 9984 0
-9984 -2469 0
-2525 9984 2469 0
-9983 -2525 0
9981 9982 9980 0
-9980 -2524 0
-9986 -9988 0
9988 9987 9986 0
-9987 -2470 0
2526 -9987 0
-2526 9987 2470 0
-9986 2470 0
2526 -2470 9986 0
-9989 -9991 0
-9990 -9991 0
9991 9990 9989 0
-9990 -2471 0
2527 -9990 0
-2527 2471 9990 0
-9989 2471 0
-9989 -2527 0
2527 -2471 9989 0
-9992 -9994 0
-9993 -9994 0
9994 9993 9992 0
-9993 -2472 0
-9993 2528 0
-2528 2472 9993 0
-9992 2472 0
-9992 -2528 0
2528 -2472 9992 0
-9995 -9997 0
-9996 -9997 0
9997 9996 9995 0
-9996 -2473 0
-9996 2529 0
-2529 2473 9996 0
-9995 2473 0
-9995 -2529 0
2529 -2473 9995 0
-9998 -10000 0
-9999 -10000 0
10000 9998 9999 0
-9999 -2474 0
2530 -9999 0
2474 -2530 9999 0
-9998 2474 0
-9998 -2530 0
2530 -2474 9998 0
-1038 9978 9979 0
9972 -9978 0
9977 -9978 0
-9977 -9972 9978 0
9969 -9977 0
9976 -9977 0
9977 -9976 -9969 0
9966 -9976 0
9975 -9976 0
-9975 9976 -9966 0
9963 -9975 0
9974 -9975 0
9975 -9963 -9974 0
9960 -9974 0
9973 -9974 0
-9973 9974 -9960 0
9954 -9973 0
9957 -9973 0
-9954 9973 -9957 0
2512 9958 -2470 0
-9961 -9963 0
-9962 -9963 0
9963 9962 9961 0
-9962 -2471 0
2513 -9962 0
-2513 2471 9962 0
-9961 2471 0
-9961 -2513 0
2513 -2471 9961 0
-9964 -9966 0
-9965 -9966 0
9966 9965 9964 0
-9965 -2472 0
-9965 2514 0
-2514 2472 9965 0
-9964 2472 0
-9964 -2514 0
2514 -2472 9964 0
-9967 -9969 0
-9968 -9969 0
9969 9968 9967 0
-9968 -2473 0
-9968 2515 0
-2515 2473 9968 0
-9967 2473 0
-9967 -2515 0
2515 -2473 9967 0
-9970 -9972 0
-9971 -9972 0
9972 9970 9971 0
-9971 -2474 0
2516 -9971 0
2474 -2516 9971 0
-9970 2474 0
-9970 -2516 0
2516 -2474 9970 0
-1035 9950 9951 0
9944 -9950 0
9949 -9950 0
-9944 -9949 9950 0
9941 -9949 0
9948 -9949 0
9949 -9948 -9941 0
9938 -9948 0
9947 -9948 0
-9947 9948 -9938 0
9935 -9947 0
9946 -9947 0
9947 -9935 -9946 0
9932 -9946 0
9945 -9946 0
-9945 9946 -9932 0
9926 -9945 0
9929 -9945 0
-9926 9945 -9929 0
-9927 -9929 0
2497 -2469 9927 0
-9930 -9932 0
2498 -2470 9930 0
-9933 -9935 0
-9934 -9935 0
9935 9934 9933 0
-9934 -2471 0
2499 -9934 0
-2499 2471 9934 0
-9933 2471 0
2499 -2471 9933 0
-9936 -9938 0
-9937 -9938 0
9938 9937 9936 0
-9937 -2472 0
2500 -9937 0
-2500 2472 9937 0
-9936 2472 0
-9936 -2500 0
2500 -2472 9936 0
-9939 -9941 0
-9940 -9941 0
9941 9940 9939 0
-9940 -2473 0
-9940 2501 0
-2501 2473 9940 0
-9939 2473 0
-9939 -2501 0
2501 -2473 9939 0
-9942 -9944 0
-9943 -9944 0
9944 9942 9943 0
-9943 -2474 0
2502 -9943 0
2474 -2502 9943 0
-9942 2474 0
-9942 -2502 0
2502 -2474 9942 0
-1032 9922 9923 0
9916 -9922 0
9921 -9922 0
9913 -9921 0
9920 -9921 0
9910 -9920 0
9919 -9920 0
9907 -9919 0
9918 -9919 0
9904 -9918 0
9917 -9918 0
9898 -9917 0
9901 -9917 0
9901 9900 9899 0
-9900 -2469 0
-9900 2483 0
-9899 2469 0
-2483 -9899 0
2483 -2469 9899 0
-9896 -9898 0
-9897 -9898 0
9898 9897 9896 0
-9897 -2468 0
2482 -9897 0
-2482 2468 9897 0
-9896 2468 0
-2482 -9896 0
2482 -2468 9896 0
9904 9903 9902 0
-9903 -2470 0
-9903 2484 0
-9902 2470 0
-2484 -9902 0
2484 -2470 9902 0
-9905 -9907 0
9907 9906 9905 0
-9906 -2471 0
2485 -9906 0
-2485 9906 2471 0
-9905 2471 0
-2485 -9905 0
2485 -2471 9905 0
-9908 -9910 0
-9909 -9910 0
9910 9909 9908 0
-9909 -2472 0
2486 -9909 0
-2486 2472 9909 0
-9908 2472 0
-9908 -2486 0
2486 -2472 9908 0
-9911 -9913 0
-9912 -9913 0
9913 9912 9911 0
-9912 -2473 0
-9912 2487 0
-2487 2473 9912 0
-9911 2473 0
-2487 -9911 0
2487 -2473 9911 0
-9914 -9916 0
9916 9914 9915 0
-9915 -2474 0
2488 -9915 0
2474 -2488 9915 0
-9914 2474 0
-9914 -2488 0
2488 -2474 9914 0
-928 9894 9895 0
9888 -9894 0
9893 -9894 0
-9888 -9893 9894 0
9885 -9893 0
9892 -9893 0
9893 -9892 -9885 0
9882 -9892 0
9891 -9892 0
-9891 9892 -9882 0
9879 -9891 0
9890 -9891 0
9891 -9890 -9879 0
9876 -9890 0
9889 -9890 0
-9889 9890 -9876 0
9870 -9889 0
9873 -9889 0
9889 -9870 -9873 0
9871 9873 9872 0
-9872 -2455 0
-9871 -2525 0
-9868 -9870 0
9869 9870 9868 0
-9869 2524 0
-2454 2524 9868 0
-9875 -9876 0
9874 9876 9875 0
-9875 -2456 0
2456 -2526 9875 0
-9874 -2526 0
-9877 -9879 0
-9878 -9879 0
9878 9879 9877 0
2527 -9878 0
2457 -2527 9878 0
-9877 2457 0
2527 -2457 9877 0
-9880 -9882 0
-9881 -9882 0
9881 9882 9880 0
-9881 -2458 0
-9881 2528 0
2458 -2528 9881 0
-9880 2458 0
-9880 -2528 0
2528 -2458 9880 0
-9883 -9885 0
-9884 -9885 0
9884 9885 9883 0
-2459 -9884 0
-9884 2529 0
-2529 2459 9884 0
-9883 2459 0
-9883 -2529 0
-2459 2529 9883 0
-9886 -9888 0
-9887 -9888 0
9888 9886 9887 0
-9887 -2460 0
2530 -9887 0
2460 -2530 9887 0
-9886 2460 0
-9886 -2530 0
2530 -2460 9886 0
-925 9866 9867 0
9860 -9866 0
9865 -9866 0
-9860 -9865 9866 0
9857 -9865 0
9864 -9865 0
9865 -9864 -9857 0
9854 -9864 0
9863 -9864 0
-9863 9864 -9854 0
9851 -9863 0
9862 -9863 0
9863 -9862 -9851 0
9848 -9862 0
9861 -9862 0
-9861 9862 -9848 0
9842 -9861 0
9845 -9861 0
-9845 9861 -9842 0
-9846 -9848 0
9847 9848 9846 0
-9847 2512 0
2512 -2456 9846 0
-9849 -9851 0
-9850 -9851 0
9850 9851 9849 0
-9850 -2457 0
2513 -9850 0
2457 -2513 9850 0
-9849 2457 0
-9849 -2513 0
2513 -2457 9849 0
-9852 -9854 0
-9853 -9854 0
9853 9854 9852 0
-9853 -2458 0
-9853 2514 0
2458 -2514 9853 0
-9852 2458 0
-9852 -2514 0
2514 -2458 9852 0
-9855 -9857 0
-9856 -9857 0
9856 9857 9855 0
-2459 -9856 0
-9856 2515 0
-2515 2459 9856 0
-9855 2459 0
-9855 -2515 0
-2459 2515 9855 0
-9858 -9860 0
-9859 -9860 0
9860 9858 9859 0
-9859 -2460 0
2516 -9859 0
2460 -2516 9859 0
-9858 2460 0
-9858 -2516 0
2516 -2460 9858 0
-922 9838 9839 0
9832 -9838 0
9837 -9838 0
-9837 -9832 9838 0
9829 -9837 0
9836 -9837 0
9837 -9836 -9829 0
9826 -9836 0
9835 -9836 0
-9835 9836 -9826 0
9823 -9835 0
9834 -9835 0
9835 -9823 -9834 0
9820 -9834 0
9833 -9834 0
-9833 9834 -9820 0
9814 -9833 0
9817 -9833 0
-9814 9833 -9817 0
-9815 -9817 0
9816 9817 9815 0
-9816 -2455 0
2497 -2455 9815 0
-9818 -9820 0
9819 9820 9818 0
-9819 -2456 0
-9819 2498 0
-9818 -2498 0
2498 -2456 9818 0
-9821 -9823 0
-9822 -9823 0
9822 9823 9821 0
-9822 -2457 0
2499 -9822 0
-2499 2457 9822 0
-9821 2457 0
2499 -2457 9821 0
-9824 -9826 0
-9825 -9826 0
9824 9826 9825 0
-9825 -2458 0
2500 -9825 0
2458 -2500 9825 0
-9824 2458 0
-9824 -2500 0
2500 -2458 9824 0
-9827 -9829 0
-9828 -9829 0
9828 9829 9827 0
-2459 -9828 0
-9828 2501 0
-2501 2459 9828 0
-9827 2459 0
-9827 -2501 0
-2459 2501 9827 0
-9830 -9832 0
-9831 -9832 0
9832 9830 9831 0
-9831 -2460 0
2502 -9831 0
2460 -2502 9831 0
-9830 2460 0
-9830 -2502 0
2502 -2460 9830 0
-919 9810 9811 0
9804 -9810 0
9809 -9810 0
-9809 -9804 9810 0
9801 -9809 0
9808 -9809 0
9809 -9808 -9801 0
9798 -9808 0
9807 -9808 0
-9807 9808 -9798 0
9795 -9807 0
9806 -9807 0
9807 -9806 -9795 0
9792 -9806 0
9805 -9806 0
-9805 9806 -9792 0
9786 -9805 0
9789 -9805 0
9805 -9786 -9789 0
-9787 -9789 0
9788 9789 9787 0
-9788 -2455 0
-9788 2483 0
-9787 2455 0
-9787 -2483 0
2483 -2455 9787 0
-9784 -9786 0
9785 9786 9784 0
-9785 -2454 0
-9785 2482 0
-9784 -2482 0
2482 -2454 9784 0
-9790 -9792 0
9791 9792 9790 0
-9791 -2456 0
-9791 2484 0
-9790 2456 0
-9790 -2484 0
2484 -2456 9790 0
-9793 -9795 0
-9794 -9795 0
9794 9795 9793 0
-9794 -2457 0
2485 -9794 0
-2485 2457 9794 0
-9793 2457 0
-9793 -2485 0
2485 -2457 9793 0
-9796 -9798 0
-9797 -9798 0
9796 9798 9797 0
-9797 -2458 0
2486 -9797 0
-2486 2458 9797 0
-9796 2458 0
-9796 -2486 0
2486 -2458 9796 0
-9799 -9801 0
-9800 -9801 0
9800 9801 9799 0
-2459 -9800 0
-9800 2487 0
-2487 2459 9800 0
-9799 2459 0
-9799 -2487 0
-2459 2487 9799 0
-9802 -9804 0
-9803 -9804 0
9804 9802 9803 0
-9803 -2460 0
2488 -9803 0
2460 -2488 9803 0
-9802 2460 0
-9802 -2488 0
2488 -2460 9802 0
-698 9782 9783 0
9776 -9782 0
9781 -9782 0
9773 -9781 0
9780 -9781 0
9770 -9780 0
9779 -9780 0
9767 -9779 0
9778 -9779 0
9764 -9778 0
9777 -9778 0
9758 -9777 0
9761 -9777 0
-9759 -9761 0
-2455 2469 9759 0
-9756 -9758 0
-9757 -9758 0
9758 9756 9757 0
-9757 -2454 0
-9757 2468 0
2454 -2468 9757 0
-9756 2454 0
-9756 -2468 0
-2454 2468 9756 0
-9762 -9764 0
-9763 -9764 0
9764 9763 9762 0
2456 -2470 9763 0
-9762 -2470 0
-2456 2470 9762 0
-9765 -9767 0
-9766 -9767 0
9767 9765 9766 0
-9766 -2457 0
-9766 2471 0
2457 -2471 9766 0
-9765 2457 0
-9765 -2471 0
-2457 2471 9765 0
-9768 -9770 0
-9769 -9770 0
9770 9768 9769 0
-9769 -2458 0
-9769 2472 0
2458 -2472 9769 0
-9768 2458 0
-9768 -2472 0
-2458 2472 9768 0
-9771 -9773 0
-9772 -9773 0
9773 9771 9772 0
-2459 -9772 0
-9772 2473 0
2459 -2473 9772 0
-9771 2459 0
-9771 -2473 0
-2459 2473 9771 0
-9774 -9776 0
-9775 -9776 0
9776 9774 9775 0
-9775 -2460 0
-9775 2474 0
2460 -2474 9775 0
-9774 2460 0
-9774 -2474 0
2474 -2460 9774 0
-914 9754 9755 0
9748 -9754 0
9753 -9754 0
9745 -9753 0
9752 -9753 0
9742 -9752 0
9751 -9752 0
9739 -9751 0
9750 -9751 0
9736 -9750 0
-9734 -9736 0
-9735 -9736 0
9734 9736 9735 0
-9735 -2442 0
-9735 2526 0
2442 -2526 9735 0
-9734 2442 0
2526 -2442 9734 0
-9737 -9739 0
-9738 -9739 0
9738 9739 9737 0
-9738 2527 0
2443 -2527 9738 0
2527 -2443 9737 0
-9741 -9742 0
9740 9742 9741 0
-9741 -2444 0
-9741 2528 0
2444 -2528 9741 0
-9740 2444 0
-9740 -2528 0
9740 2528 -2444 0
-9744 -9745 0
9743 9745 9744 0
-9744 -2445 0
-9744 2529 0
-2529 2445 9744 0
-9743 2445 0
-9743 -2529 0
-9747 -9748 0
9748 9747 9746 0
-9747 -2446 0
-9747 2530 0
2446 -2530 9747 0
-9746 2446 0
-9746 -2530 0
2530 -2446 9746 0
-911 9726 9727 0
9720 -9726 0
9725 -9726 0
9717 -9725 0
9724 -9725 0
9714 -9724 0
9723 -9724 0
9711 -9723 0
9722 -9723 0
9708 -9722 0
9721 -9722 0
9705 -9721 0
-9704 -9705 0
2441 -2511 9704 0
-9707 -9708 0
2442 -2512 9707 0
-9709 -9711 0
-9710 -9711 0
2443 -2513 9710 0
2513 -2443 9709 0
-9713 -9714 0
9712 9714 9713 0
-9713 -2444 0
2444 -2514 9713 0
-9712 -2514 0
2514 -2444 9712 0
-9715 -9717 0
-9716 -9717 0
9716 9717 9715 0
-9716 -2445 0
-9716 2515 0
-2515 2445 9716 0
-9715 2445 0
-9715 -2515 0
2515 -2445 9715 0
-9718 -9720 0
-9719 -9720 0
9719 9720 9718 0
-9719 2516 0
2446 -2516 9719 0
-9718 2446 0
2516 -2446 9718 0
-908 9698 9699 0
9692 -9698 0
9697 -9698 0
9689 -9697 0
9696 -9697 0
9686 -9696 0
9695 -9696 0
9683 -9695 0
9694 -9695 0
9680 -9694 0
9676 9675 9677 0
-9676 2497 0
-9675 2441 0
9673 9672 9674 0
-9673 -2440 0
-9672 -2496 0
9672 2496 -2440 0
-9679 -9680 0
9678 9680 9679 0
-9679 -2442 0
-9679 2498 0
-2498 2442 9679 0
-9678 2442 0
-9678 -2498 0
2498 -2442 9678 0
-9681 -9683 0
-9682 -9683 0
9682 9683 9681 0
-9682 -2443 0
-9682 2499 0
-2499 2443 9682 0
-9681 2443 0
-9681 -2499 0
2499 -2443 9681 0
-9685 -9686 0
9684 9686 9685 0
-9685 -2444 0
-9685 2500 0
2444 -2500 9685 0
-9684 2444 0
-9684 -2500 0
2500 -2444 9684 0
-9687 -9689 0
-9688 -9689 0
9688 9689 9687 0
-9688 -2445 0
-9688 2501 0
-2501 2445 9688 0
-9687 2445 0
-9687 -2501 0
2501 -2445 9687 0
-9691 -9692 0
9692 9691 9690 0
-9691 -2446 0
-9691 2502 0
2446 -2502 9691 0
-9690 2446 0
-9690 -2502 0
2502 -2446 9690 0
-905 9670 9671 0
9664 -9670 0
9669 -9670 0
9661 -9669 0
9668 -9669 0
9658 -9668 0
9667 -9668 0
9655 -9667 0
9666 -9667 0
9652 -9666 0
9665 -9666 0
9646 -9665 0
9649 -9665 0
-9647 -9649 0
-9648 -9649 0
9648 9649 9647 0
-9648 -2441 0
-9648 2483 0
-2483 2441 9648 0
-9647 2441 0
2483 -2441 9647 0
-9645 -9646 0
9644 9646 9645 0
-9645 -2440 0
-9645 2482 0
-2482 2440 9645 0
-9644 2440 0
-9644 -2482 0
2482 9644 -2440 0
-9650 -9652 0
9651 9652 9650 0
-9651 -2442 0
-9651 2484 0
-9650 2442 0
-9650 -2484 0
2484 -2442 9650 0
-9653 -9655 0
-9654 -9655 0
9654 9655 9653 0
-9654 -2443 0
-9654 2485 0
-2485 2443 9654 0
-9653 2443 0
-9653 -2485 0
2485 -2443 9653 0
-9657 -9658 0
9656 9658 9657 0
-9657 -2444 0
-9657 2486 0
-2486 2444 9657 0
-9656 2444 0
-9656 -2486 0
2486 9656 -2444 0
-9660 -9661 0
9659 9661 9660 0
-9660 -2445 0
-9660 2487 0
-2487 2445 9660 0
-9659 2445 0
-9659 -2487 0
9659 2487 -2445 0
-9663 -9664 0
9664 9663 9662 0
-9663 -2446 0
-9663 2488 0
2446 -2488 9663 0
-9662 2446 0
-9662 -2488 0
2488 -2446 9662 0
-902 9642 9643 0
9636 -9642 0
9641 -9642 0
9633 -9641 0
9640 -9641 0
9630 -9640 0
9639 -9640 0
9627 -9639 0
9638 -9639 0
9624 -9638 0
9637 -9638 0
9618 -9637 0
9621 9620 9619 0
-9620 -2441 0
-9619 -2469 0
-2441 9619 2469 0
-9617 -9618 0
9618 9616 9617 0
-9617 -2440 0
-9617 2468 0
2440 -2468 9617 0
-9616 2440 0
-9622 -9624 0
-9623 -9624 0
9624 9622 9623 0
-9623 -2442 0
-9623 2470 0
2442 -2470 9623 0
-9622 2442 0
-9622 -2470 0
-2442 2470 9622 0
-9625 -9627 0
-9626 -9627 0
9627 9625 9626 0
-9626 -2443 0
-9626 2471 0
2443 -2471 9626 0
-9625 2443 0
-9625 -2471 0
-2443 2471 9625 0
-9628 -9630 0
-9629 -9630 0
9630 9628 9629 0
-9629 -2444 0
-9629 2472 0
2444 -2472 9629 0
-9628 2444 0
-9628 -2472 0
-2444 2472 9628 0
-9631 -9633 0
-9632 -9633 0
9633 9631 9632 0
-9632 -2445 0
-9632 2473 0
2445 -2473 9632 0
-9631 2445 0
-9631 -2473 0
-2445 2473 9631 0
-9634 -9636 0
-9635 -9636 0
9636 9635 9634 0
-9635 -2446 0
-9635 2474 0
2446 -2474 9635 0
-9634 2446 0
-9634 -2474 0
2474 -2446 9634 0
-899 9614 9615 0
9608 -9614 0
9613 -9614 0
9605 -9613 0
9612 -9613 0
9602 -9612 0
9611 -9612 0
9599 -9611 0
9610 -9611 0
9596 -9610 0
9609 -9610 0
9590 -9609 0
9593 -9609 0
-9591 -9593 0
9592 9593 9591 0
-9592 -2441 0
-9592 2455 0
-9591 -2455 0
2455 -2441 9591 0
-9588 -9590 0
-9589 -9590 0
9589 9590 9588 0
-9589 -2440 0
-9589 2454 0
-2454 2440 9589 0
-9588 2440 0
-9588 -2454 0
2454 -2440 9588 0
-9594 -9596 0
-9595 -9596 0
9595 9596 9594 0
-9595 -2442 0
-9595 2456 0
-2456 2442 9595 0
-9594 -2456 0
2456 -2442 9594 0
-9597 -9599 0
-9598 -9599 0
9598 9599 9597 0
-9598 -2443 0
-9598 2457 0
-2457 2443 9598 0
-9597 2443 0
-9597 -2457 0
2457 -2443 9597 0
-9600 -9602 0
-9601 -9602 0
9601 9602 9600 0
-9601 -2444 0
-9601 2458 0
2444 -2458 9601 0
-9600 2444 0
-9600 -2458 0
2458 -2444 9600 0
-9603 -9605 0
-9604 -9605 0
9604 9605 9603 0
-9604 -2445 0
-9604 2459 0
-2459 2445 9604 0
-9603 2445 0
-9603 -2459 0
2459 -2445 9603 0
-9606 -9608 0
-9607 -9608 0
9608 9607 9606 0
-9607 -2446 0
-9607 2460 0
2446 -2460 9607 0
-9606 2446 0
-9606 -2460 0
2460 -2446 9606 0
9586 -9559 9587 0
9580 -9586 0
9585 -9586 0
-9580 9586 -9585 0
9577 -9585 0
9584 -9585 0
9585 -9584 -9577 0
9574 -9584 0
9583 -9584 0
-9583 9584 -9574 0
9571 -9583 0
9582 -9583 0
9583 -9582 -9571 0
9568 -9582 0
9581 -9582 0
-9581 9582 -9568 0
9562 -9581 0
9565 -9581 0
9581 -9562 -9565 0
-9563 -9565 0
9564 9565 9563 0
-9564 -2329 0
-9564 2525 0
-9563 2329 0
-9563 -2525 0
2525 -2329 9563 0
-9560 -9562 0
9561 9562 9560 0
-9561 -2328 0
-9561 2524 0
2328 -9560 0
-9560 -2524 0
2524 -2328 9560 0
9567 9566 9568 0
-9567 -2330 0
-9567 2526 0
-9566 2330 0
-9566 -2526 0
2526 9566 -2330 0
-9569 -9571 0
-9570 -9571 0
9570 9571 9569 0
-9570 -2331 0
-9570 2527 0
2331 -2527 9570 0
-9569 2331 0
-9569 -2527 0
2527 -2331 9569 0
-9572 -9574 0
-9573 -9574 0
9573 9574 9572 0
-9573 -2332 0
-9573 2528 0
2332 -2528 9573 0
-9572 2332 0
-9572 -2528 0
2528 -2332 9572 0
-9575 -9577 0
-9576 -9577 0
9576 9577 9575 0
-9576 -2333 0
-9576 2529 0
-2529 2333 9576 0
-9575 2333 0
-2529 -9575 0
2529 -2333 9575 0
-9578 -9580 0
-9579 -9580 0
9580 9579 9578 0
-9579 -2334 0
-9579 2530 0
2334 -2530 9579 0
-9578 2334 0
-9578 -2530 0
2530 -2334 9578 0
9559 -602 -609 0
9557 -9530 9558 0
9551 -9557 0
9556 -9557 0
9548 -9556 0
9555 -9556 0
9545 -9555 0
9554 -9555 0
9542 -9554 0
9553 -9554 0
9539 -9553 0
9552 -9553 0
9533 -9552 0
9536 -9552 0
-9534 -9536 0
-9535 -9536 0
9535 9536 9534 0
-9535 2511 0
2329 -2511 9535 0
2511 -2329 9534 0
-9537 -9539 0
-9538 -9539 0
9537 9539 9538 0
-9538 -2330 0
-9538 2512 0
2330 -2512 9538 0
-9537 2330 0
-9537 -2512 0
2512 -2330 9537 0
-9540 -9542 0
-9541 -9542 0
9540 9542 9541 0
-9541 -2331 0
-9541 2513 0
2331 -2513 9541 0
-9540 2331 0
-9540 -2513 0
2513 -2331 9540 0
-9543 -9545 0
-9544 -9545 0
9544 9545 9543 0
-9544 -2332 0
-9544 2514 0
2332 -2514 9544 0
-9543 2332 0
-9543 -2514 0
2514 -2332 9543 0
-9546 -9548 0
-9547 -9548 0
9547 9548 9546 0
-9547 -2333 0
-9547 2515 0
-2515 2333 9547 0
-9546 2333 0
-2515 -9546 0
2515 -2333 9546 0
-9549 -9551 0
-9550 -9551 0
9551 9550 9549 0
-9550 -2334 0
-9550 2516 0
2334 -2516 9550 0
-9549 2334 0
-9549 -2516 0
2516 -2334 9549 0
9530 -602 -608 0
-9501 9528 9529 0
9522 -9528 0
9527 -9528 0
9519 -9527 0
9526 -9527 0
9516 -9526 0
9525 -9526 0
9513 -9525 0
9524 -9525 0
9510 -9524 0
9523 -9524 0
9504 -9523 0
9507 -9523 0
-9505 -9507 0
-9506 -9507 0
9506 9507 9505 0
-9506 -2329 0
-9506 2497 0
-2497 2329 9506 0
-2497 -9505 0
2497 -2329 9505 0
-9503 -9504 0
9502 9504 9503 0
-9503 -2328 0
-9503 2496 0
-2496 2328 9503 0
2328 -9502 0
-9508 -9510 0
-9509 -9510 0
9508 9510 9509 0
-9509 -2330 0
-9509 2498 0
-2498 2330 9509 0
-9508 2330 0
-2498 -9508 0
2498 -2330 9508 0
-9511 -9513 0
-9512 -9513 0
9512 9513 9511 0
-9512 -2331 0
-9512 2499 0
-2499 2331 9512 0
-9511 2331 0
-2499 -9511 0
2499 -2331 9511 0
-9514 -9516 0
-9515 -9516 0
9515 9516 9514 0
-9515 -2332 0
-9515 2500 0
2332 -2500 9515 0
-9514 2332 0
-9514 -2500 0
2500 -2332 9514 0
-9517 -9519 0
-9518 -9519 0
9517 9519 9518 0
-9518 -2333 0
-9518 2501 0
-2501 2333 9518 0
-9517 2333 0
-2501 -9517 0
2501 -2333 9517 0
-9520 -9522 0
-9521 -9522 0
9522 9521 9520 0
-9521 -2334 0
-9521 2502 0
2334 -2502 9521 0
-9520 2334 0
-9520 -2502 0
2502 -2334 9520 0
9501 -602 -607 0
9499 -9472 9500 0
9493 -9499 0
9498 -9499 0
9490 -9498 0
9497 -9498 0
9487 -9497 0
9496 -9497 0
9484 -9496 0
9495 -9496 0
9481 -9495 0
9494 -9495 0
9475 -9494 0
9478 -9494 0
-9477 -9478 0
-2483 2329 9477 0
-9474 -9475 0
-2482 2328 9474 0
-9479 -9481 0
-9480 -9481 0
9479 9481 9480 0
-9480 -2330 0
-9480 2484 0
-2484 2330 9480 0
-2484 -9479 0
2484 -2330 9479 0
-9482 -9484 0
-9483 -9484 0
9482 9484 9483 0
-9483 -2331 0
-9483 2485 0
-2485 2331 9483 0
-9482 2331 0
-2485 -9482 0
2485 -2331 9482 0
-9485 -9487 0
-9486 -9487 0
9486 9487 9485 0
-9486 -2332 0
-9486 2486 0
2332 -2486 9486 0
-9485 2332 0
-9485 -2486 0
2486 -2332 9485 0
-9488 -9490 0
-9489 -9490 0
9489 9490 9488 0
-9489 -2333 0
-9489 2487 0
-2487 2333 9489 0
-9488 2333 0
-2487 -9488 0
2487 -2333 9488 0
-9491 -9493 0
-9492 -9493 0
9493 9492 9491 0
-9492 -2334 0
-9492 2488 0
2334 -2488 9492 0
-9491 2334 0
-9491 -2488 0
2488 -2334 9491 0
9472 -602 -606 0
-9443 9470 9471 0
9464 -9470 0
9469 -9470 0
-9464 -9469 9470 0
9461 -9469 0
9468 -9469 0
9469 -9468 -9461 0
9458 -9468 0
9467 -9468 0
-9467 9468 -9458 0
9455 -9467 0
9466 -9467 0
9467 -9466 -9455 0
9452 -9466 0
9465 -9466 0
-9465 9466 -9452 0
9446 -9465 0
9449 -9465 0
9465 -9446 -9449 0
-9447 -9449 0
-9448 -9449 0
9449 9447 9448 0
-9448 -2329 0
-9448 2469 0
2329 -2469 9448 0
-9447 2329 0
-9447 -2469 0
-2329 2469 9447 0
9446 9444 9445 0
-9445 -2328 0
-9445 2468 0
2328 -9444 0
-9444 -2468 0
-9450 -9452 0
-9451 -9452 0
9452 9450 9451 0
-9451 -2330 0
-9451 2470 0
2330 -2470 9451 0
-9450 2330 0
-9450 -2470 0
-2330 2470 9450 0
-9453 -9455 0
-9454 -9455 0
9455 9453 9454 0
-9454 -2331 0
-9454 2471 0
2331 -2471 9454 0
-9453 2331 0
-9453 -2471 0
-2331 2471 9453 0
-9456 -9458 0
-9457 -9458 0
9458 9456 9457 0
-9457 -2332 0
-9457 2472 0
2332 -2472 9457 0
-9456 2332 0
-9456 -2472 0
-2332 2472 9456 0
-9459 -9461 0
-9460 -9461 0
9461 9459 9460 0
-9460 -2333 0
-9460 2473 0
2333 -2473 9460 0
-9459 2333 0
-9459 -2473 0
-2333 2473 9459 0
-9462 -9464 0
-9463 -9464 0
9464 9463 9462 0
-9463 2474 0
2334 -2474 9463 0
-9462 2334 0
2474 -2334 9462 0
-605 -602 9443 0
9441 -9414 9442 0
9435 -9441 0
9440 -9441 0
-9435 9441 -9440 0
9432 -9440 0
9439 -9440 0
-9439 9440 -9432 0
9429 -9439 0
9438 -9439 0
-9438 9439 -9429 0
9426 -9438 0
9437 -9438 0
9438 -9437 -9426 0
9423 -9437 0
9436 -9437 0
-9436 9437 -9423 0
9417 -9436 0
9420 -9436 0
9436 -9417 -9420 0
-9418 -9420 0
-9419 -9420 0
9419 9420 9418 0
-9419 -2329 0
-9419 2455 0
2329 -2455 9419 0
-9418 2329 0
-9418 -2455 0
2455 -2329 9418 0
9416 9415 9417 0
-9416 -2328 0
-9416 2454 0
2328 -9415 0
-2454 -9415 0
9415 2454 -2328 0
-9421 -9423 0
-9422 -9423 0
9422 9423 9421 0
-9422 -2330 0
-9422 2456 0
-2456 2330 9422 0
-9421 2330 0
-2456 -9421 0
2456 -2330 9421 0
-9424 -9426 0
-9425 -9426 0
9425 9426 9424 0
-9425 -2331 0
-9425 2457 0
-2457 2331 9425 0
-9424 2331 0
-9424 -2457 0
2457 -2331 9424 0
-9427 -9429 0
-9428 -9429 0
9428 9429 9427 0
-9428 -2332 0
-9428 2458 0
2332 -2458 9428 0
-9427 2332 0
-9427 -2458 0
2458 -2332 9427 0
-9430 -9432 0
-9431 -9432 0
9431 9432 9430 0
-9431 -2333 0
-9431 2459 0
-2459 2333 9431 0
-9430 2333 0
-2459 -9430 0
2459 -2333 9430 0
-9433 -9435 0
-9434 -9435 0
9433 9435 9434 0
-9434 -2334 0
-9434 2460 0
2334 -2460 9434 0
-9433 2334 0
2460 -2334 9433 0
9414 -604 -602 0
9412 -9385 9413 0
-9412 9406 0
-9412 9411 0
-9411 9403 0
-9411 9410 0
-9410 9400 0
-9410 9409 0
-9409 9397 0
-9409 9408 0
-9408 9394 0
-9408 9407 0
-9407 9388 0
-9407 9391 0
-9391 -9389 0
-9391 -9390 0
9390 2329 -2441 0
9389 -2329 2441 0
-9388 -9386 0
9386 -2328 2440 0
-9394 -9392 0
-9394 -9393 0
9393 2330 -2442 0
9392 -2330 2442 0
-9397 -9395 0
-9397 -9396 0
9396 2331 -2443 0
9395 -2331 2443 0
-9400 -9398 0
-9400 -9399 0
9399 2332 -2444 0
9398 2444 -2332 0
-9403 -9401 0
-9403 -9402 0
9402 -2445 2333 0
9401 2445 -2333 0
-9406 -9404 0
-9406 -9405 0
9405 2334 -2446 0
9404 2446 -2334 0
9385 -603 -602 0
-9356 9383 9384 0
9377 -9383 0
9382 -9383 0
-9377 9383 -9382 0
9374 -9382 0
9381 -9382 0
9382 -9374 -9381 0
9371 -9381 0
9380 -9381 0
-9380 9381 -9371 0
9368 -9380 0
9379 -9380 0
9380 -9368 -9379 0
9365 -9379 0
9378 -9379 0
-9378 9379 -9365 0
9359 -9378 0
9362 -9378 0
9378 -9359 -9362 0
-9364 -9365 0
2218 -2526 9364 0
-9367 -9368 0
2219 -2527 9367 0
-9369 -9371 0
9370 9371 9369 0
-9370 -2220 0
-9370 2528 0
-9369 2220 0
-9369 -2528 0
2528 -2220 9369 0
-9373 -9374 0
9373 9374 9372 0
-9373 -2221 0
-9373 2529 0
-2529 2221 9373 0
-9372 2221 0
-9372 -2529 0
-9376 -9377 0
9377 9375 9376 0
2530 -9376 0
2222 -2530 9376 0
-9375 2222 0
-601 -609 9356 0
-9327 9354 9355 0
9348 -9354 0
9353 -9354 0
-9348 9354 -9353 0
9345 -9353 0
9352 -9353 0
9353 -9352 -9345 0
9342 -9352 0
9351 -9352 0
-9351 9352 -9342 0
9339 -9351 0
9350 -9351 0
9351 -9350 -9339 0
9336 -9350 0
9349 -9350 0
-9349 9350 -9336 0
9330 -9349 0
9333 -9349 0
9349 -9330 -9333 0
-9332 -9333 0
9331 9333 9332 0
2217 -2511 9332 0
9329 9328 9330 0
-9334 -9336 0
-9335 -9336 0
9334 9336 9335 0
2512 -9335 0
2218 -2512 9335 0
2512 -2218 9334 0
-9337 -9339 0
-9338 -9339 0
9338 9339 9337 0
-9338 -2219 0
2513 -9338 0
2219 -2513 9338 0
-9337 2219 0
-9337 -2513 0
2513 -2219 9337 0
-9340 -9342 0
-9341 -9342 0
9341 9342 9340 0
-9341 -2220 0
-9341 2514 0
-2514 2220 9341 0
-9340 2220 0
-9340 -2514 0
2514 -2220 9340 0
-9343 -9345 0
-9344 -9345 0
9344 9345 9343 0
-9344 -2221 0
-9344 2515 0
-2515 2221 9344 0
-9343 2221 0
-9343 -2515 0
2515 -2221 9343 0
-9347 -9348 0
9348 9347 9346 0
-9347 -2222 0
2516 -9347 0
2222 -2516 9347 0
-9346 2222 0
-9346 -2516 0
-601 -608 9327 0
-9298 9325 9326 0
9319 -9325 0
9324 -9325 0
-9319 9325 -9324 0
9316 -9324 0
9323 -9324 0
9324 -9323 -9316 0
9313 -9323 0
9322 -9323 0
-9322 9323 -9313 0
9310 -9322 0
9321 -9322 0
9322 -9310 -9321 0
9307 -9321 0
9320 -9321 0
-9320 9321 -9307 0
9301 -9320 0
9304 -9320 0
9320 -9304 -9301 0
-9303 -9304 0
-2497 2217 9303 0
-9305 -9307 0
-9306 -9307 0
-2498 2218 9306 0
2498 -2218 9305 0
-9308 -9310 0
-9309 -9310 0
9309 9310 9308 0
-9309 2499 0
-2499 2219 9309 0
2499 -2219 9308 0
-9311 -9313 0
9313 9312 9311 0
-9312 -2220 0
2500 -9312 0
-9311 2220 0
-9311 -2500 0
2500 -2220 9311 0
-9314 -9316 0
-9315 -9316 0
9315 9316 9314 0
-9315 -2221 0
-9315 2501 0
-2501 2221 9315 0
-9314 2221 0
-9314 -2501 0
2501 -2221 9314 0
-9318 -9319 0
9319 9318 9317 0
2502 -9318 0
2222 -2502 9318 0
-9317 2222 0
-601 -607 9298 0
9296 -9269 9297 0
9290 -9296 0
9295 -9296 0
-9295 9287 0
-9295 9294 0
9284 -9294 0
9293 -9294 0
-9293 9281 0
-9293 9292 0
9278 -9292 0
9291 -9292 0
-9291 9272 0
-9291 9275 0
-9275 -9274 0
9273 9275 9274 0
-9274 -2217 0
2483 -9274 0
9274 -2483 2217 0
-9273 2217 0
-9273 -2483 0
-9272 -9271 0
9271 9270 9272 0
-9271 -2216 0
9271 -2482 2216 0
-9270 -2482 0
-9278 -9277 0
9277 9276 9278 0
2484 -9277 0
9277 -2484 2218 0
-9276 2218 0
-9279 -9281 0
-9281 -9280 0
9280 9281 9279 0
-9280 -2219 0
9280 -2485 2219 0
-9279 -2485 0
9279 2485 -2219 0
-9282 -9284 0
-9284 -9283 0
9284 9283 9282 0
9283 -2486 2220 0
-9282 2220 0
2486 -2220 9282 0
-9287 -9286 0
9286 9287 9285 0
-9286 2487 0
9286 -2487 2221 0
-9285 2221 0
-9290 -9289 0
9290 9289 9288 0
2488 -9289 0
2222 -2488 9289 0
-9288 2222 0
9269 -601 -606 0
-9240 9267 9268 0
9261 -9267 0
9266 -9267 0
-9266 -9261 9267 0
9258 -9266 0
9265 -9266 0
9266 -9265 -9258 0
9255 -9265 0
9264 -9265 0
-9264 9265 -9255 0
9252 -9264 0
9263 -9264 0
9264 -9263 -9252 0
9249 -9263 0
9262 -9263 0
-9262 9263 -9249 0
9246 -9262 0
9262 -9243 -9246 0
-9244 -9246 0
-9245 -9246 0
9246 9244 9245 0
-9245 -2217 0
-9245 2469 0
2217 -2469 9245 0
-9244 2217 0
-9244 -2469 0
-2217 2469 9244 0
9243 9241 9242 0
-9242 -2216 0
-9242 2468 0
-9241 2216 0
-9241 -2468 0
-9247 -9249 0
-9248 -9249 0
9249 9247 9248 0
-9248 -2218 0
-9248 2470 0
2218 -2470 9248 0
-9247 2218 0
-9247 -2470 0
-2218 2470 9247 0
-9250 -9252 0
-9251 -9252 0
9252 9250 9251 0
-9251 -2219 0
-9251 2471 0
2219 -2471 9251 0
-9250 2219 0
-9250 -2471 0
-2219 2471 9250 0
-9253 -9255 0
-9254 -9255 0
9255 9254 9253 0
-9254 -2220 0
-9254 2472 0
-2472 2220 9254 0
-9253 2220 0
-9253 -2472 0
-2220 2472 9253 0
-9256 -9258 0
-9257 -9258 0
9258 9257 9256 0
-9257 -2221 0
-9257 2473 0
-2473 2221 9257 0
-9256 2221 0
-9256 -2473 0
-2221 2473 9256 0
-9259 -9261 0
-9260 -9261 0
9261 9260 9259 0
-9260 -2222 0
-9260 2474 0
2222 -2474 9260 0
-9259 2222 0
-9259 -2474 0
2474 -2222 9259 0
-601 -605 9240 0
9238 -9211 9239 0
9232 -9238 0
9237 -9238 0
9229 -9237 0
9236 -9237 0
9226 -9236 0
9235 -9236 0
9223 -9235 0
9234 -9235 0
9220 -9234 0
9233 -9234 0
9214 -9233 0
9217 -9233 0
-9215 -9217 0
-9216 -9217 0
9216 9217 9215 0
-9216 -2217 0
-9216 2455 0
2217 -2455 9216 0
-9215 2217 0
-9215 -2455 0
2455 -2217 9215 0
9213 9212 9214 0
-9213 2454 0
-9212 2216 0
9212 2454 -2216 0
-9218 -9220 0
-9219 -9220 0
9219 9220 9218 0
-9219 -2218 0
-2456 2218 9219 0
-2456 -9218 0
2456 -2218 9218 0
-9221 -9223 0
-9222 -9223 0
9222 9223 9221 0
-9222 -2219 0
-9222 2457 0
-2457 2219 9222 0
-9221 2219 0
-9221 -2457 0
2457 -2219 9221 0
-9224 -9226 0
-9225 -9226 0
9225 9226 9224 0
-9225 -2220 0
-9225 2458 0
-2458 2220 9225 0
-9224 2220 0
-9224 -2458 0
2458 -2220 9224 0
-9227 -9229 0
-9228 -9229 0
9228 9229 9227 0
-9228 -2221 0
-9228 2459 0
-2459 2221 9228 0
-9227 2221 0
-2459 -9227 0
2459 -2221 9227 0
-9230 -9232 0
-9231 -9232 0
9232 9231 9230 0
-9231 -2222 0
-9231 2460 0
2222 -2460 9231 0
-9230 2222 0
-9230 -2460 0
2460 -2222 9230 0
9211 -601 -604 0
9209 -9182 9210 0
-9209 9203 0
-9209 9208 0
-9208 9200 0
-9208 9207 0
-9207 9197 0
-9207 9206 0
-9206 9194 0
-9206 9205 0
-9205 9191 0
-9205 9204 0
-9204 9185 0
-9204 9188 0
-9188 -9186 0
-9188 -9187 0
9187 2217 -2441 0
9186 2441 -2217 0
-9185 -9183 0
-9185 -9184 0
9184 2216 -2440 0
9183 2440 -2216 0
-9191 -9189 0
-9191 -9190 0
9190 2218 -2442 0
9189 2442 -2218 0
-9194 -9192 0
-9194 -9193 0
9193 2219 -2443 0
9192 2443 -2219 0
-9197 -9195 0
-9197 -9196 0
9196 -2444 2220 0
9195 2444 -2220 0
-9200 -9198 0
-9200 -9199 0
9199 -2445 2221 0
9198 2445 -2221 0
-9203 -9201 0
-9203 -9202 0
9202 2222 -2446 0
9201 2446 -2222 0
9182 -601 -603 0
-9153 9180 9181 0
9174 -9180 0
9179 -9180 0
9171 -9179 0
9178 -9179 0
9168 -9178 0
9177 -9178 0
9165 -9177 0
9176 -9177 0
9162 -9176 0
9175 -9176 0
9156 -9175 0
9159 -9175 0
-9158 -9159 0
9157 9159 9158 0
-9158 -2217 0
-9158 2329 0
-2329 2217 9158 0
-9157 2217 0
-9157 -2329 0
-9154 -9156 0
-9155 -9156 0
9154 9156 9155 0
-9155 -2216 0
2328 -9155 0
-2328 2216 9155 0
-9154 2216 0
-9154 -2328 0
2328 -2216 9154 0
-9160 -9162 0
-9161 -9162 0
9160 9162 9161 0
-9161 -2218 0
-9161 2330 0
-2330 2218 9161 0
-9160 2218 0
-9160 -2330 0
2330 -2218 9160 0
-9163 -9165 0
-9164 -9165 0
9163 9165 9164 0
-9164 -2219 0
-9164 2331 0
-2331 2219 9164 0
-9163 2219 0
-9163 -2331 0
2331 -2219 9163 0
-9166 -9168 0
-9167 -9168 0
9168 9167 9166 0
-9167 -2220 0
-9167 2332 0
-2332 2220 9167 0
-9166 2220 0
-9166 -2332 0
2332 -2220 9166 0
-9169 -9171 0
-9170 -9171 0
9171 9170 9169 0
-9170 -2221 0
-9170 2333 0
-2333 2221 9170 0
-9169 2221 0
-9169 -2333 0
2333 -2221 9169 0
-9172 -9174 0
-9173 -9174 0
9174 9172 9173 0
-9173 -2222 0
-9173 2334 0
2222 -2334 9173 0
-9172 2222 0
-9172 -2334 0
2334 -2222 9172 0
-601 -602 9153 0
-9124 9151 9152 0
9145 -9151 0
9150 -9151 0
-9145 -9150 9151 0
9142 -9150 0
9149 -9150 0
9150 -9149 -9142 0
9139 -9149 0
9148 -9149 0
-9148 9149 -9139 0
9136 -9148 0
9147 -9148 0
9148 -9147 -9136 0
9133 -9147 0
9146 -9147 0
-9146 9147 -9133 0
9127 -9146 0
9130 -9146 0
9146 -9127 -9130 0
-9129 -9130 0
9130 9129 9128 0
-9129 -2105 0
2525 -9129 0
-2525 2105 9129 0
-9128 2105 0
-9128 -2525 0
9126 9127 9125 0
-9125 2104 0
-9125 -2524 0
-9132 -9133 0
9133 9132 9131 0
-9132 -2106 0
2526 -9132 0
-2526 2106 9132 0
-9131 2106 0
-9131 -2526 0
-9134 -9136 0
-9135 -9136 0
9136 9135 9134 0
-9135 -2107 0
2527 -9135 0
-2527 2107 9135 0
-9134 2107 0
-9134 -2527 0
2527 -2107 9134 0
-9137 -9139 0
-9138 -9139 0
9139 9138 9137 0
-9138 -2108 0
-9138 2528 0
-2528 2108 9138 0
-9137 2108 0
-9137 -2528 0
2528 -2108 9137 0
-9140 -9142 0
-9141 -9142 0
9142 9141 9140 0
-9141 -2109 0
-9141 2529 0
-2529 2109 9141 0
-9140 2109 0
-9140 -2529 0
2529 -2109 9140 0
-9143 -9145 0
-9144 -9145 0
9145 9144 9143 0
-9144 -2110 0
2530 -9144 0
2110 -2530 9144 0
-9143 2110 0
-9143 -2530 0
2530 -2110 9143 0
-600 -609 9124 0
-9095 9122 9123 0
9116 -9122 0
9121 -9122 0
-9116 9122 -9121 0
9113 -9121 0
9120 -9121 0
9121 -9120 -9113 0
9110 -9120 0
9119 -9120 0
-9119 9120 -9110 0
9107 -9119 0
9118 -9119 0
9119 -9118 -9107 0
9104 -9118 0
9117 -9118 0
-9117 9118 -9104 0
9098 -9117 0
9101 -9117 0
9117 -9098 -9101 0
-9102 -9104 0
9104 9103 9102 0
-9103 -2106 0
-2512 9103 2106 0
2512 -2106 9102 0
-9105 -9107 0
-9106 -9107 0
9107 9106 9105 0
-9106 -2107 0
2513 -9106 0
-2513 2107 9106 0
-9105 2107 0
-9105 -2513 0
2513 -2107 9105 0
-9108 -9110 0
-9109 -9110 0
9110 9109 9108 0
-9109 -2108 0
-9109 2514 0
-2514 2108 9109 0
-9108 2108 0
-9108 -2514 0
2514 -2108 9108 0
-9111 -9113 0
-9112 -9113 0
9113 9112 9111 0
-9112 -2109 0
-9112 2515 0
-2515 2109 9112 0
-9111 2109 0
-9111 -2515 0
2515 -2109 9111 0
-9115 -9116 0
9116 9115 9114 0
-9115 -2110 0
-9115 2516 0
2110 -2516 9115 0
-9114 2110 0
-9114 -2516 0
2516 -2110 9114 0
-600 -608 9095 0
-9066 9093 9094 0
9087 -9093 0
9092 -9093 0
-9087 -9092 9093 0
9084 -9092 0
9091 -9092 0
9092 -9091 -9084 0
9081 -9091 0
9090 -9091 0
-9090 9091 -9081 0
9078 -9090 0
9089 -9090 0
9090 -9089 -9078 0
9075 -9089 0
9088 -9089 0
-9088 9089 -9075 0
9069 -9088 0
9072 -9088 0
9088 -9069 -9072 0
-9074 -9075 0
9075 9074 9073 0
-9074 -2106 0
-2498 2106 9074 0
-9073 -2498 0
-9076 -9078 0
-9077 -9078 0
9078 9077 9076 0
-9077 -2107 0
2499 -9077 0
-2499 2107 9077 0
-9076 2107 0
-9076 -2499 0
2499 -2107 9076 0
-9079 -9081 0
9081 9080 9079 0
-9080 -2108 0
2500 -9080 0
-2500 9080 2108 0
-9079 2108 0
-9079 -2500 0
2500 -2108 9079 0
-9082 -9084 0
-9083 -9084 0
9084 9083 9082 0
-9083 -2109 0
-9083 2501 0
-2501 2109 9083 0
-9082 2109 0
-9082 -2501 0
2501 -2109 9082 0
-9086 -9087 0
9087 9086 9085 0
-9086 -2110 0
2502 -9086 0
2110 -2502 9086 0
-9085 2110 0
-9085 -2502 0
2502 -2110 9085 0
-600 -607 9066 0
-9037 9064 9065 0
9063 -9064 0
9055 -9063 0
9062 -9063 0
9052 -9062 0
9061 -9062 0
9049 -9061 0
9060 -9061 0
9046 -9060 0
9059 -9060 0
9040 -9059 0
9043 -9059 0
-9038 -9040 0
9039 9040 9038 0
-9038 2104 0
-9038 -2482 0
2482 -2104 9038 0
-9045 -9046 0
9046 9045 9044 0
-9045 -2106 0
2484 -9045 0
-2484 2106 9045 0
-9044 2106 0
-9044 -2484 0
-9047 -9049 0
-9048 -9049 0
9049 9047 9048 0
-9048 -2107 0
2485 -9048 0
-2485 2107 9048 0
-9047 -2485 0
2485 -2107 9047 0
-9050 -9052 0
9052 9051 9050 0
-9051 -2108 0
2486 -9051 0
-2486 9051 2108 0
-9050 2108 0
-9050 -2486 0
2486 -2108 9050 0
-9053 -9055 0
-9054 -9055 0
9055 9054 9053 0
-9054 -2109 0
-9054 2487 0
-2487 2109 9054 0
-9053 2109 0
-9053 -2487 0
2487 -2109 9053 0
-9057 -9058 0
9058 9057 9056 0
-9057 -2110 0
2488 -9057 0
2110 -2488 9057 0
-9056 2110 0
-9056 -2488 0
2488 -2110 9056 0
-600 -606 9037 0
-9008 9035 9036 0
9029 -9035 0
9034 -9035 0
9026 -9034 0
9033 -9034 0
9032 -9033 0
9020 -9032 0
-9014 -9013 0
9014 9013 9012 0
-9013 -2105 0
-9013 2469 0
-2469 9013 2105 0
-9012 2105 0
-9012 -2469 0
2469 -2105 9012 0
9011 9010 9009 0
-9010 -2104 0
-9010 2468 0
-2468 9010 2104 0
-9009 2104 0
-9009 -2468 0
-9015 -9017 0
-9017 -9016 0
9017 9016 9015 0
-9016 -2106 0
-9016 2470 0
-2470 9016 2106 0
-9015 2106 0
-9015 -2470 0
2470 -2106 9015 0
-9018 -9020 0
-9019 -9020 0
9020 9019 9018 0
-9019 -2107 0
-9019 2471 0
-2471 2107 9019 0
-9018 2107 0
-9018 -2471 0
2471 -2107 9018 0
-9021 -9023 0
9023 9022 9021 0
-9022 -2108 0
-9022 2472 0
-2472 9022 2108 0
-9021 2108 0
-9021 -2472 0
2472 -2108 9021 0
-9024 -9026 0
9026 9025 9024 0
-9025 -2109 0
-9025 2473 0
-2473 9025 2109 0
-9024 2109 0
-9024 -2473 0
2473 -2109 9024 0
-9027 -9029 0
-9028 -9029 0
9029 9028 9027 0
-9028 -2110 0
-9028 2474 0
2110 -2474 9028 0
-9027 2110 0
-9027 -2474 0
2474 -2110 9027 0
-600 -605 9008 0
-7150 -9007 0
9006 -9007 0
-7179 -9006 0
9005 -9006 0
-7207 -9005 0
9004 -9005 0
-7235 -9004 0
9003 -9004 0
-7263 -9003 0
9002 -9003 0
-7291 -9002 0
9001 -9002 0
-7319 -9001 0
9000 -9001 0
-7347 -9000 0
8999 -9000 0
-7375 -8999 0
8998 -8999 0
-7403 -8998 0
8997 -8998 0
-7431 -8997 0
8996 -8997 0
-7459 -8996 0
8995 -8996 0
-7487 -8995 0
8994 -8995 0
-7515 -8994 0
8993 -8994 0
-7543 -8993 0
8992 -8993 0
-7571 -8992 0
8991 -8992 0
-7599 -8991 0
8990 -8991 0
-7627 -8990 0
8989 -8990 0
-7655 -8989 0
8988 -8989 0
-7684 -8988 0
8987 -8988 0
-7713 -8987 0
8986 -8987 0
-7742 -8986 0
8985 -8986 0
-7771 -8985 0
8984 -8985 0
-7800 -8984 0
8983 -8984 0
-7829 -8983 0
8982 -8983 0
-7857 -8982 0
8981 -8982 0
-7885 -8981 0
8980 -8981 0
-7913 -8980 0
8979 -8980 0
-7941 -8979 0
8978 -8979 0
-7969 -8978 0
8977 -8978 0
-7997 -8977 0
8976 -8977 0
-8025 -8976 0
8975 -8976 0
-8053 -8975 0
8974 -8975 0
-8081 -8974 0
8973 -8974 0
-8110 -8973 0
8972 -8973 0
-8139 -8972 0
8971 -8972 0
-8168 -8971 0
8970 -8971 0
-8197 -8970 0
8969 -8970 0
-8226 -8969 0
8968 -8969 0
-8254 -8968 0
8967 -8968 0
-8283 -8967 0
8966 -8967 0
-8312 -8966 0
8965 -8966 0
-8341 -8965 0
8964 -8965 0
-8370 -8964 0
8963 -8964 0
-8399 -8963 0
8962 -8963 0
-8428 -8962 0
8961 -8962 0
-8457 -8961 0
8960 -8961 0
-8486 -8960 0
8959 -8960 0
-8515 -8959 0
8958 -8959 0
-8544 -8958 0
8957 -8958 0
-8573 -8957 0
8956 -8957 0
-8602 -8956 0
8955 -8956 0
-8631 -8955 0
8954 -8955 0
-8660 -8954 0
8953 -8954 0
-8688 -8953 0
8952 -8953 0
-8716 -8952 0
8951 -8952 0
-8744 -8951 0
8950 -8951 0
-8773 -8950 0
8949 -8950 0
-8801 -8949 0
8948 -8949 0
-8829 -8948 0
8947 -8948 0
-8857 -8947 0
8946 -8947 0
-8886 -8946 0
8945 -8946 0
-8915 -8945 0
-8944 -8945 0
-8916 8943 8944 0
8937 -8943 0
8942 -8943 0
8934 -8942 0
8941 -8942 0
8931 -8941 0
8940 -8941 0
8928 -8940 0
8939 -8940 0
8925 -8939 0
8938 -8939 0
8919 -8938 0
8922 -8938 0
-8920 -8922 0
8922 8921 8920 0
-8921 -2105 0
-8921 2455 0
-8920 2105 0
-8920 -2455 0
2455 -2105 8920 0
-8917 -8919 0
8919 8917 8918 0
-8918 -2104 0
-2454 -8917 0
2454 -2104 8917 0
-8923 -8925 0
-8924 -8925 0
8925 8924 8923 0
-8924 -2106 0
-8924 2456 0
-2456 2106 8924 0
-8923 2106 0
-2456 -8923 0
2456 -2106 8923 0
-8926 -8928 0
8928 8927 8926 0
-8927 -2107 0
-8927 2457 0
-8926 2107 0
-8926 -2457 0
2457 -2107 8926 0
-8929 -8931 0
-8930 -8931 0
8931 8930 8929 0
-8930 -2108 0
-8930 2458 0
-2458 2108 8930 0
-8929 2108 0
-8929 -2458 0
2458 -2108 8929 0
-8932 -8934 0
-8933 -8934 0
8934 8933 8932 0
-8933 -2109 0
-8933 2459 0
-2459 2109 8933 0
-8932 2109 0
-2459 -8932 0
2459 -2109 8932 0
-8935 -8937 0
-8936 -8937 0
8937 8936 8935 0
-8936 -2110 0
-8936 2460 0
2110 -2460 8936 0
-8935 2110 0
-8935 -2460 0
2460 -2110 8935 0
-600 -604 8916 0
8914 -8887 8915 0
8908 -8914 0
8913 -8914 0
8912 -8913 0
8902 -8912 0
8911 -8912 0
8899 -8911 0
8910 -8911 0
8896 -8910 0
8909 -8910 0
8890 -8909 0
8893 -8909 0
-8891 -8893 0
2441 -2105 8891 0
-8888 -8890 0
-8889 -8890 0
-2440 2104 8889 0
2440 -2104 8888 0
-8894 -8896 0
2442 -2106 8894 0
8899 8897 8898 0
-8898 -2107 0
-8897 -2443 0
-8900 -8902 0
2444 -2108 8900 0
-8906 -8908 0
2446 -2110 8906 0
8887 -600 -603 0
-8858 8885 8886 0
8879 -8885 0
8884 -8885 0
-8884 -8879 8885 0
8876 -8884 0
8883 -8884 0
8884 -8883 -8876 0
8873 -8883 0
8882 -8883 0
-8882 8883 -8873 0
8870 -8882 0
8881 -8882 0
8882 -8881 -8870 0
8867 -8881 0
8880 -8881 0
-8880 8881 -8867 0
8861 -8880 0
8864 -8880 0
8880 -8861 -8864 0
-8862 -8864 0
-8863 -8864 0
8864 8863 8862 0
-8863 -2105 0
-8863 2329 0
-2329 2105 8863 0
-8862 2105 0
-8862 -2329 0
2329 -2105 8862 0
8861 8860 8859 0
-8860 -2104 0
2328 -8860 0
-2328 8860 2104 0
-8859 2104 0
-8859 -2328 0
-8865 -8867 0
-8866 -8867 0
8867 8866 8865 0
-8866 -2106 0
-8866 2330 0
-2330 2106 8866 0
-8865 2106 0
-8865 -2330 0
2330 -2106 8865 0
-8868 -8870 0
-8869 -8870 0
8870 8869 8868 0
-8869 -2107 0
-8869 2331 0
-2331 2107 8869 0
-8868 2107 0
-8868 -2331 0
2331 -2107 8868 0
-8871 -8873 0
-8872 -8873 0
8873 8872 8871 0
-8872 -2108 0
-8872 2332 0
-2332 2108 8872 0
-8871 2108 0
-8871 -2332 0
2332 -2108 8871 0
-8874 -8876 0
-8875 -8876 0
8876 8875 8874 0
-8875 -2109 0
-8875 2333 0
-2333 2109 8875 0
-8874 2109 0
-8874 -2333 0
2333 -2109 8874 0
-8877 -8879 0
-8878 -8879 0
8879 8877 8878 0
-8878 -2110 0
-8878 2334 0
2110 -2334 8878 0
-8877 2110 0
-8877 -2334 0
2334 -2110 8877 0
-600 -602 8858 0
-1011 8856 8857 0
8850 -8856 0
8855 -8856 0
-8855 8856 -8850 0
8847 -8855 0
8854 -8855 0
8855 -8854 -8847 0
8844 -8854 0
8853 -8854 0
-8853 8854 -8844 0
8841 -8853 0
8852 -8853 0
8853 -8852 -8841 0
8838 -8852 0
8851 -8852 0
-8851 8852 -8838 0
8835 -8851 0
8851 -8832 -8835 0
-8833 -8835 0
8834 8835 8833 0
-8834 -1902 0
2525 -8834 0
1902 -8833 0
-8833 -2525 0
2525 -1902 8833 0
-8832 -8831 0
8830 8831 8832 0
-1901 -8831 0
-8831 2524 0
8831 -2524 1901 0
-8830 1901 0
-8830 -2524 0
-8836 -8838 0
-8837 -8838 0
8836 8838 8837 0
-8837 -1903 0
2526 -8837 0
1903 -2526 8837 0
1903 -8836 0
-8836 -2526 0
2526 -1903 8836 0
-8839 -8841 0
-8840 -8841 0
8839 8841 8840 0
-8840 -1904 0
2527 -8840 0
1904 -2527 8840 0
1904 -8839 0
-8839 -2527 0
-1904 2527 8839 0
-8842 -8844 0
-8843 -8844 0
8844 8843 8842 0
-8843 -1905 0
-8843 2528 0
-2528 1905 8843 0
-8842 1905 0
-8842 -2528 0
2528 -1905 8842 0
-8845 -8847 0
-8846 -8847 0
8847 8846 8845 0
-1906 -8846 0
-8846 2529 0
-2529 1906 8846 0
-8845 1906 0
-2529 -8845 0
-1906 2529 8845 0
-8848 -8850 0
-8849 -8850 0
8850 8849 8848 0
-8849 -1907 0
2530 -8849 0
1907 -2530 8849 0
-8848 1907 0
-8848 -2530 0
2530 -1907 8848 0
-1008 8828 8829 0
8822 -8828 0
8827 -8828 0
-8827 -8822 8828 0
8819 -8827 0
8826 -8827 0
8827 -8826 -8819 0
8816 -8826 0
8825 -8826 0
-8825 8826 -8816 0
8813 -8825 0
8824 -8825 0
8825 -8824 -8813 0
8810 -8824 0
8823 -8824 0
-8823 8824 -8810 0
8804 -8823 0
8807 -8823 0
8823 -8804 -8807 0
-8805 -8807 0
-8806 -8807 0
8805 8807 8806 0
-8806 -1902 0
2511 -8806 0
1902 -2511 8806 0
1902 -8805 0
-8805 -2511 0
2511 -1902 8805 0
-8802 -8804 0
8803 8804 8802 0
-1901 -8803 0
2510 -8803 0
-8802 1901 0
-2510 -8802 0
2510 -1901 8802 0
-8808 -8810 0
-8809 -8810 0
8808 8810 8809 0
-8809 -1903 0
2512 -8809 0
1903 -2512 8809 0
1903 -8808 0
-8808 -2512 0
2512 -1903 8808 0
-8811 -8813 0
-8812 -8813 0
8811 8813 8812 0
-8812 -1904 0
2513 -8812 0
1904 -2513 8812 0
1904 -8811 0
-8811 -2513 0
-1904 2513 8811 0
-8814 -8816 0
-8815 -8816 0
8816 8815 8814 0
-8815 -1905 0
-8815 2514 0
-2514 1905 8815 0
-8814 1905 0
-8814 -2514 0
2514 -1905 8814 0
-8817 -8819 0
-8818 -8819 0
8818 8819 8817 0
-1906 -8818 0
-8818 2515 0
-2515 1906 8818 0
-8817 1906 0
-2515 -8817 0
-1906 2515 8817 0
-8820 -8822 0
-8821 -8822 0
8822 8821 8820 0
-8821 -1907 0
2516 -8821 0
1907 -2516 8821 0
-8820 1907 0
-8820 -2516 0
2516 -1907 8820 0
-1005 8800 8801 0
8794 -8800 0
8799 -8800 0
8791 -8799 0
8798 -8799 0
8788 -8798 0
8797 -8798 0
8785 -8797 0
8796 -8797 0
8782 -8796 0
8795 -8796 0
8776 -8795 0
8779 -8795 0
-8777 -8779 0
8777 8779 8778 0
-8778 -1902 0
2497 -8778 0
8778 -2497 1902 0
1902 -8777 0
-2497 -8777 0
2497 -1902 8777 0
-8774 -8776 0
-8775 -8776 0
8774 8776 8775 0
-1901 -8775 0
-8775 2496 0
-2496 1901 8775 0
-8774 1901 0
-2496 -8774 0
-1901 2496 8774 0
-8780 -8782 0
8781 8782 8780 0
-8781 -1903 0
2498 -8781 0
8781 -2498 1903 0
1903 -8780 0
-2498 -8780 0
2498 -1903 8780 0
-8783 -8785 0
8783 8785 8784 0
-8784 -1904 0
2499 -8784 0
8784 -2499 1904 0
1904 -8783 0
-2499 -8783 0
-1904 2499 8783 0
-8786 -8788 0
8787 8788 8786 0
-8787 -1905 0
2500 -8787 0
8787 -2500 1905 0
-8786 1905 0
-8786 -2500 0
2500 -1905 8786 0
-8789 -8791 0
-8790 -8791 0
8791 8790 8789 0
-1906 -8790 0
-8790 2501 0
-2501 1906 8790 0
-8789 1906 0
-2501 -8789 0
-1906 2501 8789 0
-8792 -8794 0
-8793 -8794 0
8794 8793 8792 0
-8793 -1907 0
2502 -8793 0
1907 -2502 8793 0
-8792 1907 0
-8792 -2502 0
2502 -1907 8792 0
-8745 8772 8773 0
8766 -8772 0
8771 -8772 0
8763 -8771 0
8770 -8771 0
8760 -8770 0
8769 -8770 0
8757 -8769 0
8768 -8769 0
8754 -8768 0
8767 -8768 0
8748 -8767 0
8751 -8767 0
-8749 -8751 0
-8750 -8751 0
8749 8751 8750 0
-8750 -1902 0
2483 -8750 0
1902 -8749 0
-2483 -8749 0
2483 -1902 8749 0
-8746 -8748 0
-8747 -8748 0
8746 8748 8747 0
-1901 -8747 0
2482 -8747 0
-2482 1901 8747 0
-8746 1901 0
-2482 -8746 0
-1901 2482 8746 0
-8752 -8754 0
8753 8754 8752 0
-8753 -1903 0
2484 -8753 0
1903 -8752 0
-2484 -8752 0
2484 -1903 8752 0
-8755 -8757 0
-8756 -8757 0
8755 8757 8756 0
-8756 -1904 0
2485 -8756 0
-2485 1904 8756 0
1904 -8755 0
-2485 -8755 0
-1904 2485 8755 0
-8758 -8760 0
-8759 -8760 0
8760 8759 8758 0
-8759 -1905 0
2486 -8759 0
-2486 1905 8759 0
-8758 1905 0
-8758 -2486 0
2486 -1905 8758 0
-8761 -8763 0
-8762 -8763 0
8763 8762 8761 0
-1906 -8762 0
-8762 2487 0
-2487 1906 8762 0
-8761 1906 0
-2487 -8761 0
-1906 2487 8761 0
-8764 -8766 0
-8765 -8766 0
8766 8765 8764 0
-8765 -1907 0
2488 -8765 0
1907 -2488 8765 0
-8764 1907 0
-8764 -2488 0
2488 -1907 8764 0
-599 -606 8745 0
-1002 8743 8744 0
8737 -8743 0
8742 -8743 0
8734 -8742 0
8741 -8742 0
8731 -8741 0
8740 -8741 0
8728 -8740 0
8739 -8740 0
8725 -8739 0
8738 -8739 0
8719 -8738 0
8722 -8738 0
-8720 -8722 0
8722 8721 8720 0
-8721 -1902 0
8721 1902 -2469 0
-8720 -2469 0
-1902 2469 8720 0
-8717 -8719 0
-8718 -8719 0
8719 8717 8718 0
-1901 -8718 0
-8718 2468 0
1901 -2468 8718 0
-8717 1901 0
-8717 -2468 0
-1901 2468 8717 0
-8724 -8725 0
8725 8723 8724 0
-8724 -1903 0
-8724 2470 0
1903 -2470 8724 0
1903 -8723 0
-8723 -2470 0
-1903 8723 2470 0
-8726 -8728 0
8728 8726 8727 0
-8727 -1904 0
-8727 2471 0
1904 -8726 0
-8726 -2471 0
-1904 2471 8726 0
-8729 -8731 0
-8730 -8731 0
8731 8730 8729 0
-8730 -1905 0
-8730 2472 0
-2472 1905 8730 0
-8729 1905 0
-8729 -2472 0
-1905 2472 8729 0
-8732 -8734 0
-8733 -8734 0
8734 8733 8732 0
-1906 -8733 0
-8733 2473 0
-2473 1906 8733 0
-8732 1906 0
-8732 -2473 0
-1906 2473 8732 0
-8735 -8737 0
-8736 -8737 0
8737 8736 8735 0
-8736 -1907 0
-8736 2474 0
1907 -2474 8736 0
-8735 1907 0
-8735 -2474 0
2474 -1907 8735 0
-999 8715 8716 0
8709 -8715 0
8714 -8715 0
8706 -8714 0
8713 -8714 0
8703 -8713 0
8712 -8713 0
8700 -8712 0
8711 -8712 0
8697 -8711 0
-8692 -8694 0
8692 8693 8694 0
-8693 -1902 0
2455 -8693 0
8693 1902 -2455 0
1902 -8692 0
-8692 -2455 0
8692 2455 -1902 0
8689 8690 8691 0
-1901 -8690 0
2454 -8690 0
8690 -2454 1901 0
-8689 1901 0
-2454 -8689 0
-8695 -8697 0
-8696 -8697 0
8695 8697 8696 0
-8696 -1903 0
2456 -8696 0
-2456 1903 8696 0
1903 -8695 0
-2456 -8695 0
2456 -1903 8695 0
-8698 -8700 0
-8699 -8700 0
8698 8700 8699 0
-8699 -1904 0
2457 -8699 0
-2457 1904 8699 0
1904 -8698 0
-8698 -2457 0
2457 -1904 8698 0
-8701 -8703 0
-8702 -8703 0
8703 8702 8701 0
-8702 -1905 0
-8702 2458 0
-2458 1905 8702 0
-8701 1905 0
-8701 -2458 0
2458 -1905 8701 0
-8704 -8706 0
-8705 -8706 0
8706 8705 8704 0
-8705 -1906 0
-8705 2459 0
-2459 1906 8705 0
-8704 1906 0
-2459 -8704 0
-1906 2459 8704 0
-8707 -8709 0
-8708 -8709 0
8709 8708 8707 0
-8708 -1907 0
2460 -8708 0
1907 -2460 8708 0
-8707 1907 0
-8707 -2460 0
2460 -1907 8707 0
-996 8687 8688 0
8681 -8687 0
8686 -8687 0
-8686 8687 -8681 0
8678 -8686 0
8685 -8686 0
8686 -8685 -8678 0
8675 -8685 0
8684 -8685 0
-8684 8685 -8675 0
8672 -8684 0
8683 -8684 0
8684 -8683 -8672 0
8669 -8683 0
8682 -8683 0
-8682 8683 -8669 0
8663 -8682 0
8666 -8682 0
8682 -8663 -8666 0
-8665 -8666 0
8664 8666 8665 0
-8665 -1902 0
-8665 2441 0
1902 -2441 8665 0
-8664 1902 0
-8664 -2441 0
8661 8662 8663 0
-1901 -8662 0
-8662 2440 0
8662 1901 -2440 0
-8661 1901 0
-8661 -2440 0
8667 8668 8669 0
-8668 -1903 0
-8667 -2442 0
8670 8671 8672 0
-8671 -1904 0
-8671 2443 0
8671 1904 -2443 0
-8670 1904 0
-8670 -2443 0
-8673 -8675 0
8674 8675 8673 0
-8674 -1905 0
-8674 2444 0
-8673 1905 0
-8673 -2444 0
2444 -1905 8673 0
8677 8678 8676 0
-8677 -1906 0
-8677 2445 0
-8676 1906 0
-8676 -2445 0
-8679 -8681 0
8681 8679 8680 0
-8680 2446 0
1907 -2446 8680 0
-8679 1907 0
2446 -1907 8679 0
-8632 8659 8660 0
8653 -8659 0
8658 -8659 0
8650 -8658 0
8657 -8658 0
8647 -8657 0
8656 -8657 0
8644 -8656 0
8655 -8656 0
8641 -8655 0
8654 -8655 0
8638 -8654 0
-8636 -8638 0
-1902 2329 8636 0
-8639 -8641 0
2330 -1903 8639 0
-8642 -8644 0
-8643 -8644 0
8642 8644 8643 0
-8643 2331 0
1904 -2331 8643 0
-8642 1904 0
-8642 -2331 0
-1904 2331 8642 0
-8645 -8647 0
-8646 -8647 0
8647 8646 8645 0
-8646 2332 0
-2332 1905 8646 0
-8645 1905 0
2332 -1905 8645 0
-8648 -8650 0
-8649 -8650 0
8649 8650 8648 0
-8649 -1906 0
-8649 2333 0
-2333 1906 8649 0
-8648 1906 0
-8648 -2333 0
-1906 2333 8648 0
-8651 -8653 0
-8652 -8653 0
8653 8651 8652 0
-8652 -1907 0
-8652 2334 0
1907 -2334 8652 0
-8651 1907 0
-8651 -2334 0
2334 -1907 8651 0
-599 -602 8632 0
8630 -8603 8631 0
-8630 8624 0
8629 -8630 0
-8629 8621 0
-8629 8628 0
-8628 8618 0
-8628 8627 0
-8627 8615 0
-8627 8626 0
-8626 8612 0
-8626 8625 0
-8625 8606 0
-8625 8609 0
-8609 -8608 0
8607 8608 8609 0
-8608 -1902 0
8608 1902 -2217 0
-8607 -2217 0
8604 8605 8606 0
-8604 1901 0
-8612 -8611 0
8610 8611 8612 0
-8611 2218 0
8611 1903 -2218 0
-8610 1903 0
-8615 -8614 0
8613 8615 8614 0
-8614 -1904 0
-8614 2219 0
1904 -2219 8614 0
-8613 1904 0
-8613 -2219 0
8618 8617 8616 0
-8617 -1905 0
-8617 2220 0
8617 -2220 1905 0
-8616 1905 0
-8616 -2220 0
-8619 -8621 0
8621 8620 8619 0
-1906 -8620 0
-8620 2221 0
-8619 1906 0
-8619 -2221 0
8619 -1906 2221 0
-8622 -8624 0
8624 8622 8623 0
-8622 1907 0
-8622 -2222 0
2222 8622 -1907 0
8603 -599 -601 0
8601 -8574 8602 0
-8601 8595 0
8600 -8601 0
-8600 8592 0
-8600 8599 0
-8599 8589 0
-8599 8598 0
-8598 8586 0
-8598 8597 0
-8597 8583 0
-8597 8596 0
-8596 8577 0
-8596 8580 0
8580 8578 8579 0
-8579 -1902 0
-8579 2105 0
1902 -2105 8579 0
-8578 1902 0
-8578 -2105 0
8577 8576 8575 0
-8575 1901 0
-8575 -2104 0
-8583 -8582 0
8583 8581 8582 0
-8582 -1903 0
-8582 2106 0
1903 -2106 8582 0
-8581 1903 0
-8581 -2106 0
-8584 -8586 0
-8586 -8585 0
8586 8584 8585 0
-8585 -1904 0
-8585 2107 0
1904 -2107 8585 0
-8584 1904 0
-8584 -2107 0
-1904 8584 2107 0
-8587 -8589 0
-8589 -8588 0
8589 8587 8588 0
-8588 -1905 0
-8588 2108 0
-2108 8588 1905 0
-8587 1905 0
-8587 -2108 0
-1905 8587 2108 0
-8590 -8592 0
-8592 -8591 0
8592 8590 8591 0
-1906 -8591 0
-8591 2109 0
-2109 8591 1906 0
-8590 1906 0
-8590 -2109 0
-1906 8590 2109 0
-8593 -8595 0
8595 8593 8594 0
1907 -2110 8594 0
-8593 1907 0
-8593 -2110 0
8593 2110 -1907 0
8574 -599 -600 0
-8545 8572 8573 0
8566 -8572 0
8571 -8572 0
-8566 -8571 8572 0
8563 -8571 0
8570 -8571 0
8571 -8570 -8563 0
8560 -8570 0
8569 -8570 0
-8569 8570 -8560 0
8557 -8569 0
8568 -8569 0
8569 -8568 -8557 0
8554 -8568 0
8567 -8568 0
-8567 8568 -8554 0
8551 -8567 0
8567 -8548 -8551 0
-8549 -8551 0
8550 8551 8549 0
-8550 -1776 0
2525 -8550 0
-2525 8550 1776 0
1776 -8549 0
-8549 -2525 0
2525 -1776 8549 0
-8548 -8547 0
8546 8547 8548 0
-1775 -8547 0
2524 -8547 0
8547 1775 -2524 0
-8546 1775 0
-8546 -2524 0
-8552 -8554 0
8553 8554 8552 0
-8553 -1777 0
2526 -8553 0
8553 1777 -2526 0
1777 -8552 0
-8552 -2526 0
2526 -1777 8552 0
-8555 -8557 0
-8556 -8557 0
8555 8557 8556 0
-8556 -1778 0
2527 -8556 0
1778 -2527 8556 0
1778 -8555 0
-8555 -2527 0
2527 -1778 8555 0
-8558 -8560 0
-8559 -8560 0
8558 8560 8559 0
-8559 -1779 0
-8559 2528 0
1779 -2528 8559 0
-8558 1779 0
-8558 -2528 0
2528 -1779 8558 0
-8561 -8563 0
-8562 -8563 0
8561 8563 8562 0
-1780 -8562 0
-8562 2529 0
-2529 1780 8562 0
-8561 1780 0
-2529 -8561 0
-1780 2529 8561 0
-8564 -8566 0
-8565 -8566 0
8566 8565 8564 0
-8565 -1781 0
2530 -8565 0
1781 -2530 8565 0
1781 -8564 0
-8564 -2530 0
2530 -1781 8564 0
-598 -609 8545 0
-8516 8543 8544 0
8537 -8543 0
8542 -8543 0
8534 -8542 0
8541 -8542 0
8531 -8541 0
8540 -8541 0
8528 -8540 0
8539 -8540 0
8525 -8539 0
8520 8522 8521 0
-8521 -1776 0
2511 -8521 0
8521 1776 -2511 0
1776 -8520 0
-8520 -2511 0
8520 2511 -1776 0
-8519 -8518 0
8517 8518 8519 0
-1775 -8518 0
8518 -2510 1775 0
1775 -8517 0
-2510 -8517 0
-8523 -8525 0
-8524 -8525 0
8523 8525 8524 0
-8524 -1777 0
2512 -8524 0
1777 -2512 8524 0
1777 -8523 0
-8523 -2512 0
2512 -1777 8523 0
-8526 -8528 0
-8527 -8528 0
8526 8528 8527 0
-8527 -1778 0
-8527 2513 0
1778 -2513 8527 0
1778 -8526 0
-8526 -2513 0
2513 -1778 8526 0
-8529 -8531 0
-8530 -8531 0
8529 8531 8530 0
-8530 -1779 0
-8530 2514 0
1779 -2514 8530 0
-8529 1779 0
-8529 -2514 0
2514 -1779 8529 0
-8532 -8534 0
-8533 -8534 0
8532 8534 8533 0
-1780 -8533 0
-8533 2515 0
-2515 1780 8533 0
-8532 1780 0
-2515 -8532 0
-1780 2515 8532 0
-8535 -8537 0
-8536 -8537 0
8537 8536 8535 0
-8536 -1781 0
-8536 2516 0
1781 -2516 8536 0
1781 -8535 0
-8535 -2516 0
2516 -1781 8535 0
-598 -608 8516 0
-8487 8514 8515 0
8508 -8514 0
8513 -8514 0
8505 -8513 0
8512 -8513 0
8502 -8512 0
8511 -8512 0
8499 -8511 0
8510 -8511 0
8496 -8510 0
8491 8493 8492 0
-8492 -1776 0
-2497 -8491 0
8491 2497 -1776 0
8488 8489 8490 0
-8489 2496 0
-8494 -8496 0
8495 8496 8494 0
-8495 -1777 0
2498 -8495 0
-2498 1777 8495 0
1777 -8494 0
-2498 -8494 0
2498 -1777 8494 0
-8497 -8499 0
-8498 -8499 0
8497 8499 8498 0
-8498 -1778 0
2499 -8498 0
-2499 1778 8498 0
1778 -8497 0
-2499 -8497 0
2499 -1778 8497 0
-8500 -8502 0
-8501 -8502 0
8500 8502 8501 0
-8501 -1779 0
2500 -8501 0
1779 -2500 8501 0
-8500 1779 0
-8500 -2500 0
2500 -1779 8500 0
-8503 -8505 0
-8504 -8505 0
8503 8505 8504 0
-1780 -8504 0
-8504 2501 0
-2501 1780 8504 0
-8503 1780 0
-2501 -8503 0
-1780 2501 8503 0
-8506 -8508 0
-8507 -8508 0
8508 8507 8506 0
-8507 -1781 0
-8507 2502 0
1781 -2502 8507 0
1781 -8506 0
-8506 -2502 0
2502 -1781 8506 0
-598 -607 8487 0
-8458 8485 8486 0
8479 -8485 0
8484 -8485 0
8483 -8484 0
8482 -8483 0
8470 -8482 0
8481 -8482 0
8467 -8481 0
-8464 -8462 0
8462 8463 8464 0
-8463 -1776 0
-8463 2483 0
-2483 -8462 0
8462 2483 -1776 0
8459 8460 8461 0
-8460 2482 0
-8465 -8467 0
8466 8467 8465 0
-8466 -1777 0
-8466 2484 0
1777 -8465 0
-2484 -8465 0
2484 -1777 8465 0
-8468 -8470 0
-8469 -8470 0
8468 8470 8469 0
-8469 -1778 0
2485 -8469 0
-2485 1778 8469 0
-2485 -8468 0
2485 -1778 8468 0
-8471 -8473 0
8472 8473 8471 0
-8472 -1779 0
2486 -8472 0
8472 -2486 1779 0
-8471 1779 0
-8471 -2486 0
2486 -1779 8471 0
-8474 -8476 0
8475 8476 8474 0
-1780 -8475 0
-8475 2487 0
8475 -2487 1780 0
-8474 1780 0
-2487 -8474 0
-1780 2487 8474 0
-8477 -8479 0
-8478 -8479 0
8479 8477 8478 0
-8478 -1781 0
2488 -8478 0
1781 -2488 8478 0
1781 -8477 0
-8477 -2488 0
2488 -1781 8477 0
-598 -606 8458 0
-8429 8456 8457 0
8450 -8456 0
8455 -8456 0
8447 -8455 0
8454 -8455 0
8444 -8454 0
8453 -8454 0
8441 -8453 0
8452 -8453 0
8438 -8452 0
8451 -8452 0
8432 -8451 0
8435 -8451 0
-8433 -8435 0
-8434 -8435 0
8435 8433 8434 0
-8434 -1776 0
1776 -2469 8434 0
-1776 2469 8433 0
-8430 -8432 0
-8431 -8432 0
8432 8430 8431 0
-8431 -1775 0
-8431 2468 0
1775 -2468 8431 0
-8430 1775 0
-8430 -2468 0
-1775 2468 8430 0
-8436 -8438 0
-8437 -8438 0
8438 8436 8437 0
-8437 -1777 0
-8437 2470 0
1777 -2470 8437 0
-8436 1777 0
-8436 -2470 0
-1777 2470 8436 0
-8439 -8441 0
-8440 -8441 0
8441 8439 8440 0
-8440 -1778 0
-8440 2471 0
1778 -2471 8440 0
-8439 1778 0
-8439 -2471 0
-1778 2471 8439 0
-8442 -8444 0
-8443 -8444 0
8444 8442 8443 0
-8443 -1779 0
-8443 2472 0
1779 -2472 8443 0
-8442 1779 0
-8442 -2472 0
-1779 2472 8442 0
-8445 -8447 0
-8446 -8447 0
8447 8445 8446 0
-8446 -1780 0
-8446 2473 0
1780 -2473 8446 0
-8445 1780 0
-8445 -2473 0
-1780 2473 8445 0
-8448 -8450 0
-8449 -8450 0
8450 8449 8448 0
-8449 -1781 0
-8449 2474 0
1781 -2474 8449 0
-8448 1781 0
-8448 -2474 0
2474 -1781 8448 0
-598 -605 8429 0
-8400 8427 8428 0
8421 -8427 0
8426 -8427 0
8418 -8426 0
8425 -8426 0
8415 -8425 0
8424 -8425 0
8412 -8424 0
8423 -8424 0
8409 -8423 0
8422 -8423 0
8403 -8422 0
8406 -8422 0
-8404 -8406 0
8405 8406 8404 0
-8405 -1776 0
-8405 2455 0
1776 -8404 0
-8404 -2455 0
2455 -1776 8404 0
-8401 -8403 0
-8402 -8403 0
8401 8403 8402 0
-8402 -1775 0
-8402 2454 0
-2454 1775 8402 0
1775 -8401 0
2454 -1775 8401 0
-8407 -8409 0
-8408 -8409 0
8408 8409 8407 0
-8408 -1777 0
-8408 2456 0
-2456 1777 8408 0
1777 -8407 0
-2456 -8407 0
2456 -1777 8407 0
-8410 -8412 0
-8411 -8412 0
8411 8412 8410 0
-8411 -1778 0
-8411 2457 0
1778 -2457 8411 0
1778 -8410 0
-8410 -2457 0
2457 -1778 8410 0
-8413 -8415 0
-8414 -8415 0
8414 8415 8413 0
-8414 -1779 0
-8414 2458 0
1779 -2458 8414 0
-8413 1779 0
-8413 -2458 0
2458 -1779 8413 0
-8416 -8418 0
-8417 -8418 0
8417 8418 8416 0
-8417 -1780 0
-8417 2459 0
-2459 1780 8417 0
-8416 1780 0
-2459 -8416 0
-1780 2459 8416 0
-8419 -8421 0
8421 8420 8419 0
-8420 -1781 0
-8420 2460 0
1781 -8419 0
-8419 -2460 0
2460 -1781 8419 0
-598 -604 8400 0
8398 -8371 8399 0
8392 -8398 0
8397 -8398 0
8389 -8397 0
8396 -8397 0
8386 -8396 0
8395 -8396 0
8383 -8395 0
8394 -8395 0
8380 -8394 0
8393 -8394 0
8374 -8393 0
-8372 -8374 0
-1775 2440 8372 0
-8378 -8380 0
2442 -1777 8378 0
-8381 -8383 0
-8382 -8383 0
1778 -2443 8382 0
-1778 2443 8381 0
-8384 -8386 0
2444 -1779 8384 0
-8387 -8389 0
-8388 -8389 0
-2445 1780 8388 0
-1780 2445 8387 0
-8390 -8392 0
2446 -1781 8390 0
8371 -598 -603 0
-8342 8369 8370 0
8363 -8369 0
8368 -8369 0
8360 -8368 0
8367 -8368 0
8357 -8367 0
8366 -8367 0
8354 -8366 0
8365 -8366 0
8351 -8365 0
8364 -8365 0
8345 -8364 0
8348 -8364 0
-8346 -8348 0
8347 8348 8346 0
-8347 2329 0
-8346 1776 0
2329 -1776 8346 0
-8343 -8345 0
8344 8345 8343 0
-8344 -1775 0
-8344 2328 0
1775 -2328 8344 0
-8343 1775 0
-8343 -2328 0
2328 -1775 8343 0
-8349 -8351 0
-8350 -8351 0
8349 8351 8350 0
-8350 -1777 0
1777 -2330 8350 0
-8349 1777 0
-8349 -2330 0
2330 -1777 8349 0
-8352 -8354 0
-8353 -8354 0
8352 8354 8353 0
-8353 -1778 0
1778 -2331 8353 0
-8352 1778 0
-8352 -2331 0
-1778 2331 8352 0
-8355 -8357 0
-8356 -8357 0
8355 8357 8356 0
-8356 -1779 0
-8356 2332 0
1779 -2332 8356 0
-8355 1779 0
-8355 -2332 0
2332 -1779 8355 0
-8358 -8360 0
-8359 -8360 0
8358 8360 8359 0
-8359 -1780 0
-8359 2333 0
-2333 1780 8359 0
-8358 1780 0
-8358 -2333 0
-1780 2333 8358 0
-8361 -8363 0
-8362 -8363 0
8361 8363 8362 0
-8362 2334 0
1781 -2334 8362 0
-8361 1781 0
2334 -1781 8361 0
-598 -602 8342 0
8340 -8313 8341 0
8334 -8340 0
8339 -8340 0
8331 -8339 0
8338 -8339 0
8328 -8338 0
8337 -8338 0
8325 -8337 0
8336 -8337 0
8322 -8336 0
8335 -8336 0
8316 -8335 0
8319 -8335 0
-8320 -8322 0
-8321 -8322 0
8321 8322 8320 0
1777 -2218 8321 0
-8320 1777 0
2218 -1777 8320 0
-8323 -8325 0
-8324 -8325 0
8323 8325 8324 0
-8324 -1778 0
-8324 2219 0
1778 -2219 8324 0
-8323 1778 0
-8323 -2219 0
-1778 2219 8323 0
-8327 -8328 0
8326 8328 8327 0
-8327 -1779 0
-8327 2220 0
1779 -2220 8327 0
-8326 1779 0
-8326 -2220 0
-8329 -8331 0
-8330 -8331 0
8329 8331 8330 0
-1780 -8330 0
-8330 2221 0
1780 -2221 8330 0
-8329 1780 0
-8329 -2221 0
-1780 2221 8329 0
-8332 -8334 0
-8333 -8334 0
8334 8332 8333 0
-8333 -1781 0
-8333 2222 0
1781 -2222 8333 0
-8332 1781 0
-8332 -2222 0
2222 -1781 8332 0
8313 -598 -601 0
-8284 8311 8312 0
8305 -8311 0
8310 -8311 0
8302 -8310 0
8309 -8310 0
8299 -8309 0
8308 -8309 0
8296 -8308 0
8307 -8308 0
8293 -8307 0
8306 -8307 0
8287 -8306 0
8290 -8306 0
-8289 -8290 0
8290 8289 8288 0
-8289 -1776 0
1776 -2105 8289 0
-8288 1776 0
-8288 -2105 0
8287 8285 8286 0
-1775 -8286 0
-8286 2104 0
1775 -2104 8286 0
-8285 1775 0
-8285 -2104 0
8293 8291 8292 0
-8292 -1777 0
-8292 2106 0
1777 -2106 8292 0
-8291 1777 0
-8291 -2106 0
8296 8294 8295 0
-8295 -1778 0
-8295 2107 0
1778 -2107 8295 0
-8294 1778 0
-8294 -2107 0
-8297 -8299 0
-8298 -8299 0
8299 8297 8298 0
-8298 -1779 0
-8298 2108 0
1779 -2108 8298 0
-8297 1779 0
-8297 -2108 0
-1779 2108 8297 0
-8300 -8302 0
8302 8300 8301 0
-1780 -8301 0
-8301 2109 0
1780 -2109 8301 0
-8300 1780 0
-8300 -2109 0
-1780 2109 8300 0
-8303 -8305 0
-8304 -8305 0
8305 8304 8303 0
-8304 -1781 0
-8304 2110 0
1781 -2110 8304 0
-8303 1781 0
-8303 -2110 0
2110 -1781 8303 0
-598 -600 8284 0
8282 -8255 8283 0
8276 -8282 0
8281 -8282 0
8273 -8281 0
8280 -8281 0
8270 -8280 0
8279 -8280 0
8267 -8279 0
8278 -8279 0
8264 -8278 0
8277 -8278 0
8258 -8277 0
8261 -8277 0
-8260 -8261 0
8259 8261 8260 0
-8260 -1776 0
1902 -8260 0
1776 -1902 8260 0
-8259 1776 0
-8259 -1902 0
8256 8257 8258 0
-1775 -8257 0
-8257 1901 0
-1901 8257 1775 0
-8256 1775 0
-8256 -1901 0
8262 8263 8264 0
-8263 -1777 0
1903 -8263 0
8263 1777 -1903 0
-8262 1777 0
-8262 -1903 0
-8266 -8267 0
8265 8267 8266 0
-8266 -1778 0
1904 -8266 0
-1904 1778 8266 0
-8265 1778 0
-8265 -1904 0
-8268 -8270 0
-8269 -8270 0
8268 8270 8269 0
-8269 -1779 0
-8269 1905 0
1779 -1905 8269 0
-8268 1779 0
-8268 -1905 0
-1779 1905 8268 0
-8271 -8273 0
-8272 -8273 0
8271 8273 8272 0
-1780 -8272 0
-8272 1906 0
-1906 1780 8272 0
-8271 1780 0
-8271 -1906 0
-1780 1906 8271 0
-8274 -8276 0
-8275 -8276 0
8276 8274 8275 0
-8275 -1781 0
-8275 1907 0
1781 -1907 8275 0
-8274 1781 0
-8274 -1907 0
1907 -1781 8274 0
8255 -598 -599 0
-516 8253 8254 0
8247 -8253 0
8252 -8253 0
8244 -8252 0
8251 -8252 0
8241 -8251 0
8250 -8251 0
8238 -8250 0
8249 -8250 0
8235 -8249 0
8248 -8249 0
8229 -8248 0
8232 -8248 0
-8230 -8232 0
8231 8232 8230 0
-8231 -2595 0
-8231 2609 0
2595 -8230 0
-8230 -2609 0
2609 -2595 8230 0
8228 8227 8229 0
-8228 -2594 0
-8228 2608 0
-8233 -8235 0
8234 8235 8233 0
-8234 -2596 0
-8234 2610 0
2596 -8233 0
-8233 -2610 0
2610 -2596 8233 0
-8236 -8238 0
8237 8238 8236 0
-8237 -2597 0
-8237 2611 0
2597 -8236 0
-8236 -2611 0
2611 -2597 8236 0
-8239 -8241 0
-8240 -8241 0
8240 8241 8239 0
-8240 -2598 0
-8240 2612 0
2598 -2612 8240 0
-8239 2598 0
-8239 -2612 0
2612 -2598 8239 0
-8242 -8244 0
-8243 -8244 0
8243 8244 8242 0
-8243 -2599 0
-8243 2613 0
-2613 2599 8243 0
-8242 2599 0
-2613 -8242 0
-2599 2613 8242 0
-8246 -8247 0
8247 8246 8245 0
-8246 -2600 0
-8246 2614 0
2600 8246 -2614 0
2600 -8245 0
2614 -2600 8245 0
8225 -8198 8226 0
-8225 8219 0
-8225 8224 0
-8224 8216 0
-8224 8223 0
-8223 8213 0
-8223 8222 0
-8222 8210 0
-8222 8221 0
-8221 8207 0
-8221 8220 0
-8220 8201 0
-8220 8204 0
-8204 -8202 0
8203 8202 8204 0
-8203 -2581 0
-8203 2609 0
2581 -8202 0
-8202 -2609 0
8202 2609 -2581 0
8200 8199 8201 0
-8200 -2580 0
-8200 2608 0
-8207 -8205 0
8206 8205 8207 0
-8206 -2582 0
-8206 2610 0
2582 -8205 0
-8205 -2610 0
8205 2610 -2582 0
-8210 -8208 0
-8209 -8210 0
8209 8208 8210 0
-8209 -2583 0
-8209 2611 0
8209 -2611 2583 0
2583 -8208 0
-8208 -2611 0
2611 8208 -2583 0
-8213 -8211 0
-8212 -8213 0
8212 8211 8213 0
-8212 -2584 0
-8212 2612 0
8212 2584 -2612 0
-8211 2584 0
-8211 -2612 0
2612 8211 -2584 0
-8216 -8214 0
-8215 -8216 0
8215 8214 8216 0
-8215 -2585 0
-8215 2613 0
-2613 8215 2585 0
-8214 2585 0
-2613 -8214 0
8214 -2585 2613 0
8219 8218 8217 0
-8218 -2586 0
-8218 2614 0
2586 -8217 0
-8217 -2614 0
2614 -2586 8217 0
8198 -497 -495 0
8196 -8169 8197 0
-8196 8190 0
-8196 8195 0
-8195 8187 0
-8195 8194 0
-8194 8184 0
-8194 8193 0
-8193 8181 0
-8193 8192 0
-8192 8178 0
-8192 8191 0
-8191 8172 0
-8191 8175 0
-8175 -8173 0
8174 8173 8175 0
-8174 -2581 0
-8174 2595 0
2581 -8173 0
-8173 -2595 0
2595 8173 -2581 0
8171 8170 8172 0
-8171 -2580 0
-8171 2594 0
-8178 -8176 0
8177 8176 8178 0
-8177 -2582 0
-8177 2596 0
2582 -8176 0
-8176 -2596 0
2596 8176 -2582 0
8180 8179 8181 0
-8180 -2583 0
-8180 2597 0
2583 -8179 0
-8179 -2597 0
8179 2597 -2583 0
-8184 -8182 0
-8183 -8184 0
8183 8182 8184 0
-8183 -2584 0
-8183 2598 0
8183 2584 -2598 0
-8182 2584 0
-8182 -2598 0
8182 2598 -2584 0
-8187 -8185 0
-8186 -8187 0
8186 8185 8187 0
-8186 -2585 0
-8186 2599 0
8186 -2599 2585 0
-8185 2585 0
-2599 -8185 0
8185 -2585 2599 0
-8190 -8188 0
8190 8189 8188 0
-8189 -2586 0
-8189 2600 0
2586 -8188 0
2600 -2586 8188 0
8169 -496 -495 0
8167 -8140 8168 0
-8167 8161 0
-8167 8166 0
-8166 8158 0
-8166 8165 0
-8165 8155 0
-8165 8164 0
-8164 8152 0
-8164 8163 0
-8163 8149 0
-8163 8162 0
-8162 8143 0
-8162 8146 0
-8146 -8144 0
8145 8144 8146 0
-8145 -2567 0
-8145 2609 0
2567 -8144 0
-8144 -2609 0
8144 2609 -2567 0
8142 8141 8143 0
-8142 -2566 0
-8149 -8147 0
8148 8147 8149 0
-8148 -2568 0
-8148 2610 0
2568 -8147 0
-8147 -2610 0
8147 2610 -2568 0
-8152 -8150 0
8151 8150 8152 0
-8151 -2569 0
-8151 2611 0
2569 -8150 0
-8150 -2611 0
8150 2611 -2569 0
-8155 -8153 0
-8154 -8155 0
8154 8153 8155 0
-8154 -2570 0
-8154 2612 0
8154 2570 -2612 0
-8153 2570 0
-8153 -2612 0
2612 8153 -2570 0
-8158 -8156 0
-8157 -8158 0
8157 8156 8158 0
-8157 -2571 0
-8157 2613 0
-2613 8157 2571 0
-8156 2571 0
-2613 -8156 0
8156 -2571 2613 0
8161 8160 8159 0
-8160 -2572 0
-8160 2614 0
2572 -8159 0
-8159 -2614 0
2614 -2572 8159 0
8140 -494 -497 0
8138 -8111 8139 0
-8138 8132 0
-8138 8137 0
-8137 8129 0
-8137 8136 0
-8136 8126 0
-8136 8135 0
-8135 8123 0
-8135 8134 0
-8134 8120 0
-8134 8133 0
-8133 8114 0
-8133 8117 0
-8117 -8115 0
8116 8115 8117 0
-8116 -2567 0
-8116 2595 0
2567 -8115 0
-8115 -2595 0
2595 8115 -2567 0
8113 8112 8114 0
-8113 -2566 0
-8113 2594 0
8119 8118 8120 0
-8119 -2568 0
-8119 2596 0
2568 -8118 0
-8118 -2596 0
2596 8118 -2568 0
-8123 -8121 0
8122 8121 8123 0
-8122 -2569 0
-8122 2597 0
2569 -8121 0
-8121 -2597 0
8121 2597 -2569 0
-8126 -8124 0
8125 8124 8126 0
-8125 -2570 0
-8125 2598 0
-8124 2570 0
-8124 -2598 0
2598 8124 -2570 0
-8129 -8127 0
8128 8127 8129 0
-8128 -2571 0
-8128 2599 0
-8127 2571 0
-2599 -8127 0
8127 -2571 2599 0
-8132 -8130 0
-8131 -8132 0
8132 8131 8130 0
-8131 -2572 0
-8131 2600 0
8131 2572 -2600 0
2572 -8130 0
2600 -2572 8130 0
8111 -494 -496 0
8109 -8082 8110 0
-8109 8103 0
-8109 8108 0
-8108 8100 0
-8108 8107 0
-8107 8097 0
-8107 8106 0
-8106 8094 0
-8106 8105 0
-8105 8091 0
-8105 8104 0
-8104 8085 0
-8104 8088 0
8087 8086 8088 0
-8087 -2567 0
-8087 2581 0
2567 -8086 0
-8086 -2581 0
2581 8086 -2567 0
8084 8083 8085 0
-8084 -2566 0
-8084 2580 0
-8091 -8089 0
8090 8089 8091 0
-8090 -2568 0
-8090 2582 0
2568 -8089 0
-8089 -2582 0
2582 8089 -2568 0
-8094 -8092 0
8093 8092 8094 0
-8093 -2569 0
-8093 2583 0
2569 -8092 0
-8092 -2583 0
8092 2583 -2569 0
-8097 -8095 0
-8096 -8097 0
8096 8095 8097 0
-8096 -2570 0
-8096 2584 0
2570 8096 -2584 0
-8095 2570 0
-8095 -2584 0
8095 2584 -2570 0
-8100 -8098 0
-8099 -8100 0
8099 8098 8100 0
-8099 -2571 0
-8099 2585 0
8099 -2585 2571 0
-8098 2571 0
-2585 -8098 0
8098 -2571 2585 0
-8103 -8101 0
-8102 -8103 0
8103 8102 8101 0
-8102 -2572 0
-8102 2586 0
8102 2572 -2586 0
2572 -8101 0
2586 -2572 8101 0
8082 -494 -495 0
-896 8080 8081 0
8074 -8080 0
8079 -8080 0
8071 -8079 0
8078 -8079 0
8077 -8078 0
8065 -8077 0
-8062 -8060 0
8062 8060 8061 0
-8061 2610 0
2610 8060 -2554 0
-8063 -8065 0
-8064 -8065 0
8065 8064 8063 0
-8064 2611 0
-2611 2555 8064 0
-8063 2555 0
2611 -2555 8063 0
8068 8067 8066 0
-8067 -2556 0
-8067 2612 0
-8066 2556 0
-8066 -2612 0
2612 -2556 8066 0
-8069 -8071 0
-8070 -8071 0
8071 8070 8069 0
-8070 -2557 0
-8070 2613 0
-2613 2557 8070 0
-8069 2557 0
-8069 -2613 0
2613 -2557 8069 0
-8072 -8074 0
-8073 -8074 0
8074 8073 8072 0
-8073 -2558 0
-8073 2614 0
2558 -2614 8073 0
-8072 2558 0
-8072 -2614 0
2614 -2558 8072 0
-830 8052 8053 0
8046 -8052 0
8051 -8052 0
8043 -8051 0
8050 -8051 0
8049 -8050 0
8037 -8049 0
-8035 -8037 0
-8036 -8037 0
-2597 2555 8036 0
2597 -2555 8035 0
8039 8040 8038 0
-8039 2598 0
-8038 2556 0
-8041 -8043 0
8043 8042 8041 0
-8042 -2557 0
-8042 2599 0
-8041 2557 0
-8041 -2599 0
2599 -2557 8041 0
-8044 -8046 0
-8045 -8046 0
8046 8045 8044 0
-8045 -2558 0
-8045 2600 0
2558 -2600 8045 0
-8044 2558 0
2600 -2558 8044 0
-827 8024 8025 0
8018 -8024 0
8023 -8024 0
8015 -8023 0
8022 -8023 0
8021 -8022 0
8009 -8021 0
8006 8005 8004 0
-8005 2582 0
-8004 2554 0
-8007 -8009 0
-8008 -8009 0
8009 8007 8008 0
-8008 -2555 0
-8008 2583 0
-2583 2555 8008 0
-8007 -2583 0
2583 -2555 8007 0
-8010 -8012 0
8012 8011 8010 0
-8011 -2556 0
-8011 2584 0
-8010 2556 0
2584 -2556 8010 0
-8013 -8015 0
8015 8014 8013 0
-8014 -2557 0
-8014 2585 0
-8013 2557 0
-8013 -2585 0
2585 -2557 8013 0
-8016 -8018 0
-8017 -8018 0
8018 8017 8016 0
-8017 -2558 0
-8017 2586 0
2558 -2586 8017 0
-8016 2558 0
2586 -2558 8016 0
-824 7996 7997 0
7990 -7996 0
7995 -7996 0
-7990 7996 -7995 0
7987 -7995 0
7994 -7995 0
7995 -7994 -7987 0
7984 -7994 0
7993 -7994 0
-7993 7994 -7984 0
7981 -7993 0
7992 -7993 0
7993 -7992 -7981 0
7978 -7992 0
7991 -7992 0
-7991 7992 -7978 0
7975 -7991 0
-7972 7991 -7975 0
-7973 -7975 0
7975 7974 7973 0
-7974 -2553 0
-7974 2567 0
-7973 2553 0
-7973 -2567 0
2567 -2553 7973 0
7972 7971 7970 0
-7971 -2552 0
-7971 2566 0
-7970 2552 0
-7970 -2566 0
2566 -2552 7970 0
-7976 -7978 0
7978 7976 7977 0
-7977 -2554 0
-7977 2568 0
-7976 -2568 0
2568 -2554 7976 0
-7979 -7981 0
-7980 -7981 0
7981 7980 7979 0
-7980 -2555 0
-7980 2569 0
-2569 2555 7980 0
-7979 2555 0
-7979 -2569 0
2569 -2555 7979 0
-7982 -7984 0
7984 7983 7982 0
-7983 -2556 0
-7983 2570 0
-7982 2556 0
-7982 -2570 0
2570 -2556 7982 0
-7985 -7987 0
-7986 -7987 0
7987 7986 7985 0
-7986 -2557 0
-7986 2571 0
-2571 2557 7986 0
-7985 2557 0
2571 -2557 7985 0
-7988 -7990 0
7990 7989 7988 0
-7989 -2558 0
-7989 2572 0
-7988 2558 0
2572 -2558 7988 0
-729 7968 7969 0
7962 -7968 0
7967 -7968 0
7959 -7967 0
7966 -7967 0
7956 -7966 0
7965 -7966 0
7953 -7965 0
7964 -7965 0
7950 -7964 0
7963 -7964 0
7944 -7963 0
7947 -7963 0
-7943 -7944 0
7942 7944 7943 0
-7943 -2538 0
-7943 2608 0
-2608 2538 7943 0
-7942 2538 0
2608 -2538 7942 0
-7949 -7950 0
-2610 2540 7949 0
-7952 -7953 0
-2611 2541 7952 0
-7954 -7956 0
7955 7956 7954 0
-7955 -2542 0
2612 -2542 7954 0
7958 7959 7957 0
-7958 -2543 0
-7958 2613 0
-7957 2543 0
-7957 -2613 0
-7960 -7962 0
-7961 -7962 0
7962 7961 7960 0
-7961 -2544 0
-7961 2614 0
2544 -2614 7961 0
-7960 2544 0
-7960 -2614 0
2614 -2544 7960 0
-726 7940 7941 0
7934 -7940 0
7939 -7940 0
7931 -7939 0
7938 -7939 0
7928 -7938 0
7937 -7938 0
7925 -7937 0
7936 -7937 0
7922 -7936 0
7935 -7936 0
7916 -7935 0
7919 -7935 0
-7917 -7919 0
2595 -2539 7917 0
-7915 -7916 0
7914 7916 7915 0
-7915 -2538 0
-7915 2594 0
-2594 2538 7915 0
-7914 2538 0
2594 -2538 7914 0
-7920 -7922 0
-7921 -7922 0
7921 7922 7920 0
-7921 -2540 0
2540 -2596 7921 0
2596 -2540 7920 0
-7924 -7925 0
7923 7925 7924 0
-7924 -2541 0
2541 -2597 7924 0
-7923 -2597 0
2597 -2541 7923 0
-7926 -7928 0
7927 7928 7926 0
-7927 -2542 0
-7927 2598 0
-7926 2542 0
-7926 -2598 0
2598 -2542 7926 0
-7930 -7931 0
7929 7931 7930 0
-7930 -2543 0
-7930 2599 0
-2599 2543 7930 0
-7929 2543 0
-7929 -2599 0
-7932 -7934 0
-7933 -7934 0
7934 7933 7932 0
-7933 -2544 0
-7933 2600 0
2544 -2600 7933 0
-7932 2544 0
2600 -2544 7932 0
-723 7912 7913 0
7906 -7912 0
7911 -7912 0
7903 -7911 0
7910 -7911 0
7900 -7910 0
7909 -7910 0
7897 -7909 0
7908 -7909 0
7894 -7908 0
7907 -7908 0
7888 -7907 0
7891 -7907 0
7889 2581 -2539 0
-7887 -7888 0
7886 7888 7887 0
-7887 -2538 0
-7887 2580 0
-2580 2538 7887 0
-7886 2538 0
2580 7886 -2538 0
-7892 -7894 0
-7893 -7894 0
7893 7894 7892 0
-7893 2582 0
2540 -2582 7893 0
-7892 2540 0
2582 -2540 7892 0
-7896 -7897 0
7895 7897 7896 0
-7896 -2541 0
-7896 2583 0
2541 -2583 7896 0
-7895 2541 0
-7895 -2583 0
7899 7898 7900 0
-7899 -2542 0
-7899 2584 0
-7898 2542 0
-7898 -2584 0
7898 2584 -2542 0
-7901 -7903 0
7902 7903 7901 0
-7902 -2543 0
-7902 2585 0
-7901 2543 0
-7901 -2585 0
2585 -2543 7901 0
-7904 -7906 0
-7905 -7906 0
7906 7905 7904 0
-7905 -2544 0
-7905 2586 0
2544 -2586 7905 0
-7904 2544 0
-7904 -2586 0
2586 -2544 7904 0
-720 7884 7885 0
7878 -7884 0
7883 -7884 0
7875 -7883 0
7882 -7883 0
7872 -7882 0
7881 -7882 0
7869 -7881 0
7880 -7881 0
7866 -7880 0
7879 -7880 0
7860 -7879 0
7863 -7879 0
7862 7861 7863 0
-7862 2567 0
-7861 2539 0
-7859 -7860 0
7858 7860 7859 0
-7859 -2538 0
-7859 2566 0
-2566 2538 7859 0
-7858 2538 0
-7865 -7866 0
7864 7866 7865 0
-7865 2568 0
2540 -2568 7865 0
-7864 2540 0
7864 2568 -2540 0
-7867 -7869 0
-7868 -7869 0
7868 7869 7867 0
-7868 -2541 0
-7868 2569 0
2541 -2569 7868 0
-7867 2541 0
-7867 -2569 0
2569 -2541 7867 0
-7870 -7872 0
-7871 -7872 0
7871 7872 7870 0
-7871 -2542 0
-7871 2570 0
2542 -2570 7871 0
-7870 2542 0
-7870 -2570 0
2570 -2542 7870 0
-7873 -7875 0
7874 7875 7873 0
-7874 -2543 0
-7874 2571 0
-7873 2543 0
-7873 -2571 0
2571 -2543 7873 0
-7876 -7878 0
-7877 -7878 0
7878 7877 7876 0
-7877 -2544 0
-7877 2572 0
2544 -2572 7877 0
-7876 2544 0
-7876 -2572 0
2572 -2544 7876 0
-589 7856 7857 0
7850 -7856 0
7855 -7856 0
7847 -7855 0
7854 -7855 0
7844 -7854 0
7853 -7854 0
7841 -7853 0
7852 -7853 0
7838 -7852 0
7851 -7852 0
7832 -7851 0
7835 -7851 0
-7833 -7835 0
7835 7834 7833 0
-7834 -2539 0
-7833 -2553 0
-2539 2553 7833 0
7832 7831 7830 0
-7831 -2538 0
-7830 -2552 0
-2538 7830 2552 0
7838 7837 7836 0
-7837 -2540 0
-7836 -2554 0
-2540 7836 2554 0
-7839 -7841 0
-7840 -7841 0
7841 7839 7840 0
-7840 -2541 0
-7840 2555 0
2541 -2555 7840 0
-7839 2541 0
-2541 2555 7839 0
-7843 -7844 0
7844 7842 7843 0
-7843 -2542 0
-7843 2556 0
2542 -2556 7843 0
-7842 2542 0
-7842 -2556 0
-2542 2556 7842 0
-7845 -7847 0
7847 7845 7846 0
-7846 -2543 0
-7846 2557 0
-7845 2543 0
-7845 -2557 0
-2543 2557 7845 0
-7848 -7850 0
-7849 -7850 0
7850 7849 7848 0
-7849 -2544 0
-7849 2558 0
2544 -2558 7849 0
-7848 2544 0
-7848 -2558 0
2558 -2544 7848 0
7828 -7801 7829 0
7822 -7828 0
7827 -7828 0
7819 -7827 0
7826 -7827 0
7825 -7826 0
7824 -7825 0
7810 -7824 0
7823 -7824 0
7807 -7823 0
-7806 -7807 0
2441 -2609 7806 0
-7809 -7810 0
-2610 2442 7809 0
-7817 -7819 0
2613 -2445 7817 0
-7820 -7822 0
-7821 -7822 0
2446 -2614 7821 0
2614 -2446 7820 0
7801 -491 -497 0
7799 -7772 7800 0
7793 -7799 0
7798 -7799 0
7790 -7798 0
7797 -7798 0
7796 -7797 0
7795 -7796 0
7781 -7795 0
-7780 -7781 0
2442 -2596 7780 0
-7788 -7790 0
2599 -2445 7788 0
-7791 -7793 0
-7792 -7793 0
2446 -2600 7792 0
2600 -2446 7791 0
7772 -491 -496 0
7770 -7743 7771 0
7764 -7770 0
7769 -7770 0
7761 -7769 0
-7759 -7761 0
2585 -2445 7759 0
-7762 -7764 0
-7763 -7764 0
2446 -2586 7763 0
2586 -2446 7762 0
7743 -491 -495 0
7741 -7714 7742 0
7735 -7741 0
7740 -7741 0
7732 -7740 0
-7730 -7732 0
2571 -2445 7730 0
-7733 -7735 0
-7734 -7735 0
2446 -2572 7734 0
2572 -2446 7733 0
7714 -491 -494 0
7712 -7685 7713 0
7706 -7712 0
7711 -7712 0
7703 -7711 0
7710 -7711 0
7700 -7710 0
7709 -7710 0
7697 -7709 0
7708 -7709 0
7694 -7708 0
-7692 -7694 0
-7693 -7694 0
2442 -2554 7693 0
-2442 2554 7692 0
-7695 -7697 0
-7696 -7697 0
2443 -2555 7696 0
-2443 2555 7695 0
-7698 -7700 0
-7699 -7700 0
2444 -2556 7699 0
-2444 2556 7698 0
-7702 -7703 0
2445 -2557 7702 0
-7704 -7706 0
-7705 -7706 0
2446 -2558 7705 0
2558 -2446 7704 0
7685 -493 -491 0
7683 -7656 7684 0
-7683 7677 0
-7683 7682 0
-7682 7674 0
-7682 7681 0
-7681 7671 0
-7681 7680 0
-7680 7668 0
-7680 7679 0
-7679 7665 0
-7679 7678 0
-7678 7659 0
-7678 7662 0
-7662 -7660 0
7660 -2441 2539 0
-7659 -7657 0
7657 -2440 2538 0
-7665 -7663 0
-7665 -7664 0
7664 2442 -2540 0
7663 -2442 2540 0
-7668 -7666 0
-7668 -7667 0
7667 2443 -2541 0
7666 -2443 2541 0
-7671 -7669 0
-7671 -7670 0
7670 2444 -2542 0
7669 2542 -2444 0
-7674 -7672 0
-7674 -7673 0
7673 -2543 2445 0
7672 2543 -2445 0
-7677 -7675 0
-7677 -7676 0
7676 2446 -2544 0
7675 2544 -2446 0
7656 -492 -491 0
-1111 7654 7655 0
7648 -7654 0
7653 -7654 0
7645 -7653 0
7652 -7653 0
7642 -7652 0
7651 -7652 0
7639 -7651 0
7650 -7651 0
7636 -7650 0
-7634 -7636 0
2610 -2344 7634 0
-7637 -7639 0
-7638 -7639 0
7637 7639 7638 0
-2611 2345 7638 0
-7637 2345 0
-2345 2611 7637 0
-7640 -7642 0
-7641 -7642 0
7641 7642 7640 0
-7641 2612 0
2346 -2612 7641 0
-7640 2346 0
2612 -2346 7640 0
-7643 -7645 0
-7644 -7645 0
7644 7645 7643 0
-7644 2613 0
-2613 2347 7644 0
-7643 2347 0
-7643 -2613 0
2613 -2347 7643 0
-7646 -7648 0
-7647 -7648 0
7648 7647 7646 0
-7647 -2348 0
2614 -7647 0
2348 -2614 7647 0
-7646 2348 0
-7646 -2614 0
2614 -2348 7646 0
-1108 7626 7627 0
7620 -7626 0
7625 -7626 0
7617 -7625 0
7624 -7625 0
7614 -7624 0
7623 -7624 0
7611 -7623 0
7622 -7623 0
7608 -7622 0
-7606 -7608 0
2596 -2344 7606 0
-7609 -7611 0
-7610 -7611 0
-2597 2345 7610 0
2597 -2345 7609 0
-7612 -7614 0
-7613 -7614 0
7612 7614 7613 0
-7613 2598 0
2346 -2598 7613 0
-7612 2346 0
2598 -2346 7612 0
-7615 -7617 0
7616 7617 7615 0
-7616 2599 0
7616 -2599 2347 0
-7615 2347 0
2599 -2347 7615 0
-7618 -7620 0
-7619 -7620 0
7620 7619 7618 0
-7619 -2348 0
2600 -7619 0
2348 -2600 7619 0
-7618 2348 0
-7618 -2600 0
2600 -2348 7618 0
-1105 7598 7599 0
7592 -7598 0
7597 -7598 0
7589 -7597 0
7596 -7597 0
7586 -7596 0
7595 -7596 0
7583 -7595 0
-7580 -7579 0
7578 7579 7580 0
7579 2344 -2582 0
-7578 2344 0
-7581 -7583 0
7582 7583 7581 0
-2583 2345 7582 0
-7581 2345 0
-2345 2583 7581 0
-7584 -7586 0
-7585 -7586 0
7584 7586 7585 0
-7585 2584 0
2346 -2584 7585 0
-7584 2346 0
2584 -2346 7584 0
-7587 -7589 0
-7588 -7589 0
7587 7589 7588 0
-7588 2585 0
-2585 2347 7588 0
-7587 2347 0
-7587 -2585 0
2585 -2347 7587 0
-7590 -7592 0
-7591 -7592 0
7592 7591 7590 0
-7591 -2348 0
2586 -7591 0
2348 -2586 7591 0
-7590 2348 0
-7590 -2586 0
2586 -2348 7590 0
-1102 7570 7571 0
7564 -7570 0
7569 -7570 0
7561 -7569 0
7568 -7569 0
7558 -7568 0
7567 -7568 0
7555 -7567 0
7566 -7567 0
7552 -7566 0
-7550 -7552 0
-2344 2568 7550 0
-7553 -7555 0
2569 -2345 7553 0
-7556 -7558 0
-7557 -7558 0
2346 -2570 7557 0
2570 -2346 7556 0
-7559 -7561 0
-7560 -7561 0
7559 7561 7560 0
-2571 2347 7560 0
-7559 2347 0
2571 -2347 7559 0
-7562 -7564 0
-7563 -7564 0
7563 7564 7562 0
2572 -7563 0
2348 -2572 7563 0
-7562 2348 0
-7562 -2572 0
2572 -2348 7562 0
-1099 7542 7543 0
7536 -7542 0
7541 -7542 0
7533 -7541 0
7540 -7541 0
7530 -7540 0
7539 -7540 0
7527 -7539 0
7538 -7539 0
7524 -7538 0
7537 -7538 0
7518 -7537 0
7521 -7537 0
-7520 -7521 0
2343 -2553 7520 0
-7522 -7524 0
-7523 -7524 0
7524 7522 7523 0
-2344 -7523 0
-7523 2554 0
2344 -2554 7523 0
-7522 2344 0
-7522 -2554 0
-2344 2554 7522 0
-7525 -7527 0
-7526 -7527 0
7527 7525 7526 0
-2345 -7526 0
-7526 2555 0
2345 -2555 7526 0
-7525 2345 0
-7525 -2555 0
-2345 2555 7525 0
-7528 -7530 0
-7529 -7530 0
7530 7528 7529 0
-7529 -2346 0
-7529 2556 0
2346 -2556 7529 0
-7528 2346 0
-7528 -2556 0
-2346 2556 7528 0
-7531 -7533 0
-7532 -7533 0
7533 7531 7532 0
-7532 -2347 0
-7532 2557 0
2347 -2557 7532 0
-7531 2347 0
-7531 -2557 0
-2347 2557 7531 0
-7534 -7536 0
-7535 -7536 0
7536 7535 7534 0
-7535 -2348 0
-7535 2558 0
2348 -2558 7535 0
-7534 2348 0
-7534 -2558 0
2558 -2348 7534 0
-1096 7514 7515 0
7508 -7514 0
7513 -7514 0
7505 -7513 0
7512 -7513 0
7502 -7512 0
7511 -7512 0
7499 -7511 0
7510 -7511 0
7496 -7510 0
7509 -7510 0
7493 -7509 0
-7491 -7493 0
-2343 2539 7491 0
-7494 -7496 0
-2344 2540 7494 0
-7497 -7499 0
-7498 -7499 0
2345 -2541 7498 0
-2345 2541 7497 0
-7500 -7502 0
-7501 -7502 0
7501 7502 7500 0
-7501 2542 0
2346 -2542 7501 0
-7500 2346 0
-2346 2542 7500 0
-7503 -7505 0
-7504 -7505 0
7503 7505 7504 0
-7504 2543 0
-2543 2347 7504 0
-7503 2347 0
-7503 -2543 0
2543 -2347 7503 0
-7506 -7508 0
-7507 -7508 0
7507 7508 7506 0
-7507 2544 0
2348 -2544 7507 0
-7506 2348 0
2544 -2348 7506 0
-715 7486 7487 0
7480 -7486 0
7485 -7486 0
7477 -7485 0
7484 -7485 0
7474 -7484 0
7483 -7484 0
7471 -7483 0
7482 -7483 0
7468 -7482 0
7481 -7482 0
7465 -7481 0
-7463 -7465 0
-2343 2441 7463 0
-7466 -7468 0
-7467 -7468 0
7466 7468 7467 0
2344 -2442 7467 0
-7466 -2442 0
-2344 2442 7466 0
-7469 -7471 0
-7470 -7471 0
7469 7471 7470 0
-7470 -2345 0
2345 -2443 7470 0
-7469 2345 0
-7469 -2443 0
-2345 2443 7469 0
-7472 -7474 0
-7473 -7474 0
7472 7474 7473 0
-7473 -2346 0
2346 -2444 7473 0
-7472 2346 0
-7472 -2444 0
-2346 2444 7472 0
-7476 -7477 0
7475 7477 7476 0
-7476 -2347 0
-7476 2445 0
-2445 2347 7476 0
-7475 2347 0
-7475 -2445 0
-7478 -7480 0
-7479 -7480 0
7478 7480 7479 0
-7479 2446 0
2348 -2446 7479 0
-7478 2348 0
2446 -2348 7478 0
7458 -1093 7459 0
7452 -7458 0
7457 -7458 0
-7457 7449 0
-7457 7456 0
7446 -7456 0
7455 -7456 0
-7455 7443 0
-7455 7454 0
7440 -7454 0
7453 -7454 0
-7453 7434 0
-7453 7437 0
-7435 -7437 0
-7436 -7437 0
7435 7437 7436 0
-7436 -2231 0
-7436 2609 0
7436 -2609 2231 0
-7435 2231 0
-7435 -2609 0
7435 -2231 2609 0
7433 7432 7434 0
-7433 2608 0
-7432 2230 0
-7432 -2608 0
-7438 -7440 0
7438 7439 7440 0
-7439 -2232 0
-7439 2610 0
7439 -2610 2232 0
-7438 2232 0
-7438 -2610 0
7438 2610 -2232 0
-7441 -7443 0
-7442 -7443 0
7441 7442 7443 0
-7442 -2233 0
-7442 2611 0
7442 -2611 2233 0
-7441 2233 0
-7441 -2611 0
7441 2611 -2233 0
-7444 -7446 0
-7445 -7446 0
7445 7446 7444 0
-7445 -2234 0
-7445 2612 0
7445 -2612 2234 0
-7444 2234 0
-7444 -2612 0
2612 -2234 7444 0
-7449 -7447 0
-7448 -7449 0
7448 7449 7447 0
-7448 -2235 0
-7448 2613 0
7448 -2613 2235 0
-7447 2235 0
-2613 -7447 0
2613 -2235 7447 0
-7450 -7452 0
-7451 -7452 0
7452 7450 7451 0
-7451 -2236 0
-7451 2614 0
2236 -2614 7451 0
-7450 2236 0
-7450 -2614 0
2614 7450 -2236 0
7430 -1090 7431 0
7424 -7430 0
7429 -7430 0
-7429 7421 0
-7429 7428 0
7418 -7428 0
7427 -7428 0
-7427 7415 0
-7427 7426 0
7412 -7426 0
7425 -7426 0
-7425 7406 0
-7425 7409 0
-7407 -7409 0
7408 -2595 2231 0
7407 -2231 2595 0
7410 7411 7412 0
-7411 -2232 0
-7410 -2596 0
-7413 -7415 0
-7414 -7415 0
7413 7414 7415 0
-7414 -2233 0
-7414 2597 0
7414 -2597 2233 0
-7413 2233 0
-7413 -2597 0
7413 2597 -2233 0
-7416 -7418 0
-7417 -7418 0
7417 7418 7416 0
-7417 2598 0
7417 -2598 2234 0
-7416 2234 0
-7416 -2598 0
2598 -2234 7416 0
-7421 -7419 0
-7420 -7421 0
7420 7421 7419 0
-7420 -2235 0
-7420 2599 0
7420 -2599 2235 0
-7419 2235 0
-2599 -7419 0
2599 -2235 7419 0
-7422 -7424 0
7424 7422 7423 0
-7423 -2236 0
-7423 2600 0
2236 -2600 7423 0
-7422 2236 0
-7422 -2600 0
2600 7422 -2236 0
7402 -1087 7403 0
7396 -7402 0
7401 -7402 0
-7401 7393 0
-7401 7400 0
7390 -7400 0
7399 -7400 0
-7399 7387 0
-7399 7398 0
7384 -7398 0
7397 -7398 0
-7397 7378 0
-7397 7381 0
-7381 -7379 0
-7380 -7381 0
7379 7380 7381 0
-7380 -2231 0
-7380 2581 0
7380 -2581 2231 0
-7379 2231 0
-7379 -2581 0
7379 -2231 2581 0
7376 7377 7378 0
-7377 -2230 0
7377 -2580 2230 0
-2580 -7376 0
-7384 -7382 0
-7383 -7384 0
7382 7383 7384 0
-7383 -2232 0
7383 -2582 2232 0
-7382 2232 0
-7382 -2582 0
7382 2582 -2232 0
-7387 -7385 0
-7386 -7387 0
7385 7386 7387 0
-7386 -2233 0
-7386 2583 0
7386 -2583 2233 0
-7385 2233 0
-7385 -2583 0
7385 2583 -2233 0
-7390 -7388 0
-7389 -7390 0
7389 7390 7388 0
-7389 -2234 0
-7389 2584 0
7389 -2584 2234 0
-7388 2234 0
-7388 -2584 0
2584 -2234 7388 0
-7393 -7391 0
-7392 -7393 0
7392 7393 7391 0
-7392 -2235 0
-7392 2585 0
7392 -2585 2235 0
-7391 2235 0
-2585 -7391 0
2585 -2235 7391 0
-7396 -7394 0
-7395 -7396 0
7396 7395 7394 0
-7395 -2236 0
-7395 2586 0
2236 -2586 7395 0
-7394 2236 0
-7394 -2586 0
2586 -2236 7394 0
7374 -1084 7375 0
7368 -7374 0
7373 -7374 0
-7373 7365 0
-7373 7372 0
7362 -7372 0
7371 -7372 0
-7371 7359 0
-7371 7370 0
7356 -7370 0
7369 -7370 0
-7369 7350 0
-7369 7353 0
-7355 -7356 0
7354 7355 7356 0
-7355 -2232 0
-7355 2568 0
7355 -2568 2232 0
-7354 2232 0
-7354 -2568 0
-7359 -7357 0
-7358 -7359 0
7357 7358 7359 0
7358 -2569 2233 0
-7357 2233 0
7357 2569 -2233 0
-7362 -7360 0
-7361 -7362 0
7362 7361 7360 0
-7361 2570 0
7361 -2570 2234 0
-7360 2234 0
2570 -2234 7360 0
-7365 -7363 0
-7364 -7365 0
7364 7365 7363 0
-7364 -2235 0
-7364 2571 0
7364 -2571 2235 0
-7363 2235 0
-2571 -7363 0
2571 -2235 7363 0
-7368 -7366 0
7368 7367 7366 0
-7367 -2236 0
-7367 2572 0
-7366 2236 0
2572 -2236 7366 0
-1081 7346 7347 0
7340 -7346 0
7345 -7346 0
7337 -7345 0
7344 -7345 0
7334 -7344 0
7343 -7344 0
7331 -7343 0
7342 -7343 0
7328 -7342 0
7341 -7342 0
7322 -7341 0
7325 -7341 0
-7323 -7325 0
-7324 -7325 0
2231 -2553 7324 0
-2231 2553 7323 0
-7320 -7322 0
-2230 2552 7320 0
-7326 -7328 0
-7327 -7328 0
7328 7327 7326 0
-7327 -2232 0
2232 -2554 7327 0
-7326 2232 0
-7326 -2554 0
-2232 2554 7326 0
-7329 -7331 0
-7330 -7331 0
7331 7330 7329 0
-7330 -2233 0
2233 -2555 7330 0
-7329 -2555 0
-2233 2555 7329 0
-7332 -7334 0
-7333 -7334 0
7334 7333 7332 0
-7333 -2234 0
-7333 2556 0
-2556 2234 7333 0
-7332 2234 0
-7332 -2556 0
-2234 2556 7332 0
-7335 -7337 0
-7336 -7337 0
7337 7336 7335 0
-7336 -2235 0
-7336 2557 0
-2557 2235 7336 0
-7335 2235 0
-7335 -2557 0
-2235 2557 7335 0
-7338 -7340 0
-7339 -7340 0
7340 7338 7339 0
-7339 2558 0
2236 -2558 7339 0
-7338 2236 0
2558 -2236 7338 0
-1078 7318 7319 0
7312 -7318 0
7317 -7318 0
-7312 -7317 7318 0
7309 -7317 0
7316 -7317 0
7317 -7316 -7309 0
7306 -7316 0
7315 -7316 0
-7315 7316 -7306 0
7303 -7315 0
7314 -7315 0
7315 -7314 -7303 0
7300 -7314 0
-7313 7314 -7300 0
7313 -7294 -7297 0
7295 7296 7297 0
-2231 -7296 0
-7296 2539 0
7296 -2539 2231 0
-7295 2231 0
-7295 -2539 0
7292 7293 7294 0
-2230 -7293 0
-7293 2538 0
7293 -2538 2230 0
-7292 2230 0
-7292 -2538 0
-7298 -7300 0
-7299 -7300 0
7298 7300 7299 0
-7299 -2232 0
-7299 2540 0
-2540 2232 7299 0
-7298 2232 0
-7298 -2540 0
2540 -2232 7298 0
-7301 -7303 0
-7302 -7303 0
7301 7303 7302 0
-7302 -2233 0
-2541 2233 7302 0
-7301 -2541 0
2541 -2233 7301 0
-7304 -7306 0
-7305 -7306 0
7305 7306 7304 0
-7305 -2234 0
-7305 2542 0
-2542 2234 7305 0
-7304 2234 0
-7304 -2542 0
2542 -2234 7304 0
-7307 -7309 0
-7308 -7309 0
7308 7309 7307 0
-7308 -2235 0
-7308 2543 0
-2543 2235 7308 0
-7307 2235 0
-7307 -2543 0
2543 -2235 7307 0
-7310 -7312 0
-7311 -7312 0
7311 7312 7310 0
-7311 2544 0
2236 -2544 7311 0
-7310 2236 0
2544 -2236 7310 0
-712 7290 7291 0
7284 -7290 0
7289 -7290 0
-7284 -7289 7290 0
7281 -7289 0
7288 -7289 0
7289 -7288 -7281 0
7278 -7288 0
7287 -7288 0
-7287 7288 -7278 0
7275 -7287 0
7286 -7287 0
7287 -7286 -7275 0
7272 -7286 0
7285 -7286 0
-7285 7286 -7272 0
7266 -7285 0
7269 -7285 0
7285 -7269 -7266 0
-7267 -7269 0
-7268 -7269 0
7267 7269 7268 0
-7268 2441 0
-2441 2231 7268 0
-7267 2231 0
-2231 2441 7267 0
-7264 -7266 0
-7265 -7266 0
7264 7266 7265 0
-7265 -2230 0
-7265 2440 0
-2440 2230 7265 0
-7264 2230 0
-7264 -2440 0
-2230 2440 7264 0
-7270 -7272 0
-7271 -7272 0
7270 7272 7271 0
-7271 -2232 0
-7271 2442 0
-2442 2232 7271 0
-7270 2232 0
-7270 -2442 0
2442 -2232 7270 0
-7273 -7275 0
-7274 -7275 0
7273 7275 7274 0
-7274 -2233 0
-7274 2443 0
-2443 2233 7274 0
-7273 2233 0
-7273 -2443 0
2443 -2233 7273 0
-7276 -7278 0
-7277 -7278 0
7278 7277 7276 0
-7277 -2234 0
-7277 2444 0
-2444 2234 7277 0
-7276 2234 0
-7276 -2444 0
2444 -2234 7276 0
-7279 -7281 0
-7280 -7281 0
7281 7280 7279 0
-7280 -2235 0
-7280 2445 0
-2445 2235 7280 0
-7279 2235 0
-7279 -2445 0
2445 -2235 7279 0
-7282 -7284 0
-7283 -7284 0
7284 7282 7283 0
-7283 -2236 0
-7283 2446 0
2236 -2446 7283 0
-7282 2236 0
-7282 -2446 0
2446 -2236 7282 0
-1075 7262 7263 0
7256 -7262 0
7261 -7262 0
-7261 -7256 7262 0
7253 -7261 0
7260 -7261 0
7261 -7260 -7253 0
7250 -7260 0
7259 -7260 0
-7259 7260 -7250 0
7247 -7259 0
7258 -7259 0
7259 -7258 -7247 0
7244 -7258 0
7257 -7258 0
-7257 7258 -7244 0
7238 -7257 0
7241 -7257 0
7257 -7238 -7241 0
-7239 -7241 0
-7240 -7241 0
7239 7241 7240 0
-7240 -2231 0
-7240 2343 0
-2343 2231 7240 0
-7239 2231 0
-2343 -7239 0
2343 -2231 7239 0
-7236 -7238 0
-7237 -7238 0
7236 7238 7237 0
-7237 -2230 0
-7237 2342 0
-2342 2230 7237 0
-7236 2230 0
-2342 -7236 0
-2230 2342 7236 0
-7242 -7244 0
-7243 -7244 0
7242 7244 7243 0
-7243 -2232 0
-7243 2344 0
-2344 2232 7243 0
-7242 2232 0
-2344 -7242 0
2344 -2232 7242 0
-7245 -7247 0
-7246 -7247 0
7245 7247 7246 0
-7246 -2233 0
-7246 2345 0
-2345 2233 7246 0
-7245 2233 0
-2345 -7245 0
2345 -2233 7245 0
-7248 -7250 0
-7249 -7250 0
7249 7250 7248 0
-7249 -2234 0
-7249 2346 0
-2346 2234 7249 0
-7248 2234 0
-7248 -2346 0
2346 -2234 7248 0
-7251 -7253 0
-7252 -7253 0
7253 7252 7251 0
-7252 -2235 0
-7252 2347 0
-2347 2235 7252 0
-7251 2235 0
-7251 -2347 0
2347 -2235 7251 0
-7254 -7256 0
-7255 -7256 0
7256 7254 7255 0
-7255 -2236 0
-7255 2348 0
2236 -2348 7255 0
-7254 2236 0
-7254 -2348 0
2348 -2236 7254 0
-1072 7234 7235 0
7228 -7234 0
7233 -7234 0
-7228 7234 -7233 0
7225 -7233 0
7232 -7233 0
7233 -7232 -7225 0
7222 -7232 0
7231 -7232 0
-7231 7232 -7222 0
7219 -7231 0
7230 -7231 0
7231 -7230 -7219 0
7216 -7230 0
7229 -7230 0
-7229 7230 -7216 0
7210 -7229 0
7213 -7229 0
-7210 7229 -7213 0
-7211 -7213 0
7213 7212 7211 0
-7212 -2119 0
-7211 2119 0
-7211 -2609 0
2609 -2119 7211 0
7210 7209 7208 0
-7209 -2118 0
-7209 2608 0
-7208 2118 0
-7208 -2608 0
-7214 -7216 0
-7215 -7216 0
7216 7215 7214 0
-7215 -2120 0
-7215 2610 0
-2610 2120 7215 0
-7214 2120 0
-7214 -2610 0
2610 -2120 7214 0
-7217 -7219 0
-7218 -7219 0
7219 7218 7217 0
-7218 -2121 0
-7218 2611 0
-2611 2121 7218 0
-7217 2121 0
-7217 -2611 0
2611 -2121 7217 0
-7220 -7222 0
-7221 -7222 0
7222 7221 7220 0
-7221 -2122 0
-7221 2612 0
-2612 2122 7221 0
-7220 2122 0
-7220 -2612 0
2612 -2122 7220 0
-7223 -7225 0
7225 7224 7223 0
-7224 -2123 0
-7224 2613 0
-2613 7224 2123 0
-7223 2123 0
-2613 -7223 0
2613 -2123 7223 0
-7226 -7228 0
-7227 -7228 0
7228 7226 7227 0
-7227 -2124 0
-7227 2614 0
2124 -2614 7227 0
-7226 2124 0
-7226 -2614 0
2614 -2124 7226 0
-1069 7206 7207 0
7200 -7206 0
7205 -7206 0
7197 -7205 0
7204 -7205 0
7194 -7204 0
7203 -7204 0
7191 -7203 0
7202 -7203 0
7188 -7202 0
7201 -7202 0
7182 -7201 0
7185 -7201 0
-7183 -7185 0
7185 7184 7183 0
-7184 -2119 0
2595 -7184 0
-2595 7184 2119 0
-7183 2119 0
-7183 -2595 0
2595 -2119 7183 0
-7180 -7182 0
-7181 -7182 0
7182 7181 7180 0
-7181 -2118 0
2594 -7181 0
-2594 2118 7181 0
-7180 2118 0
-7180 -2594 0
2594 -2118 7180 0
-7186 -7188 0
-7187 -7188 0
7188 7187 7186 0
-7187 -2120 0
2596 -7187 0
-2596 2120 7187 0
-7186 2120 0
-7186 -2596 0
2596 -2120 7186 0
-7189 -7191 0
-7190 -7191 0
7191 7190 7189 0
-7190 -2121 0
-2597 2121 7190 0
-7189 2121 0
-7189 -2597 0
2597 -2121 7189 0
-7192 -7194 0
-7193 -7194 0
7194 7193 7192 0
-7193 -2122 0
-7193 2598 0
-2598 2122 7193 0
-7192 2122 0
-7192 -2598 0
2598 -2122 7192 0
-7195 -7197 0
-7196 -7197 0
7197 7196 7195 0
-7196 -2123 0
-7196 2599 0
-2599 2123 7196 0
-7195 2123 0
-2599 -7195 0
2599 -2123 7195 0
-7198 -7200 0
-7199 -7200 0
7200 7199 7198 0
-7199 -2124 0
-7199 2600 0
2124 -2600 7199 0
-7198 2124 0
-7198 -2600 0
2600 -2124 7198 0
-7151 7178 7179 0
7172 -7178 0
7177 -7178 0
7169 -7177 0
7176 -7177 0
7166 -7176 0
7175 -7176 0
7163 -7175 0
7174 -7175 0
7160 -7174 0
7173 -7174 0
7154 -7173 0
7157 -7173 0
-7155 -7157 0
-7156 -7157 0
7157 7156 7155 0
-7156 -2119 0
-2581 2119 7156 0
-7155 2119 0
-7155 -2581 0
2581 -2119 7155 0
-7152 -7154 0
-7153 -7154 0
7154 7153 7152 0
-7153 -2118 0
2580 -7153 0
-2580 2118 7153 0
-7152 2118 0
-7152 -2580 0
2580 -2118 7152 0
-7158 -7160 0
7160 7159 7158 0
-7159 -2120 0
2582 -7159 0
-2582 7159 2120 0
-7158 2120 0
-7158 -2582 0
2582 -2120 7158 0
-7161 -7163 0
-7162 -7163 0
7163 7162 7161 0
-7162 -2121 0
2583 -7162 0
-2583 2121 7162 0
-7161 2121 0
-7161 -2583 0
2583 -2121 7161 0
-7164 -7166 0
-7165 -7166 0
7166 7165 7164 0
-7165 -2122 0
-7165 2584 0
-2584 2122 7165 0
-7164 2122 0
-7164 -2584 0
2584 -2122 7164 0
-7167 -7169 0
-7168 -7169 0
7169 7168 7167 0
-7168 -2123 0
-7168 2585 0
-2585 2123 7168 0
-7167 2123 0
-7167 -2585 0
2585 -2123 7167 0
-7170 -7172 0
-7171 -7172 0
7172 7170 7171 0
-7171 -2124 0
2586 -7171 0
2124 -2586 7171 0
-7170 2124 0
-7170 -2586 0
2586 -2124 7170 0
-488 -495 7151 0
-7122 7149 7150 0
7143 -7149 0
7148 -7149 0
7140 -7148 0
7147 -7148 0
7137 -7147 0
7146 -7147 0
7134 -7146 0
7145 -7146 0
7131 -7145 0
7144 -7145 0
7125 -7144 0
7128 -7144 0
-7126 -7128 0
7128 7126 7127 0
2567 -2119 7126 0
-7123 -7125 0
7125 7124 7123 0
-7124 -2118 0
2566 -7124 0
-2566 7124 2118 0
-7123 2118 0
-2566 -7123 0
2566 -2118 7123 0
-7129 -7131 0
-7130 -7131 0
7131 7130 7129 0
-7130 -2120 0
2568 -7130 0
-2568 2120 7130 0
-7129 2120 0
-7129 -2568 0
2568 -2120 7129 0
-7132 -7134 0
-7133 -7134 0
7134 7133 7132 0
-7133 -2121 0
2569 -7133 0
-2569 2121 7133 0
-7132 2121 0
-7132 -2569 0
2569 -2121 7132 0
-7135 -7137 0
-7136 -7137 0
7137 7136 7135 0
-7136 -2122 0
-7136 2570 0
-2570 2122 7136 0
-7135 2122 0
-7135 -2570 0
2570 -2122 7135 0
-7138 -7140 0
-7139 -7140 0
7140 7139 7138 0
-7139 -2123 0
-7139 2571 0
-2571 2123 7139 0
-7138 2123 0
-2571 -7138 0
2571 -2123 7138 0
-7141 -7143 0
-7142 -7143 0
7143 7142 7141 0
-7142 -2124 0
2572 -7142 0
2124 -2572 7142 0
-7141 2124 0
-7141 -2572 0
2572 -2124 7141 0
-488 -494 7122 0
-5294 -7121 0
7120 -7121 0
-5323 -7120 0
7119 -7120 0
-5352 -7119 0
7118 -7119 0
-5381 -7118 0
7117 -7118 0
-5410 -7117 0
7116 -7117 0
-5439 -7116 0
7115 -7116 0
-5468 -7115 0
7114 -7115 0
-5497 -7114 0
7113 -7114 0
-5526 -7113 0
7112 -7113 0
-5555 -7112 0
7111 -7112 0
-5584 -7111 0
7110 -7111 0
-5613 -7110 0
7109 -7110 0
-5649 -7109 0
7108 -7109 0
-5678 -7108 0
7107 -7108 0
-5707 -7107 0
7106 -7107 0
7105 -7106 0
-5765 -7105 0
7104 -7105 0
-5794 -7104 0
7103 -7104 0
-5823 -7103 0
7102 -7103 0
-5852 -7102 0
7101 -7102 0
-5881 -7101 0
7100 -7101 0
-5910 -7100 0
7099 -7100 0
-5939 -7099 0
7098 -7099 0
-5968 -7098 0
7097 -7098 0
-5997 -7097 0
7096 -7097 0
-6026 -7096 0
7095 -7096 0
-6055 -7095 0
7094 -7095 0
-6084 -7094 0
7093 -7094 0
-6113 -7093 0
7092 -7093 0
-6142 -7092 0
7091 -7092 0
-6171 -7091 0
7090 -7091 0
-6200 -7090 0
7089 -7090 0
-6229 -7089 0
7088 -7089 0
-6258 -7088 0
7087 -7088 0
-6287 -7087 0
7086 -7087 0
-6316 -7086 0
7085 -7086 0
-6344 -7085 0
7084 -7085 0
-6346 -7084 0
7083 -7084 0
-6348 -7083 0
7082 -7083 0
-6377 -7082 0
7081 -7082 0
-6406 -7081 0
7080 -7081 0
-6435 -7080 0
7079 -7080 0
-6463 -7079 0
7078 -7079 0
-6492 -7078 0
7077 -7078 0
-6520 -7077 0
7076 -7077 0
-6548 -7076 0
7075 -7076 0
-6577 -7075 0
7074 -7075 0
-6606 -7074 0
7073 -7074 0
-6635 -7073 0
7072 -7073 0
-6664 -7072 0
7071 -7072 0
-6693 -7071 0
7070 -7071 0
-6721 -7070 0
7069 -7070 0
-6749 -7069 0
7068 -7069 0
-6777 -7068 0
7067 -7068 0
-6805 -7067 0
7066 -7067 0
-6833 -7066 0
7065 -7066 0
-6861 -7065 0
7064 -7065 0
-6889 -7064 0
7063 -7064 0
-6917 -7063 0
7062 -7063 0
-6946 -7062 0
7061 -7062 0
-6974 -7061 0
7060 -7061 0
-7002 -7060 0
7059 -7060 0
-7030 -7059 0
-7058 -7059 0
-1066 7057 7058 0
7051 -7057 0
7056 -7057 0
7048 -7056 0
7055 -7056 0
7045 -7055 0
7054 -7055 0
7042 -7054 0
7053 -7054 0
7039 -7053 0
-7037 -7039 0
2554 -2120 7037 0
-7040 -7042 0
-7041 -7042 0
-2555 2121 7041 0
2555 -2121 7040 0
-7043 -7045 0
-7044 -7045 0
7045 7044 7043 0
-7044 2556 0
-2556 2122 7044 0
-7043 2122 0
2556 -2122 7043 0
-7046 -7048 0
-7047 -7048 0
7048 7047 7046 0
-7047 -2123 0
-7047 2557 0
-2557 2123 7047 0
-7046 2123 0
-7046 -2557 0
2557 -2123 7046 0
-7049 -7051 0
-7050 -7051 0
7051 7049 7050 0
-7050 -2124 0
2124 -2558 7050 0
-7049 2124 0
-7049 -2558 0
2558 -2124 7049 0
-1063 7029 7030 0
7023 -7029 0
7028 -7029 0
7020 -7028 0
7027 -7028 0
7017 -7027 0
7026 -7027 0
7014 -7026 0
7025 -7026 0
7011 -7025 0
7024 -7025 0
7008 -7024 0
-7006 -7008 0
2539 -2119 7006 0
-7009 -7011 0
2540 -2120 7009 0
-7012 -7014 0
2541 -2121 7012 0
-7015 -7017 0
2542 -2122 7015 0
-7018 -7020 0
2543 -2123 7018 0
-7021 -7023 0
2544 -2124 7021 0
-709 7001 7002 0
6995 -7001 0
7000 -7001 0
-6995 -7000 7001 0
6992 -7000 0
6999 -7000 0
7000 -6999 -6992 0
6989 -6999 0
6998 -6999 0
-6998 6999 -6989 0
6986 -6998 0
6997 -6998 0
6998 -6997 -6986 0
6983 -6997 0
6996 -6997 0
-6996 6997 -6983 0
6977 -6996 0
6980 -6996 0
6996 -6977 -6980 0
-6979 -6980 0
6980 6979 6978 0
-6979 -2119 0
-6979 2441 0
-2441 2119 6979 0
-6978 2119 0
-6978 -2441 0
6977 6976 6975 0
-6976 -2118 0
-6976 2440 0
-2440 6976 2118 0
-6975 2118 0
-6975 -2440 0
-6981 -6983 0
6983 6982 6981 0
-6982 -2120 0
-6982 2442 0
-2442 6982 2120 0
-6981 2120 0
-6981 -2442 0
2442 -2120 6981 0
-6984 -6986 0
-6985 -6986 0
6986 6985 6984 0
-6985 -2121 0
-6985 2443 0
-2443 2121 6985 0
-6984 2121 0
-6984 -2443 0
2443 -2121 6984 0
-6987 -6989 0
-6988 -6989 0
6989 6988 6987 0
-6988 -2122 0
-6988 2444 0
-2444 2122 6988 0
-6987 2122 0
-6987 -2444 0
2444 -2122 6987 0
-6990 -6992 0
-6991 -6992 0
6992 6991 6990 0
-6991 -2123 0
-6991 2445 0
-2445 2123 6991 0
-6990 2123 0
-6990 -2445 0
2445 -2123 6990 0
-6993 -6995 0
6995 6993 6994 0
-6994 -2124 0
-6994 2446 0
2124 -2446 6994 0
-6993 2124 0
-6993 -2446 0
2446 -2124 6993 0
-1060 6973 6974 0
6967 -6973 0
6972 -6973 0
-6972 -6967 6973 0
6964 -6972 0
6971 -6972 0
6972 -6971 -6964 0
6961 -6971 0
6970 -6971 0
-6970 6971 -6961 0
6958 -6970 0
6969 -6970 0
6970 -6969 -6958 0
6955 -6969 0
6968 -6969 0
-6968 6969 -6955 0
6952 -6968 0
6968 -6949 -6952 0
-6951 -6952 0
6952 6950 6951 0
-6951 -2119 0
-2343 2119 6951 0
-6950 -2343 0
6949 6947 6948 0
-6948 -2118 0
-6947 -2342 0
-6953 -6955 0
-6954 -6955 0
6955 6954 6953 0
2344 -6954 0
-2344 2120 6954 0
-6953 2120 0
-2344 -6953 0
2344 -2120 6953 0
-6956 -6958 0
-6957 -6958 0
6958 6957 6956 0
-6957 -2121 0
2345 -6957 0
-2345 2121 6957 0
-6956 2121 0
-2345 -6956 0
2345 -2121 6956 0
-6959 -6961 0
-6960 -6961 0
6961 6960 6959 0
-6960 -2122 0
2346 -6960 0
-2346 2122 6960 0
-6959 2122 0
-6959 -2346 0
2346 -2122 6959 0
-6962 -6964 0
-6963 -6964 0
6964 6963 6962 0
-6963 -2123 0
-6963 2347 0
-2347 2123 6963 0
-6962 2123 0
-6962 -2347 0
2347 -2123 6962 0
-6965 -6967 0
6967 6966 6965 0
-6966 -2124 0
-6966 2348 0
-6965 2124 0
-6965 -2348 0
2348 -2124 6965 0
6945 -6918 6946 0
-6945 6939 0
6944 -6945 0
-6944 6936 0
-6944 6943 0
-6943 6933 0
-6943 6942 0
-6942 6930 0
-6942 6941 0
-6941 6927 0
-6941 6940 0
-6940 6921 0
-6940 6924 0
-6924 -6923 0
6924 6923 6922 0
-6923 -2119 0
-6923 2231 0
-2231 6923 2119 0
-6922 2119 0
-6922 -2231 0
6920 6921 6919 0
-6919 2118 0
-6919 -2230 0
-6925 -6927 0
-6927 -6926 0
6927 6926 6925 0
-6926 -2120 0
-6926 2232 0
6926 -2232 2120 0
-6925 2120 0
-6925 -2232 0
2232 -2120 6925 0
-6928 -6930 0
-6930 -6929 0
6930 6928 6929 0
-6929 -2121 0
-6929 2233 0
-2233 2121 6929 0
-6928 2121 0
-6928 -2233 0
2233 -2121 6928 0
-6931 -6933 0
-6933 -6932 0
6933 6932 6931 0
-6932 -2122 0
-6932 2234 0
-2234 6932 2122 0
-6931 2122 0
-6931 -2234 0
-2122 6931 2234 0
-6934 -6936 0
-6936 -6935 0
6936 6935 6934 0
-6935 2235 0
-2235 6935 2123 0
-6934 2123 0
-6934 -2235 0
-2123 6934 2235 0
-6937 -6939 0
6939 6937 6938 0
2124 -2236 6938 0
-6937 2124 0
-6937 -2236 0
2236 6937 -2124 0
6918 -489 -488 0
-811 6916 6917 0
6910 -6916 0
6915 -6916 0
-6910 -6915 6916 0
6907 -6915 0
6914 -6915 0
6915 -6914 -6907 0
6904 -6914 0
6913 -6914 0
-6913 6914 -6904 0
6901 -6913 0
6912 -6913 0
6913 -6912 -6901 0
6898 -6912 0
6911 -6912 0
-6911 6912 -6898 0
6892 -6911 0
6895 -6911 0
6911 -6892 -6895 0
-6893 -6895 0
-6894 -6895 0
6894 6895 6893 0
-6894 -1916 0
-6894 2609 0
1916 -2609 6894 0
1916 -6893 0
-6893 -2609 0
-1916 2609 6893 0
-6890 -6892 0
6891 6892 6890 0
-6891 -1915 0
-6890 1915 0
-1915 2608 6890 0
-6896 -6898 0
-6897 -6898 0
6896 6898 6897 0
-6897 -1917 0
-6897 2610 0
-2610 1917 6897 0
1917 -6896 0
-6896 -2610 0
2610 -1917 6896 0
-6899 -6901 0
6900 6901 6899 0
-6900 -1918 0
-6900 2611 0
6900 -2611 1918 0
1918 -6899 0
-6899 -2611 0
2611 -1918 6899 0
-6902 -6904 0
6903 6904 6902 0
-6903 -1919 0
-6903 2612 0
6903 -2612 1919 0
-6902 1919 0
-6902 -2612 0
2612 -1919 6902 0
-6905 -6907 0
-6906 -6907 0
6907 6906 6905 0
-6906 -1920 0
-6906 2613 0
-2613 1920 6906 0
-6905 1920 0
-6905 -2613 0
2613 -1920 6905 0
-6908 -6910 0
6910 6909 6908 0
-6909 -1921 0
-6909 2614 0
1921 -2614 6909 0
-6908 1921 0
-6908 -2614 0
2614 -1921 6908 0
-808 6888 6889 0
6882 -6888 0
6887 -6888 0
-6882 -6887 6888 0
6879 -6887 0
6886 -6887 0
6887 -6886 -6879 0
6876 -6886 0
6885 -6886 0
-6885 6886 -6876 0
6873 -6885 0
6884 -6885 0
6885 -6884 -6873 0
6870 -6884 0
6883 -6884 0
-6883 6884 -6870 0
6864 -6883 0
6867 -6883 0
6883 -6864 -6867 0
-6865 -6867 0
6866 6867 6865 0
-6866 2595 0
1916 -6865 0
2595 -1916 6865 0
-6862 -6864 0
6863 6864 6862 0
-6863 -1915 0
-6863 2594 0
2594 -1915 6862 0
-6868 -6870 0
6869 6870 6868 0
-6869 -1917 0
-6869 2596 0
1917 -6868 0
-6868 -2596 0
2596 -1917 6868 0
-6871 -6873 0
6872 6873 6871 0
-6872 -1918 0
-6871 -2597 0
2597 -1918 6871 0
-6874 -6876 0
-6875 -6876 0
6876 6875 6874 0
-6875 -1919 0
-6875 2598 0
-2598 1919 6875 0
-6874 1919 0
-6874 -2598 0
2598 -1919 6874 0
-6877 -6879 0
6878 6879 6877 0
-6878 -1920 0
-6878 2599 0
6878 -2599 1920 0
-6877 1920 0
-2599 -6877 0
2599 -1920 6877 0
-6880 -6882 0
6882 6881 6880 0
-6881 -1921 0
-6881 2600 0
1921 -2600 6881 0
-6880 1921 0
-6880 -2600 0
2600 -1921 6880 0
-805 6860 6861 0
6854 -6860 0
6859 -6860 0
-6859 -6854 6860 0
6851 -6859 0
6858 -6859 0
6859 -6858 -6851 0
6848 -6858 0
6857 -6858 0
-6857 6858 -6848 0
6845 -6857 0
6856 -6857 0
6857 -6856 -6845 0
6842 -6856 0
6855 -6856 0
-6855 6856 -6842 0
6836 -6855 0
6839 -6855 0
6855 -6836 -6839 0
-6837 -6839 0
6838 6839 6837 0
-6838 -1916 0
-6838 2581 0
1916 -6837 0
-6837 -2581 0
2581 -1916 6837 0
-6834 -6836 0
6835 6836 6834 0
-6835 -1915 0
-6835 2580 0
2580 -1915 6834 0
-6840 -6842 0
6841 6842 6840 0
-6841 -1917 0
-6841 2582 0
1917 -6840 0
-6840 -2582 0
2582 -1917 6840 0
-6843 -6845 0
6844 6845 6843 0
-6844 -1918 0
-6844 2583 0
6844 -2583 1918 0
1918 -6843 0
-6843 -2583 0
2583 -1918 6843 0
-6846 -6848 0
-6847 -6848 0
6848 6847 6846 0
-6847 -1919 0
-6847 2584 0
-2584 1919 6847 0
-6846 1919 0
-6846 -2584 0
2584 -1919 6846 0
-6849 -6851 0
-6850 -6851 0
6851 6850 6849 0
-6850 -1920 0
-6850 2585 0
-2585 1920 6850 0
-6849 1920 0
-2585 -6849 0
2585 -1920 6849 0
-6852 -6854 0
6854 6853 6852 0
-6853 -1921 0
-6853 2586 0
1921 -2586 6853 0
-6852 1921 0
-6852 -2586 0
2586 -1921 6852 0
-802 6832 6833 0
6826 -6832 0
6831 -6832 0
-6826 -6831 6832 0
6823 -6831 0
6830 -6831 0
6831 -6830 -6823 0
6820 -6830 0
6829 -6830 0
-6829 6830 -6820 0
6817 -6829 0
6828 -6829 0
6829 -6828 -6817 0
6814 -6828 0
6827 -6828 0
-6827 6828 -6814 0
6808 -6827 0
6811 -6827 0
6827 -6808 -6811 0
6809 6810 6811 0
-6810 -1916 0
-6810 2567 0
1916 -6809 0
-6809 -2567 0
6809 2567 -1916 0
-6806 -6808 0
-6807 -6808 0
6808 6807 6806 0
-6807 -1915 0
-6807 2566 0
-6806 1915 0
2566 -1915 6806 0
-6812 -6814 0
6813 6814 6812 0
-6813 -1917 0
-6813 2568 0
6813 1917 -2568 0
1917 -6812 0
2568 -1917 6812 0
-6815 -6817 0
6816 6817 6815 0
-6816 -1918 0
-6815 -2569 0
2569 -1918 6815 0
-6818 -6820 0
6819 6820 6818 0
-6819 -1919 0
-6819 2570 0
-6818 1919 0
-6818 -2570 0
2570 -1919 6818 0
-6821 -6823 0
-6822 -6823 0
6822 6823 6821 0
-6822 -1920 0
-6822 2571 0
-2571 1920 6822 0
-6821 1920 0
-2571 -6821 0
2571 -1920 6821 0
-6824 -6826 0
6826 6825 6824 0
-6825 -1921 0
-6825 2572 0
1921 -2572 6825 0
-6824 1921 0
-6824 -2572 0
2572 -1921 6824 0
-799 6804 6805 0
6798 -6804 0
6803 -6804 0
6795 -6803 0
6802 -6803 0
6792 -6802 0
6801 -6802 0
6789 -6801 0
6800 -6801 0
6786 -6800 0
6799 -6800 0
6780 -6799 0
6783 -6799 0
-6781 -6783 0
6783 6781 6782 0
-6782 2553 0
1916 -2553 6782 0
-6781 1916 0
-1916 2553 6781 0
6780 6779 6778 0
-6779 2552 0
-2552 6779 1915 0
-6778 1915 0
-6784 -6786 0
6784 6786 6785 0
-6785 2554 0
-6784 1917 0
-1917 2554 6784 0
-6787 -6789 0
-6788 -6789 0
6789 6788 6787 0
-6788 -1918 0
1918 -2555 6788 0
-6787 -2555 0
-1918 2555 6787 0
-6790 -6792 0
6792 6791 6790 0
-6791 -1919 0
-6791 2556 0
-6790 1919 0
-6790 -2556 0
-1919 2556 6790 0
-6793 -6795 0
6795 6794 6793 0
-6794 -1920 0
-6794 2557 0
-6793 1920 0
-6793 -2557 0
-1920 2557 6793 0
-6796 -6798 0
6798 6797 6796 0
-6797 -1921 0
-6797 2558 0
-6796 1921 0
-6796 -2558 0
2558 -1921 6796 0
-582 6776 6777 0
6770 -6776 0
6775 -6776 0
6767 -6775 0
6774 -6775 0
6764 -6774 0
6773 -6774 0
6761 -6773 0
6772 -6773 0
6758 -6772 0
6771 -6772 0
6752 -6771 0
6755 -6771 0
-6753 -6755 0
-1916 2539 6753 0
-6750 -6752 0
6751 6752 6750 0
-6751 -1915 0
-6751 2538 0
6751 -2538 1915 0
-6750 1915 0
-6750 -2538 0
-1915 2538 6750 0
-6756 -6758 0
-1917 2540 6756 0
-6759 -6761 0
-1918 2541 6759 0
-6762 -6764 0
2542 -1919 6762 0
-6765 -6767 0
6766 6767 6765 0
-6766 -1920 0
-6765 -2543 0
2543 -1920 6765 0
-6768 -6770 0
-6769 -6770 0
6770 6768 6769 0
1921 -2544 6769 0
-6768 1921 0
2544 -1921 6768 0
-706 6748 6749 0
6742 -6748 0
6747 -6748 0
6739 -6747 0
6746 -6747 0
6736 -6746 0
6745 -6746 0
6733 -6745 0
6744 -6745 0
6730 -6744 0
6743 -6744 0
6724 -6743 0
6727 -6743 0
-6725 -6727 0
-1916 2441 6725 0
-6722 -6724 0
6723 6724 6722 0
-6723 -1915 0
-6723 2440 0
6723 -2440 1915 0
-6722 1915 0
-6722 -2440 0
-1915 2440 6722 0
-6728 -6730 0
-1917 2442 6728 0
-6731 -6733 0
-6732 -6733 0
6731 6733 6732 0
-6732 -1918 0
-6732 2443 0
1918 -2443 6732 0
-6731 1918 0
-6731 -2443 0
2443 -1918 6731 0
-6734 -6736 0
-6735 -6736 0
6735 6736 6734 0
-6735 -1919 0
-6735 2444 0
-2444 1919 6735 0
-6734 1919 0
-6734 -2444 0
2444 -1919 6734 0
-6737 -6739 0
-6738 -6739 0
6738 6739 6737 0
-6738 -1920 0
-6738 2445 0
-2445 1920 6738 0
-6737 1920 0
-6737 -2445 0
2445 -1920 6737 0
-6740 -6742 0
6742 6740 6741 0
-6741 -1921 0
-6741 2446 0
1921 -2446 6741 0
-6740 1921 0
-6740 -2446 0
2446 -1921 6740 0
-1053 6720 6721 0
6714 -6720 0
6719 -6720 0
6711 -6719 0
6718 -6719 0
6708 -6718 0
6717 -6718 0
6705 -6717 0
6716 -6717 0
6702 -6716 0
6715 -6716 0
6699 -6715 0
-6697 -6699 0
-6698 -6699 0
6698 6699 6697 0
-6698 -1916 0
-2343 1916 6698 0
-2343 -6697 0
2343 -1916 6697 0
6695 6694 6696 0
-1915 -6695 0
-6700 -6702 0
-6701 -6702 0
6700 6702 6701 0
-6701 -1917 0
-6701 2344 0
-2344 1917 6701 0
-2344 -6700 0
2344 -1917 6700 0
-6703 -6705 0
-6704 -6705 0
6703 6705 6704 0
-6704 -1918 0
-6704 2345 0
-2345 1918 6704 0
1918 -6703 0
-2345 -6703 0
2345 -1918 6703 0
-6706 -6708 0
-6707 -6708 0
6707 6708 6706 0
-6707 -1919 0
-6707 2346 0
-2346 1919 6707 0
-6706 1919 0
-6706 -2346 0
2346 -1919 6706 0
-6709 -6711 0
-6710 -6711 0
6711 6710 6709 0
-6710 -1920 0
-6710 2347 0
-2347 1920 6710 0
-6709 1920 0
-6709 -2347 0
2347 -1920 6709 0
-6712 -6714 0
6714 6713 6712 0
-6713 -1921 0
-6713 2348 0
-6712 1921 0
-6712 -2348 0
2348 -1921 6712 0
6692 -6665 6693 0
-6692 6686 0
6691 -6692 0
6683 -6691 0
6690 -6691 0
6680 -6690 0
6689 -6690 0
6677 -6689 0
6688 -6689 0
6674 -6688 0
6687 -6688 0
6668 -6687 0
6671 -6687 0
6669 6670 6671 0
-1916 -6670 0
-6670 2231 0
-2231 1916 6670 0
-6669 1916 0
-6669 -2231 0
6667 6668 6666 0
-6666 1915 0
-6666 -2230 0
-6673 -6674 0
6672 6674 6673 0
-6673 -1917 0
-6673 2232 0
1917 6673 -2232 0
-6672 1917 0
-6672 -2232 0
-6676 -6677 0
6675 6677 6676 0
-6676 -1918 0
-6676 2233 0
1918 -2233 6676 0
-6675 1918 0
-6675 -2233 0
-6678 -6680 0
-6679 -6680 0
6680 6679 6678 0
-6679 -1919 0
-6679 2234 0
6679 -2234 1919 0
-6678 1919 0
-6678 -2234 0
-1919 6678 2234 0
-6681 -6683 0
-6682 -6683 0
6683 6681 6682 0
-6682 -1920 0
-6682 2235 0
-2235 6682 1920 0
-6681 1920 0
-6681 -2235 0
-1920 6681 2235 0
-6684 -6686 0
6686 6684 6685 0
-6684 1921 0
-6684 -2236 0
6665 -487 -489 0
-6636 6663 6664 0
6657 -6663 0
6662 -6663 0
6654 -6662 0
6661 -6662 0
6651 -6661 0
6660 -6661 0
6648 -6660 0
6659 -6660 0
6645 -6659 0
6658 -6659 0
6642 -6658 0
-6640 -6642 0
-6641 -6642 0
6640 6642 6641 0
-6641 -1790 0
-6641 2609 0
1790 -2609 6641 0
-6640 1790 0
-6640 -2609 0
2609 -1790 6640 0
-6639 -6638 0
6637 6638 6639 0
-6638 -1789 0
-6638 2608 0
1789 -2608 6638 0
-6637 1789 0
-6637 -2608 0
-6643 -6645 0
6644 6645 6643 0
-6644 -1791 0
-6644 2610 0
6644 1791 -2610 0
-6643 1791 0
-6643 -2610 0
2610 -1791 6643 0
-6646 -6648 0
-6647 -6648 0
6646 6648 6647 0
-6647 -1792 0
-6647 2611 0
-2611 1792 6647 0
-6646 1792 0
-6646 -2611 0
2611 -1792 6646 0
-6649 -6651 0
-6650 -6651 0
6649 6651 6650 0
-6650 -1793 0
-6650 2612 0
1793 -2612 6650 0
-6649 1793 0
-6649 -2612 0
2612 -1793 6649 0
-6652 -6654 0
-6653 -6654 0
6653 6654 6652 0
-6653 -1794 0
-6653 2613 0
-2613 1794 6653 0
-6652 1794 0
-6652 -2613 0
-1794 2613 6652 0
-6655 -6657 0
-6656 -6657 0
6657 6655 6656 0
-6656 2614 0
1795 -2614 6656 0
-6655 1795 0
-6655 -2614 0
2614 -1795 6655 0
-486 -497 6636 0
-6607 6634 6635 0
6628 -6634 0
6633 -6634 0
6625 -6633 0
6632 -6633 0
6622 -6632 0
6631 -6632 0
6619 -6631 0
6630 -6631 0
6616 -6630 0
6629 -6630 0
6610 -6629 0
-6608 -6610 0
2594 -1789 6608 0
-6614 -6616 0
2596 -1791 6614 0
-6617 -6619 0
6618 -2597 1792 0
2597 -1792 6617 0
-6620 -6622 0
-6621 -6622 0
6620 6622 6621 0
-6621 -1793 0
-6621 2598 0
1793 -2598 6621 0
-6620 1793 0
-6620 -2598 0
2598 -1793 6620 0
-6623 -6625 0
-6624 -6625 0
6623 6625 6624 0
-6624 -1794 0
-6624 2599 0
-2599 1794 6624 0
-6623 1794 0
-6623 -2599 0
-1794 2599 6623 0
-6626 -6628 0
6628 6626 6627 0
-6627 -1795 0
-6627 2600 0
-6626 1795 0
-6626 -2600 0
2600 -1795 6626 0
-486 -496 6607 0
-6578 6605 6606 0
6599 -6605 0
6604 -6605 0
6596 -6604 0
6603 -6604 0
6593 -6603 0
6602 -6603 0
6590 -6602 0
6601 -6602 0
6587 -6601 0
-6585 -6587 0
-1791 2582 6585 0
-6588 -6590 0
6589 -2583 1792 0
-1792 2583 6588 0
-6591 -6593 0
6592 6593 6591 0
-6592 -1793 0
-6591 1793 0
-6591 -2584 0
2584 -1793 6591 0
-6594 -6596 0
-6595 -6596 0
6595 6596 6594 0
-6595 -1794 0
-6595 2585 0
-2585 1794 6595 0
-6594 1794 0
-6594 -2585 0
-1794 2585 6594 0
-6597 -6599 0
6599 6597 6598 0
-6598 -1795 0
-6598 2586 0
1795 -2586 6598 0
-6597 1795 0
-6597 -2586 0
2586 -1795 6597 0
-486 -495 6578 0
-6549 6576 6577 0
6570 -6576 0
6575 -6576 0
6567 -6575 0
6574 -6575 0
6564 -6574 0
6573 -6574 0
6561 -6573 0
6572 -6573 0
6558 -6572 0
-6556 -6558 0
-1791 2568 6556 0
-6559 -6561 0
-6560 -6561 0
6559 6561 6560 0
-6560 -1792 0
1792 -2569 6560 0
-6559 1792 0
-6559 -2569 0
-1792 2569 6559 0
-6562 -6564 0
-6563 -6564 0
6562 6564 6563 0
-6563 -1793 0
-6563 2570 0
1793 -2570 6563 0
-6562 1793 0
-6562 -2570 0
2570 -1793 6562 0
-6565 -6567 0
6566 6567 6565 0
-1794 -6566 0
-6566 2571 0
-6565 1794 0
-6565 -2571 0
-1794 2571 6565 0
-6568 -6570 0
6570 6568 6569 0
-6569 -1795 0
2572 -6569 0
1795 -2572 6569 0
-6568 1795 0
-6568 -2572 0
2572 -1795 6568 0
-486 -494 6549 0
-1050 6547 6548 0
6541 -6547 0
6546 -6547 0
6538 -6546 0
6545 -6546 0
6535 -6545 0
6544 -6545 0
6532 -6544 0
-6530 -6532 0
-1792 2555 6530 0
-6533 -6535 0
-6534 -6535 0
1793 -2556 6534 0
-1793 2556 6533 0
-6536 -6538 0
-6537 -6538 0
1794 -2557 6537 0
-1794 2557 6536 0
-6539 -6541 0
2558 -1795 6539 0
-1047 6519 6520 0
6513 -6519 0
6518 -6519 0
6510 -6518 0
6517 -6518 0
6507 -6517 0
6516 -6517 0
6504 -6516 0
6515 -6516 0
6501 -6515 0
6514 -6515 0
6498 -6514 0
-6496 -6498 0
2539 -1790 6496 0
-6499 -6501 0
-1791 2540 6499 0
-6502 -6504 0
-1792 2541 6502 0
-6505 -6507 0
2542 -1793 6505 0
-6508 -6510 0
-6509 -6510 0
-2543 1794 6509 0
-1794 2543 6508 0
-6511 -6513 0
-6512 -6513 0
1795 -2544 6512 0
2544 -1795 6511 0
-6464 6491 6492 0
6485 -6491 0
6490 -6491 0
6482 -6490 0
6489 -6490 0
6479 -6489 0
6488 -6489 0
6476 -6488 0
6487 -6488 0
6473 -6487 0
6486 -6487 0
6467 -6486 0
6470 -6486 0
-6469 -6470 0
1790 -2441 6469 0
-6465 -6467 0
-6466 -6467 0
1789 -2440 6466 0
-1789 2440 6465 0
-6471 -6473 0
-6472 -6473 0
1791 -2442 6472 0
-1791 2442 6471 0
-6474 -6476 0
-6475 -6476 0
6475 6476 6474 0
-6475 -1792 0
-6475 2443 0
1792 -2443 6475 0
-6474 1792 0
-6474 -2443 0
-1792 2443 6474 0
-6477 -6479 0
6478 6479 6477 0
-6478 -1793 0
-6478 2444 0
-6477 1793 0
-6477 -2444 0
2444 -1793 6477 0
-6480 -6482 0
-6481 -6482 0
6481 6482 6480 0
-6481 -1794 0
-6481 2445 0
-2445 1794 6481 0
-6480 1794 0
-6480 -2445 0
-1794 2445 6480 0
-6483 -6485 0
6485 6484 6483 0
-6484 -1795 0
-6484 2446 0
-6483 1795 0
-6483 -2446 0
2446 -1795 6483 0
-486 -491 6464 0
-1044 6462 6463 0
6456 -6462 0
6461 -6462 0
6453 -6461 0
6460 -6461 0
6450 -6460 0
6459 -6460 0
6447 -6459 0
6458 -6459 0
6444 -6458 0
6457 -6458 0
6441 -6457 0
-6439 -6441 0
-6440 -6441 0
6440 6441 6439 0
-6440 -1790 0
-2343 1790 6440 0
-2343 -6439 0
2343 -1790 6439 0
6436 6438 6437 0
-6437 -1789 0
-6442 -6444 0
-6443 -6444 0
6443 6444 6442 0
-6443 -1791 0
-6443 2344 0
-2344 1791 6443 0
1791 -6442 0
-2344 -6442 0
2344 -1791 6442 0
-6445 -6447 0
-6446 -6447 0
6446 6447 6445 0
-6446 -1792 0
-6446 2345 0
-2345 1792 6446 0
1792 -6445 0
-2345 -6445 0
2345 -1792 6445 0
-6448 -6450 0
-6449 -6450 0
6448 6450 6449 0
-6449 -1793 0
-6449 2346 0
-2346 1793 6449 0
-6448 1793 0
-6448 -2346 0
2346 -1793 6448 0
-6451 -6453 0
-6452 -6453 0
6451 6453 6452 0
-6452 -1794 0
-6452 2347 0
-2347 1794 6452 0
-6451 1794 0
-6451 -2347 0
-1794 2347 6451 0
-6454 -6456 0
-6455 -6456 0
6456 6455 6454 0
-6455 -1795 0
-6455 2348 0
1795 -2348 6455 0
1795 -6454 0
-6454 -2348 0
2348 -1795 6454 0
6434 -6407 6435 0
6428 -6434 0
6433 -6434 0
-6433 6425 0
-6433 6432 0
6422 -6432 0
6431 -6432 0
-6431 6419 0
-6431 6430 0
6416 -6430 0
6429 -6430 0
-6429 6410 0
-6429 6413 0
-6410 -6408 0
-6409 -6410 0
6408 6409 6410 0
-1789 -6409 0
-6409 2230 0
6409 1789 -2230 0
1789 -6408 0
-2230 -6408 0
6408 -1789 2230 0
6414 -1791 2232 0
6417 6418 6419 0
-6418 -1792 0
-6417 -2233 0
-6421 -6422 0
6420 6422 6421 0
-6421 -1793 0
-6421 2234 0
1793 -2234 6421 0
-6420 1793 0
-6420 -2234 0
-6423 -6425 0
-6424 -6425 0
6423 6425 6424 0
-1794 -6424 0
-6424 2235 0
1794 -2235 6424 0
-6423 1794 0
-6423 -2235 0
6423 -1794 2235 0
-6428 -6426 0
6428 6426 6427 0
-6427 -1795 0
-6427 2236 0
1795 -2236 6427 0
1795 -6426 0
-6426 -2236 0
2236 -1795 6426 0
6407 -486 -489 0
6405 -6378 6406 0
6399 -6405 0
6404 -6405 0
6396 -6404 0
6403 -6404 0
6393 -6403 0
6402 -6403 0
6390 -6402 0
6401 -6402 0
6387 -6401 0
6400 -6401 0
6381 -6400 0
6384 -6400 0
6384 6382 6383 0
-6383 -1790 0
-6383 2119 0
1790 -2119 6383 0
1790 -6382 0
-6382 -2119 0
-1790 6382 2119 0
-6379 -6381 0
-6380 -6381 0
6381 6379 6380 0
-1789 -6380 0
-6380 2118 0
1789 -2118 6380 0
1789 -6379 0
-6379 -2118 0
-1789 2118 6379 0
-6385 -6387 0
6387 6385 6386 0
-6386 -1791 0
-6386 2120 0
1791 -2120 6386 0
1791 -6385 0
-6385 -2120 0
-1791 2120 6385 0
-6388 -6390 0
6390 6388 6389 0
-6389 -1792 0
-6389 2121 0
1792 -2121 6389 0
1792 -6388 0
-6388 -2121 0
-1792 2121 6388 0
-6391 -6393 0
-6392 -6393 0
6393 6391 6392 0
-6392 -1793 0
-6392 2122 0
1793 -2122 6392 0
-6391 1793 0
-6391 -2122 0
-1793 2122 6391 0
-6394 -6396 0
-6395 -6396 0
6396 6394 6395 0
-1794 -6395 0
-6395 2123 0
1794 -2123 6395 0
-6394 1794 0
-6394 -2123 0
-1794 2123 6394 0
-6397 -6399 0
6399 6397 6398 0
-6398 -1795 0
-6398 2124 0
1795 -2124 6398 0
1795 -6397 0
-6397 -2124 0
2124 -1795 6397 0
6378 -486 -488 0
-6349 6376 6377 0
6370 -6376 0
6375 -6376 0
6367 -6375 0
6374 -6375 0
6364 -6374 0
6373 -6374 0
6361 -6373 0
6372 -6373 0
6358 -6372 0
6371 -6372 0
6352 -6371 0
6355 -6371 0
6353 6354 6355 0
-6354 -1790 0
1916 -6354 0
6354 -1916 1790 0
-6353 1790 0
-6353 -1916 0
-6350 -6352 0
6350 6352 6351 0
-6351 1915 0
-6350 1789 0
-6350 -1915 0
-1789 1915 6350 0
-6357 -6358 0
6356 6358 6357 0
-6357 -1791 0
1917 -6357 0
-1917 1791 6357 0
1791 -6356 0
-6356 -1917 0
6356 1917 -1791 0
-6360 -6361 0
6359 6361 6360 0
-6360 -1792 0
1918 -6360 0
-1918 1792 6360 0
-6359 1792 0
-6359 -1918 0
-6362 -6364 0
-6363 -6364 0
6362 6364 6363 0
-6363 -1793 0
-6363 1919 0
1793 -1919 6363 0
-6362 1793 0
-6362 -1919 0
-1793 1919 6362 0
-6365 -6367 0
-6366 -6367 0
6365 6367 6366 0
-1794 -6366 0
-6366 1920 0
-1920 1794 6366 0
-6365 1794 0
-6365 -1920 0
-1794 1920 6365 0
-6368 -6370 0
-6369 -6370 0
6370 6368 6369 0
-6369 -1795 0
-6369 1921 0
1795 -1921 6369 0
1795 -6368 0
-6368 -1921 0
1921 -1795 6368 0
-486 -487 6349 0
-6347 4293 6348 0
-393 6347 -391 0
-6345 4178 6346 0
-397 6345 -390 0
-227 6343 6344 0
6337 -6343 0
6342 -6343 0
-6337 6343 -6342 0
6334 -6342 0
6341 -6342 0
-6341 6342 -6334 0
6331 -6341 0
6340 -6341 0
-6340 6341 -6331 0
6328 -6340 0
6339 -6340 0
6340 -6339 -6328 0
6325 -6339 0
6338 -6339 0
-6338 6339 -6325 0
6319 -6338 0
6322 -6338 0
6338 -6322 -6319 0
-6320 -6322 0
-6321 -6322 0
6320 6322 6321 0
-6321 -2413 0
-6321 2427 0
2413 -2427 6321 0
-6320 2413 0
-6320 -2427 0
2427 -2413 6320 0
-6317 -6319 0
-6318 -6319 0
6317 6319 6318 0
-6318 -2412 0
-6318 2426 0
2412 -2426 6318 0
-6317 2412 0
-6317 -2426 0
2426 -2412 6317 0
-6323 -6325 0
-6324 -6325 0
6323 6325 6324 0
-6324 -2414 0
-6324 2428 0
2414 -2428 6324 0
-6323 2414 0
-6323 -2428 0
2428 -2414 6323 0
-6326 -6328 0
-6327 -6328 0
6326 6328 6327 0
-6327 -2415 0
-6327 2429 0
2415 -2429 6327 0
-6326 2415 0
-6326 -2429 0
2429 -2415 6326 0
-6329 -6331 0
-6330 -6331 0
6329 6331 6330 0
-6330 -2416 0
-6330 2430 0
2416 -2430 6330 0
-6329 2416 0
-6329 -2430 0
2430 -2416 6329 0
-6332 -6334 0
-6333 -6334 0
6332 6334 6333 0
-6333 -2417 0
-6333 2431 0
2417 -2431 6333 0
-6332 2417 0
-6332 -2431 0
-2417 2431 6332 0
-6335 -6337 0
-6336 -6337 0
6337 6336 6335 0
-6336 -2418 0
-6336 2432 0
2418 -2432 6336 0
-6335 2418 0
-6335 -2432 0
2432 -2418 6335 0
-6288 6315 6316 0
6309 -6315 0
6314 -6315 0
-6309 6315 -6314 0
6306 -6314 0
6313 -6314 0
-6313 6314 -6306 0
6303 -6313 0
6312 -6313 0
-6312 6313 -6303 0
6300 -6312 0
6311 -6312 0
6312 -6311 -6300 0
6297 -6311 0
6310 -6311 0
-6310 6311 -6297 0
6291 -6310 0
6294 -6310 0
6310 -6294 -6291 0
-6292 -6294 0
-6293 -6294 0
6292 6294 6293 0
-6293 -2399 0
-6293 2427 0
-2427 2399 6293 0
-6292 2399 0
-6292 -2427 0
2427 -2399 6292 0
-6289 -6291 0
-6290 -6291 0
6289 6291 6290 0
-6290 -2398 0
-6290 2426 0
-2426 2398 6290 0
-6289 2398 0
-6289 -2426 0
2426 -2398 6289 0
-6295 -6297 0
-6296 -6297 0
6295 6297 6296 0
-6296 -2400 0
-6296 2428 0
2400 -2428 6296 0
-6295 2400 0
-6295 -2428 0
2428 -2400 6295 0
-6298 -6300 0
-6299 -6300 0
6298 6300 6299 0
-6299 -2401 0
-6299 2429 0
2401 -2429 6299 0
-6298 2401 0
-6298 -2429 0
2429 -2401 6298 0
-6301 -6303 0
-6302 -6303 0
6302 6303 6301 0
-6302 -2402 0
-6302 2430 0
2402 -2430 6302 0
-6301 2402 0
-6301 -2430 0
2430 -2402 6301 0
-6304 -6306 0
-6305 -6306 0
6304 6306 6305 0
-6305 -2403 0
-6305 2431 0
-2431 2403 6305 0
-6304 2403 0
-6304 -2431 0
-2403 2431 6304 0
-6307 -6309 0
-6308 -6309 0
6309 6308 6307 0
-6308 -2404 0
-6308 2432 0
2404 -2432 6308 0
-6307 2404 0
-6307 -2432 0
2432 -2404 6307 0
-206 -208 6288 0
-6259 6286 6287 0
6280 -6286 0
6285 -6286 0
-6280 6286 -6285 0
6277 -6285 0
6284 -6285 0
-6284 6285 -6277 0
6274 -6284 0
6283 -6284 0
-6283 6284 -6274 0
6271 -6283 0
6282 -6283 0
6283 -6282 -6271 0
6268 -6282 0
6281 -6282 0
-6281 6282 -6268 0
6262 -6281 0
6265 -6281 0
6281 -6265 -6262 0
-6263 -6265 0
-6264 -6265 0
6263 6265 6264 0
-6264 -2399 0
-6264 2413 0
2399 -2413 6264 0
-6263 2399 0
-6263 -2413 0
2413 -2399 6263 0
-6260 -6262 0
-6261 -6262 0
6262 6261 6260 0
-6261 -2398 0
-6261 2412 0
2398 -2412 6261 0
-6260 2398 0
-6260 -2412 0
2412 -2398 6260 0
-6266 -6268 0
-6267 -6268 0
6266 6268 6267 0
-6267 -2400 0
-6267 2414 0
2400 -2414 6267 0
-6266 2400 0
-6266 -2414 0
2414 -2400 6266 0
-6269 -6271 0
-6270 -6271 0
6269 6271 6270 0
-6270 -2401 0
-6270 2415 0
2401 -2415 6270 0
-6269 2401 0
-6269 -2415 0
2415 -2401 6269 0
-6272 -6274 0
-6273 -6274 0
6273 6274 6272 0
-6273 -2402 0
-6273 2416 0
2402 -2416 6273 0
-6272 2402 0
-6272 -2416 0
2416 -2402 6272 0
-6275 -6277 0
-6276 -6277 0
6275 6277 6276 0
-6276 -2403 0
-6276 2417 0
-2417 2403 6276 0
-6275 2403 0
-6275 -2417 0
2417 -2403 6275 0
-6278 -6280 0
-6279 -6280 0
6280 6279 6278 0
-6279 -2404 0
-6279 2418 0
2404 -2418 6279 0
-6278 2404 0
-6278 -2418 0
2418 -2404 6278 0
-206 -207 6259 0
-6230 6257 6258 0
6251 -6257 0
6256 -6257 0
-6251 6257 -6256 0
6248 -6256 0
6255 -6256 0
-6255 6256 -6248 0
6245 -6255 0
6254 -6255 0
-6254 6255 -6245 0
6242 -6254 0
6253 -6254 0
6254 -6253 -6242 0
6239 -6253 0
6252 -6253 0
-6252 6253 -6239 0
6233 -6252 0
6236 -6252 0
6252 -6236 -6233 0
-6234 -6236 0
-6235 -6236 0
6234 6236 6235 0
-6235 -2385 0
-6235 2427 0
-2427 2385 6235 0
-6234 2385 0
-6234 -2427 0
2427 -2385 6234 0
-6231 -6233 0
-6232 -6233 0
6231 6233 6232 0
-6232 -2384 0
-6232 2426 0
-2426 2384 6232 0
-6231 2384 0
-6231 -2426 0
2426 -2384 6231 0
-6237 -6239 0
-6238 -6239 0
6237 6239 6238 0
-6238 -2386 0
-6238 2428 0
2386 -2428 6238 0
-6237 2386 0
-6237 -2428 0
2428 -2386 6237 0
-6240 -6242 0
-6241 -6242 0
6240 6242 6241 0
-6241 -2387 0
-6241 2429 0
2387 -2429 6241 0
-6240 2387 0
-6240 -2429 0
2429 -2387 6240 0
-6243 -6245 0
-6244 -6245 0
6243 6245 6244 0
-6244 -2388 0
-6244 2430 0
2388 -2430 6244 0
-6243 2388 0
-6243 -2430 0
2430 -2388 6243 0
-6246 -6248 0
-6247 -6248 0
6246 6248 6247 0
-6247 -2389 0
-6247 2431 0
-2431 2389 6247 0
-6246 2389 0
-6246 -2431 0
-2389 2431 6246 0
-6249 -6251 0
-6250 -6251 0
6251 6250 6249 0
-6250 -2390 0
-6250 2432 0
2390 -2432 6250 0
-6249 2390 0
-6249 -2432 0
2432 -2390 6249 0
-205 -208 6230 0
-6201 6228 6229 0
6222 -6228 0
6227 -6228 0
-6222 6228 -6227 0
6219 -6227 0
6226 -6227 0
-6226 6227 -6219 0
6216 -6226 0
6225 -6226 0
-6225 6226 -6216 0
6213 -6225 0
6224 -6225 0
6225 -6224 -6213 0
6210 -6224 0
6223 -6224 0
-6223 6224 -6210 0
6204 -6223 0
6207 -6223 0
6223 -6207 -6204 0
-6205 -6207 0
-6206 -6207 0
6205 6207 6206 0
-6206 -2385 0
-6206 2413 0
2385 -2413 6206 0
-6205 2385 0
-6205 -2413 0
-2385 2413 6205 0
-6202 -6204 0
-6203 -6204 0
6204 6203 6202 0
-6203 -2384 0
-6203 2412 0
2384 -2412 6203 0
-6202 2384 0
-6202 -2412 0
-2384 2412 6202 0
-6208 -6210 0
-6209 -6210 0
6208 6210 6209 0
-6209 -2386 0
-6209 2414 0
2386 -2414 6209 0
-6208 2386 0
-6208 -2414 0
2414 -2386 6208 0
-6211 -6213 0
-6212 -6213 0
6211 6213 6212 0
-6212 -2387 0
-6212 2415 0
2387 -2415 6212 0
-6211 2387 0
-6211 -2415 0
2415 -2387 6211 0
-6214 -6216 0
-6215 -6216 0
6214 6216 6215 0
-6215 -2388 0
-6215 2416 0
2388 -2416 6215 0
-6214 2388 0
-6214 -2416 0
2416 -2388 6214 0
-6217 -6219 0
-6218 -6219 0
6217 6219 6218 0
-6218 -2389 0
-6218 2417 0
-2417 2389 6218 0
-6217 2389 0
-6217 -2417 0
-2389 2417 6217 0
-6220 -6222 0
-6221 -6222 0
6222 6221 6220 0
-6221 -2390 0
-6221 2418 0
2390 -2418 6221 0
-6220 2390 0
-6220 -2418 0
2418 -2390 6220 0
-205 -207 6201 0
-6172 6199 6200 0
6193 -6199 0
6198 -6199 0
-6193 6199 -6198 0
6190 -6198 0
6197 -6198 0
6198 -6197 -6190 0
6187 -6197 0
6196 -6197 0
-6196 6197 -6187 0
6184 -6196 0
6195 -6196 0
6196 -6195 -6184 0
6181 -6195 0
6194 -6195 0
-6194 6195 -6181 0
6175 -6194 0
6178 -6194 0
6194 -6178 -6175 0
-6176 -6178 0
-6177 -6178 0
6176 6178 6177 0
-6177 -2385 0
-6177 2399 0
2385 -2399 6177 0
-6176 2385 0
-6176 -2399 0
-2385 2399 6176 0
-6173 -6175 0
-6174 -6175 0
6173 6175 6174 0
-6174 -2384 0
-6174 2398 0
-2398 2384 6174 0
-6173 2384 0
-6173 -2398 0
-2384 2398 6173 0
-6179 -6181 0
-6180 -6181 0
6179 6181 6180 0
-6180 -2386 0
-6180 2400 0
2386 -2400 6180 0
-6179 2386 0
-6179 -2400 0
2400 -2386 6179 0
-6182 -6184 0
-6183 -6184 0
6182 6184 6183 0
-6183 -2387 0
-6183 2401 0
2387 -2401 6183 0
-6182 2387 0
-6182 -2401 0
2401 -2387 6182 0
-6185 -6187 0
-6186 -6187 0
6185 6187 6186 0
-6186 -2388 0
-6186 2402 0
2388 -2402 6186 0
-6185 2388 0
-6185 -2402 0
2402 -2388 6185 0
-6188 -6190 0
-6189 -6190 0
6188 6190 6189 0
-6189 -2389 0
-6189 2403 0
-2403 2389 6189 0
-6188 2389 0
-6188 -2403 0
-2389 2403 6188 0
-6191 -6193 0
-6192 -6193 0
6193 6192 6191 0
-6192 -2390 0
-6192 2404 0
2390 -2404 6192 0
-6191 2390 0
-6191 -2404 0
2404 -2390 6191 0
-205 -206 6172 0
-6143 6170 6171 0
6164 -6170 0
6169 -6170 0
-6164 -6169 6170 0
6161 -6169 0
6168 -6169 0
6169 -6168 -6161 0
6158 -6168 0
6167 -6168 0
-6167 6168 -6158 0
6155 -6167 0
6166 -6167 0
6167 -6166 -6155 0
6152 -6166 0
6165 -6166 0
-6165 6166 -6152 0
6146 -6165 0
6149 -6165 0
6165 -6149 -6146 0
-6147 -6149 0
-6148 -6149 0
6149 6148 6147 0
-6148 -2371 0
-6148 2427 0
-2427 2371 6148 0
-6147 2371 0
-6147 -2427 0
2427 -2371 6147 0
-6144 -6146 0
-6145 -6146 0
6146 6145 6144 0
-6145 -2370 0
-6145 2426 0
-2426 2370 6145 0
-6144 2370 0
-6144 -2426 0
2426 -2370 6144 0
-6150 -6152 0
-6151 -6152 0
6152 6151 6150 0
-6151 -2372 0
-6151 2428 0
-2428 2372 6151 0
-6150 2372 0
-6150 -2428 0
2428 -2372 6150 0
-6153 -6155 0
-6154 -6155 0
6155 6154 6153 0
-6154 -2373 0
-6154 2429 0
-2429 2373 6154 0
-6153 2373 0
-6153 -2429 0
2429 -2373 6153 0
-6156 -6158 0
-6157 -6158 0
6158 6157 6156 0
-6157 -2374 0
-6157 2430 0
-2430 2374 6157 0
-6156 2374 0
-6156 -2430 0
2430 -2374 6156 0
-6159 -6161 0
-6160 -6161 0
6161 6160 6159 0
-6160 -2375 0
-6160 2431 0
-2431 2375 6160 0
-6159 2375 0
-6159 -2431 0
2431 -2375 6159 0
-6162 -6164 0
-6163 -6164 0
6164 6162 6163 0
-6163 -2376 0
-6163 2432 0
2376 -2432 6163 0
-6162 2376 0
-6162 -2432 0
2432 -2376 6162 0
-204 -208 6143 0
-6114 6141 6142 0
6135 -6141 0
6140 -6141 0
-6135 -6140 6141 0
6132 -6140 0
6139 -6140 0
6140 -6139 -6132 0
6129 -6139 0
6138 -6139 0
-6138 6139 -6129 0
6126 -6138 0
6137 -6138 0
6138 -6137 -6126 0
6123 -6137 0
6136 -6137 0
-6136 6137 -6123 0
6117 -6136 0
6120 -6136 0
-6117 6136 -6120 0
-6118 -6120 0
-6119 -6120 0
6120 6119 6118 0
-6119 -2371 0
-6119 2413 0
-2413 2371 6119 0
-6118 2371 0
-6118 -2413 0
2413 -2371 6118 0
-6115 -6117 0
-6116 -6117 0
6117 6116 6115 0
-6116 -2370 0
-6116 2412 0
2370 -2412 6116 0
-6115 2370 0
-6115 -2412 0
2412 -2370 6115 0
-6121 -6123 0
-6122 -6123 0
6123 6122 6121 0
-6122 -2372 0
-6122 2414 0
-2414 2372 6122 0
-6121 2372 0
-2414 -6121 0
2414 -2372 6121 0
-6124 -6126 0
-6125 -6126 0
6126 6125 6124 0
-6125 -2373 0
-6125 2415 0
-2415 2373 6125 0
-6124 2373 0
-2415 -6124 0
2415 -2373 6124 0
-6127 -6129 0
-6128 -6129 0
6129 6128 6127 0
-6128 -2374 0
-6128 2416 0
-2416 2374 6128 0
-6127 2374 0
-2416 -6127 0
2416 -2374 6127 0
-6130 -6132 0
-6131 -6132 0
6132 6131 6130 0
-6131 -2375 0
-6131 2417 0
-2417 2375 6131 0
-6130 2375 0
-2417 -6130 0
2417 -2375 6130 0
-6133 -6135 0
-6134 -6135 0
6135 6133 6134 0
-6134 -2376 0
-6134 2418 0
2376 -2418 6134 0
-6133 2376 0
-6133 -2418 0
2418 -2376 6133 0
-204 -207 6114 0
-6085 6112 6113 0
6106 -6112 0
6111 -6112 0
-6111 -6106 6112 0
6103 -6111 0
6110 -6111 0
6111 -6110 -6103 0
6100 -6110 0
6109 -6110 0
-6109 6110 -6100 0
6097 -6109 0
6108 -6109 0
6109 -6108 -6097 0
6094 -6108 0
6107 -6108 0
-6107 6108 -6094 0
6088 -6107 0
6091 -6107 0
-6088 6107 -6091 0
-6089 -6091 0
-6090 -6091 0
6091 6090 6089 0
-6090 -2371 0
-6090 2399 0
-2399 2371 6090 0
-6089 2371 0
-6089 -2399 0
2399 -2371 6089 0
-6086 -6088 0
-6087 -6088 0
6088 6087 6086 0
-6087 -2370 0
-6087 2398 0
-2398 2370 6087 0
-6086 2370 0
-6086 -2398 0
2398 -2370 6086 0
-6092 -6094 0
-6093 -6094 0
6094 6093 6092 0
-6093 -2372 0
-6093 2400 0
-2400 2372 6093 0
-6092 2372 0
-2400 -6092 0
2400 -2372 6092 0
-6095 -6097 0
-6096 -6097 0
6097 6096 6095 0
-6096 -2373 0
-6096 2401 0
-2401 2373 6096 0
-6095 2373 0
-2401 -6095 0
2401 -2373 6095 0
-6098 -6100 0
-6099 -6100 0
6100 6099 6098 0
-6099 -2374 0
-6099 2402 0
-2402 2374 6099 0
-6098 2374 0
-6098 -2402 0
2402 -2374 6098 0
-6101 -6103 0
-6102 -6103 0
6103 6102 6101 0
-6102 -2375 0
-6102 2403 0
-2403 2375 6102 0
-6101 2375 0
-2403 -6101 0
2403 -2375 6101 0
-6104 -6106 0
-6105 -6106 0
6106 6104 6105 0
-6105 -2376 0
-6105 2404 0
2376 -2404 6105 0
-6104 2376 0
-6104 -2404 0
2404 -2376 6104 0
-206 -204 6085 0
-6056 6083 6084 0
6077 -6083 0
6082 -6083 0
-6077 -6082 6083 0
6074 -6082 0
6081 -6082 0
6082 -6081 -6074 0
6071 -6081 0
6080 -6081 0
-6080 6081 -6071 0
6068 -6080 0
6079 -6080 0
6080 -6079 -6068 0
6065 -6079 0
6078 -6079 0
-6078 6079 -6065 0
6059 -6078 0
6062 -6078 0
6078 -6059 -6062 0
-6060 -6062 0
-6061 -6062 0
6062 6061 6060 0
-6061 -2371 0
2385 -6061 0
-2385 2371 6061 0
-6060 2371 0
-6060 -2385 0
2385 -2371 6060 0
-6057 -6059 0
-6058 -6059 0
6059 6058 6057 0
-6058 -2370 0
-6058 2384 0
-2384 2370 6058 0
-6057 2370 0
-6057 -2384 0
2384 -2370 6057 0
-6063 -6065 0
-6064 -6065 0
6065 6064 6063 0
-6064 -2372 0
2386 -6064 0
-2386 2372 6064 0
-6063 2372 0
-6063 -2386 0
2386 -2372 6063 0
-6066 -6068 0
-6067 -6068 0
6068 6067 6066 0
-6067 -2373 0
2387 -6067 0
-2387 2373 6067 0
-6066 2373 0
-6066 -2387 0
2387 -2373 6066 0
-6069 -6071 0
-6070 -6071 0
6071 6070 6069 0
-6070 -2374 0
-6070 2388 0
-2388 2374 6070 0
-6069 2374 0
-6069 -2388 0
2388 -2374 6069 0
-6072 -6074 0
-6073 -6074 0
6074 6073 6072 0
-6073 -2375 0
-6073 2389 0
-2389 2375 6073 0
-6072 2375 0
-2389 -6072 0
2389 -2375 6072 0
-6075 -6077 0
-6076 -6077 0
6077 6075 6076 0
-6076 -2376 0
2390 -6076 0
2376 -2390 6076 0
-6075 2376 0
-6075 -2390 0
2390 -2376 6075 0
-205 -204 6056 0
-6027 6054 6055 0
6048 -6054 0
6053 -6054 0
-6048 -6053 6054 0
6045 -6053 0
6052 -6053 0
6053 -6052 -6045 0
6042 -6052 0
6051 -6052 0
-6051 6052 -6042 0
6039 -6051 0
6050 -6051 0
6051 -6050 -6039 0
6036 -6050 0
6049 -6050 0
-6049 6050 -6036 0
6030 -6049 0
6033 -6049 0
6049 -6030 -6033 0
-6031 -6033 0
-6032 -6033 0
6031 6033 6032 0
-2357 -6032 0
2427 -6032 0
2357 -2427 6032 0
2357 -6031 0
-2427 -6031 0
-2357 2427 6031 0
-6028 -6030 0
-6029 -6030 0
6028 6030 6029 0
-2356 -6029 0
2426 -6029 0
-2426 2356 6029 0
-6028 2356 0
-2426 -6028 0
-2356 2426 6028 0
-6034 -6036 0
-6035 -6036 0
6034 6036 6035 0
-6035 -2358 0
2428 -6035 0
2358 -2428 6035 0
2358 -6034 0
-2428 -6034 0
-2358 2428 6034 0
-6037 -6039 0
-6038 -6039 0
6037 6039 6038 0
-6038 -2359 0
2429 -6038 0
2359 -2429 6038 0
2359 -6037 0
-2429 -6037 0
-2359 2429 6037 0
-6040 -6042 0
-6041 -6042 0
6040 6042 6041 0
-6041 -2360 0
2430 -6041 0
2360 -2430 6041 0
-6040 2360 0
-6040 -2430 0
2430 -2360 6040 0
-6043 -6045 0
-6044 -6045 0
6043 6045 6044 0
-2361 -6044 0
-6044 2431 0
-2431 2361 6044 0
-6043 2361 0
-2431 -6043 0
-2361 2431 6043 0
-6046 -6048 0
-6047 -6048 0
6048 6046 6047 0
-6047 -2362 0
2432 -6047 0
2362 -2432 6047 0
2362 -6046 0
-6046 -2432 0
2432 -2362 6046 0
-203 -208 6027 0
-5998 6025 6026 0
6019 -6025 0
6024 -6025 0
-6024 -6019 6025 0
6016 -6024 0
6023 -6024 0
6024 -6023 -6016 0
6013 -6023 0
6022 -6023 0
-6022 6023 -6013 0
6010 -6022 0
6021 -6022 0
6022 -6021 -6010 0
6007 -6021 0
6020 -6021 0
-6020 6021 -6007 0
6001 -6020 0
6004 -6020 0
6020 -6001 -6004 0
-6002 -6004 0
-6003 -6004 0
6002 6004 6003 0
-2357 -6003 0
2413 -6003 0
2357 -2413 6003 0
2357 -6002 0
-2413 -6002 0
-2357 2413 6002 0
-5999 -6001 0
-6000 -6001 0
6000 6001 5999 0
-2356 -6000 0
2412 -6000 0
2356 -2412 6000 0
-5999 2356 0
-5999 -2412 0
-2356 2412 5999 0
-6005 -6007 0
-6006 -6007 0
6005 6007 6006 0
-6006 -2358 0
2414 -6006 0
2358 -2414 6006 0
2358 -6005 0
-2414 -6005 0
-2358 2414 6005 0
-6008 -6010 0
-6009 -6010 0
6008 6010 6009 0
-6009 -2359 0
2415 -6009 0
2359 -2415 6009 0
2359 -6008 0
-2415 -6008 0
-2359 2415 6008 0
-6011 -6013 0
-6012 -6013 0
6011 6013 6012 0
-6012 -2360 0
2416 -6012 0
2360 -2416 6012 0
-6011 2360 0
-2416 -6011 0
2416 -2360 6011 0
-6014 -6016 0
-6015 -6016 0
6014 6016 6015 0
-2361 -6015 0
2417 -6015 0
-2417 2361 6015 0
-6014 2361 0
-2417 -6014 0
-2361 2417 6014 0
-6017 -6019 0
-6018 -6019 0
6019 6017 6018 0
-6018 -2362 0
2418 -6018 0
2362 -2418 6018 0
2362 -6017 0
-6017 -2418 0
2418 -2362 6017 0
-203 -207 5998 0
-5969 5996 5997 0
5995 -5996 0
-5990 -5995 5996 0
5994 -5995 0
5995 -5994 -5987 0
5984 -5994 0
5993 -5994 0
-5993 5994 -5984 0
5981 -5993 0
5992 -5993 0
5993 -5992 -5981 0
5991 -5992 0
-5991 5992 -5978 0
5972 -5991 0
5991 -5972 -5975 0
-5973 -5975 0
-5974 -5975 0
5973 5975 5974 0
-2357 -5974 0
-5974 2399 0
2357 -2399 5974 0
2357 -5973 0
-2399 -5973 0
-2357 2399 5973 0
-5970 -5972 0
-5971 -5972 0
5970 5972 5971 0
-2356 -5971 0
-5971 2398 0
-2398 2356 5971 0
-5970 2356 0
-2398 -5970 0
-2356 2398 5970 0
-5976 -5978 0
-5977 -5978 0
5976 5978 5977 0
-5977 -2358 0
-5977 2400 0
2358 -2400 5977 0
2358 -5976 0
-2400 -5976 0
-2358 2400 5976 0
-5979 -5981 0
-5980 -5981 0
5979 5981 5980 0
-5980 -2359 0
-5980 2401 0
2359 -2401 5980 0
2359 -5979 0
-2401 -5979 0
-2359 2401 5979 0
-5982 -5984 0
-5983 -5984 0
5982 5984 5983 0
-5983 -2360 0
-5983 2402 0
-2402 2360 5983 0
-5982 2360 0
-5982 -2402 0
2402 -2360 5982 0
-5985 -5987 0
-5986 -5987 0
5985 5987 5986 0
-2361 -5986 0
-5986 2403 0
-2403 2361 5986 0
-5985 2361 0
-2403 -5985 0
-2361 2403 5985 0
-5988 -5990 0
-5989 -5990 0
5990 5988 5989 0
-5989 -2362 0
-5989 2404 0
2362 -2404 5989 0
2362 -5988 0
-5988 -2404 0
2404 -2362 5988 0
-203 -206 5969 0
-5940 5967 5968 0
5961 -5967 0
5966 -5967 0
-5961 -5966 5967 0
5958 -5966 0
5965 -5966 0
5966 -5965 -5958 0
5955 -5965 0
5964 -5965 0
-5964 5965 -5955 0
5952 -5964 0
5963 -5964 0
5964 -5963 -5952 0
5949 -5963 0
5962 -5963 0
-5962 5963 -5949 0
5943 -5962 0
5946 -5962 0
5962 -5943 -5946 0
-5944 -5946 0
-5945 -5946 0
5944 5946 5945 0
-2357 -5945 0
2385 -5945 0
2357 -2385 5945 0
2357 -5944 0
-2385 -5944 0
-2357 2385 5944 0
-5941 -5943 0
-5942 -5943 0
5941 5943 5942 0
-2356 -5942 0
-5942 2384 0
-2384 2356 5942 0
-5941 2356 0
-2384 -5941 0
-2356 2384 5941 0
-5947 -5949 0
-5948 -5949 0
5947 5949 5948 0
-5948 -2358 0
2386 -5948 0
2358 -2386 5948 0
2358 -5947 0
-5947 -2386 0
-2358 2386 5947 0
-5950 -5952 0
-5951 -5952 0
5950 5952 5951 0
-5951 -2359 0
2387 -5951 0
2359 -2387 5951 0
2359 -5950 0
-5950 -2387 0
2387 -2359 5950 0
-5953 -5955 0
-5954 -5955 0
5953 5955 5954 0
-5954 -2360 0
-5954 2388 0
2360 -2388 5954 0
-5953 2360 0
-5953 -2388 0
2388 -2360 5953 0
-5956 -5958 0
-5957 -5958 0
5956 5958 5957 0
-2361 -5957 0
-5957 2389 0
-2389 2361 5957 0
-5956 2361 0
-2389 -5956 0
-2361 2389 5956 0
-5959 -5961 0
-5960 -5961 0
5961 5959 5960 0
-5960 -2362 0
2390 -5960 0
2362 -2390 5960 0
2362 -5959 0
-5959 -2390 0
2390 -2362 5959 0
-203 -205 5940 0
-5911 5938 5939 0
5932 -5938 0
5937 -5938 0
-5937 5938 -5932 0
5929 -5937 0
5936 -5937 0
5937 -5936 -5929 0
5926 -5936 0
5935 -5936 0
-5935 5936 -5926 0
5923 -5935 0
5934 -5935 0
5935 -5934 -5923 0
5920 -5934 0
5933 -5934 0
-5933 5934 -5920 0
5914 -5933 0
5917 -5933 0
5933 -5914 -5917 0
-5915 -5917 0
-5916 -5917 0
5916 5917 5915 0
-2343 -5916 0
2427 -5916 0
2343 -2427 5916 0
-5915 2343 0
-5915 -2427 0
-2343 2427 5915 0
-5913 -5914 0
5913 5914 5912 0
-5913 -2342 0
-5913 2426 0
-2426 2342 5913 0
-5912 2342 0
-5912 -2426 0
-5918 -5920 0
-5919 -5920 0
5919 5920 5918 0
-2344 -5919 0
2428 -5919 0
2344 -2428 5919 0
-5918 2344 0
-5918 -2428 0
-2344 2428 5918 0
-5921 -5923 0
-5922 -5923 0
5922 5923 5921 0
-2345 -5922 0
2429 -5922 0
2345 -2429 5922 0
-5921 2345 0
-5921 -2429 0
-2345 2429 5921 0
-5924 -5926 0
-5925 -5926 0
5925 5926 5924 0
-5925 -2346 0
2430 -5925 0
2346 -2430 5925 0
-5924 2346 0
-5924 -2430 0
-2346 2430 5924 0
-5927 -5929 0
-5928 -5929 0
5928 5929 5927 0
-5928 -2347 0
-5928 2431 0
-2431 2347 5928 0
-5927 2347 0
-5927 -2431 0
2431 -2347 5927 0
-5930 -5932 0
-5931 -5932 0
5932 5930 5931 0
-5931 -2348 0
2432 -5931 0
2348 -2432 5931 0
-5930 2348 0
-5930 -2432 0
2432 -2348 5930 0
-202 -208 5911 0
-5882 5909 5910 0
5903 -5909 0
5908 -5909 0
-5903 5909 -5908 0
5900 -5908 0
5907 -5908 0
-5907 5908 -5900 0
5897 -5907 0
5906 -5907 0
-5906 5907 -5897 0
5894 -5906 0
5905 -5906 0
5906 -5905 -5894 0
5891 -5905 0
5904 -5905 0
-5904 5905 -5891 0
5885 -5904 0
5888 -5904 0
5904 -5885 -5888 0
-5886 -5888 0
-5887 -5888 0
5888 5887 5886 0
-2343 -5887 0
2413 -5887 0
2343 -2413 5887 0
2343 -5886 0
-2413 -5886 0
-2343 2413 5886 0
-5883 -5885 0
-5884 -5885 0
5883 5885 5884 0
-2342 -5884 0
2412 -5884 0
2342 -2412 5884 0
2342 -5883 0
-2412 -5883 0
-2342 2412 5883 0
-5889 -5891 0
-5890 -5891 0
5891 5890 5889 0
-2344 -5890 0
2414 -5890 0
2344 -2414 5890 0
2344 -5889 0
-2414 -5889 0
-2344 2414 5889 0
-5892 -5894 0
-5893 -5894 0
5894 5893 5892 0
-2345 -5893 0
2415 -5893 0
2345 -2415 5893 0
2345 -5892 0
-2415 -5892 0
-2345 2415 5892 0
-5895 -5897 0
-5896 -5897 0
5897 5896 5895 0
-5896 -2346 0
2416 -5896 0
2346 -2416 5896 0
2346 -5895 0
-2416 -5895 0
-2346 2416 5895 0
-5898 -5900 0
-5899 -5900 0
5900 5899 5898 0
-5899 -2347 0
2417 -5899 0
-2417 2347 5899 0
-5898 2347 0
-2417 -5898 0
2417 -2347 5898 0
-5901 -5903 0
-5902 -5903 0
5903 5901 5902 0
-5902 -2348 0
2418 -5902 0
2348 -2418 5902 0
2348 -5901 0
-5901 -2418 0
2418 -2348 5901 0
-202 -207 5882 0
-5853 5880 5881 0
5874 -5880 0
5879 -5880 0
-5874 5880 -5879 0
5871 -5879 0
5878 -5879 0
5879 -5878 -5871 0
5868 -5878 0
5877 -5878 0
-5877 5878 -5868 0
5865 -5877 0
5876 -5877 0
5877 -5876 -5865 0
5862 -5876 0
5875 -5876 0
-5875 5876 -5862 0
5856 -5875 0
5859 -5875 0
5875 -5856 -5859 0
-5857 -5859 0
-5858 -5859 0
5859 5858 5857 0
-2343 -5858 0
2399 -5858 0
2343 -2399 5858 0
2343 -5857 0
-2399 -5857 0
-2343 2399 5857 0
-5854 -5856 0
-5855 -5856 0
5855 5856 5854 0
-2342 -5855 0
-5855 2398 0
-2398 2342 5855 0
-5854 2342 0
-2398 -5854 0
-2342 2398 5854 0
-5860 -5862 0
-5861 -5862 0
5862 5861 5860 0
-2344 -5861 0
2400 -5861 0
2344 -2400 5861 0
2344 -5860 0
-2400 -5860 0
-2344 2400 5860 0
-5863 -5865 0
-5864 -5865 0
5865 5864 5863 0
-2345 -5864 0
2401 -5864 0
2345 -2401 5864 0
2345 -5863 0
-2401 -5863 0
-2345 2401 5863 0
-5866 -5868 0
-5867 -5868 0
5868 5867 5866 0
-5867 -2346 0
2402 -5867 0
2346 -2402 5867 0
2346 -5866 0
-5866 -2402 0
-2346 2402 5866 0
-5869 -5871 0
-5870 -5871 0
5871 5870 5869 0
-5870 -2347 0
-5870 2403 0
-2403 2347 5870 0
-5869 2347 0
-2403 -5869 0
2403 -2347 5869 0
-5872 -5874 0
-5873 -5874 0
5874 5872 5873 0
-5873 -2348 0
2404 -5873 0
2348 -2404 5873 0
2348 -5872 0
-5872 -2404 0
2404 -2348 5872 0
-202 -206 5853 0
-5824 5851 5852 0
5845 -5851 0
5850 -5851 0
-5850 -5845 5851 0
5842 -5850 0
5849 -5850 0
5850 -5849 -5842 0
5839 -5849 0
5848 -5849 0
-5848 5849 -5839 0
5836 -5848 0
5847 -5848 0
5848 -5847 -5836 0
5833 -5847 0
5846 -5847 0
-5846 5847 -5833 0
5827 -5846 0
5830 -5846 0
5846 -5827 -5830 0
-5828 -5830 0
-5829 -5830 0
5828 5830 5829 0
-2343 -5829 0
2385 -5829 0
2343 -2385 5829 0
2343 -5828 0
-2385 -5828 0
-2343 2385 5828 0
-5825 -5827 0
-5826 -5827 0
5827 5826 5825 0
-5826 -2342 0
-5826 2384 0
-2384 2342 5826 0
-5825 2342 0
-5825 -2384 0
-2342 2384 5825 0
-5831 -5833 0
-5832 -5833 0
5831 5833 5832 0
-2344 -5832 0
2386 -5832 0
2344 -2386 5832 0
2344 -5831 0
-5831 -2386 0
-2344 2386 5831 0
-5834 -5836 0
-5835 -5836 0
5834 5836 5835 0
-2345 -5835 0
2387 -5835 0
2345 -2387 5835 0
2345 -5834 0
-5834 -2387 0
-2345 2387 5834 0
-5837 -5839 0
-5838 -5839 0
5837 5839 5838 0
-5838 -2346 0
-5838 2388 0
2346 -2388 5838 0
2346 -5837 0
-5837 -2388 0
-2346 2388 5837 0
-5840 -5842 0
-5841 -5842 0
5840 5842 5841 0
-5841 -2347 0
-5841 2389 0
-2389 2347 5841 0
-5840 2347 0
-2389 -5840 0
2389 -2347 5840 0
-5843 -5845 0
-5844 -5845 0
5845 5843 5844 0
-5844 -2348 0
2390 -5844 0
2348 -2390 5844 0
2348 -5843 0
-5843 -2390 0
2390 -2348 5843 0
-202 -205 5824 0
-5795 5822 5823 0
5816 -5822 0
5821 -5822 0
-5816 5822 -5821 0
5813 -5821 0
5820 -5821 0
5821 -5820 -5813 0
5810 -5820 0
5819 -5820 0
-5819 5820 -5810 0
5807 -5819 0
5818 -5819 0
5819 -5818 -5807 0
5804 -5818 0
5817 -5818 0
-5817 5818 -5804 0
5798 -5817 0
5801 -5817 0
5817 -5798 -5801 0
-5799 -5801 0
-5800 -5801 0
5800 5801 5799 0
-5800 -2329 0
-5800 2427 0
-2427 2329 5800 0
-5799 2329 0
-5799 -2427 0
2427 -2329 5799 0
-5796 -5798 0
-5797 -5798 0
5797 5798 5796 0
-5797 -2328 0
-5797 2426 0
2328 -2426 5797 0
2328 -5796 0
-2426 -5796 0
2426 -2328 5796 0
-5802 -5804 0
-5803 -5804 0
5803 5804 5802 0
-5803 -2330 0
-5803 2428 0
-2428 2330 5803 0
-5802 2330 0
-5802 -2428 0
2428 -2330 5802 0
-5805 -5807 0
-5806 -5807 0
5806 5807 5805 0
-5806 -2331 0
-5806 2429 0
-2429 2331 5806 0
-5805 2331 0
-5805 -2429 0
2429 -2331 5805 0
-5808 -5810 0
-5809 -5810 0
5809 5810 5808 0
-5809 -2332 0
-5809 2430 0
2332 -2430 5809 0
-5808 2332 0
-5808 -2430 0
2430 -2332 5808 0
-5811 -5813 0
-5812 -5813 0
5812 5813 5811 0
-5812 -2333 0
-5812 2431 0
-2431 2333 5812 0
-5811 2333 0
-5811 -2431 0
2431 -2333 5811 0
-5814 -5816 0
-5815 -5816 0
5816 5815 5814 0
-5815 -2334 0
-5815 2432 0
2334 -2432 5815 0
-5814 2334 0
-5814 -2432 0
2432 -2334 5814 0
-201 -208 5795 0
-5766 5793 5794 0
5787 -5793 0
5792 -5793 0
-5792 5793 -5787 0
5784 -5792 0
5791 -5792 0
5792 -5791 -5784 0
5781 -5791 0
5790 -5791 0
-5790 5791 -5781 0
5778 -5790 0
5789 -5790 0
5790 -5789 -5778 0
5775 -5789 0
5788 -5789 0
-5788 5789 -5775 0
5769 -5788 0
5772 -5788 0
5788 -5769 -5772 0
-5770 -5772 0
-5771 -5772 0
5771 5772 5770 0
-5771 -2329 0
-5771 2413 0
-2413 2329 5771 0
-5770 2329 0
-5770 -2413 0
2413 -2329 5770 0
-5767 -5769 0
-5768 -5769 0
5768 5769 5767 0
-5768 -2328 0
-5768 2412 0
2328 -2412 5768 0
2328 -5767 0
-5767 -2412 0
2412 -2328 5767 0
-5773 -5775 0
-5774 -5775 0
5774 5775 5773 0
-5774 -2330 0
-5774 2414 0
-2414 2330 5774 0
-5773 2330 0
-5773 -2414 0
2414 -2330 5773 0
-5776 -5778 0
-5777 -5778 0
5777 5778 5776 0
-5777 -2331 0
-5777 2415 0
-2415 2331 5777 0
-5776 2331 0
-5776 -2415 0
2415 -2331 5776 0
-5779 -5781 0
-5780 -5781 0
5780 5781 5779 0
-5780 -2332 0
-5780 2416 0
-2416 2332 5780 0
-5779 2332 0
-5779 -2416 0
2416 -2332 5779 0
-5782 -5784 0
-5783 -5784 0
5783 5784 5782 0
-5783 -2333 0
-5783 2417 0
-2417 2333 5783 0
-5782 2333 0
-5782 -2417 0
2417 -2333 5782 0
-5785 -5787 0
-5786 -5787 0
5787 5786 5785 0
-5786 -2334 0
-5786 2418 0
2334 -2418 5786 0
-5785 2334 0
-5785 -2418 0
2418 -2334 5785 0
-201 -207 5766 0
-5737 5764 5765 0
5758 -5764 0
5763 -5764 0
-5758 5764 -5763 0
5755 -5763 0
5762 -5763 0
-5762 5763 -5755 0
5752 -5762 0
5761 -5762 0
-5761 5762 -5752 0
5749 -5761 0
5760 -5761 0
5761 -5760 -5749 0
5746 -5760 0
5759 -5760 0
-5759 5760 -5746 0
5740 -5759 0
5743 -5759 0
5759 -5740 -5743 0
-5741 -5743 0
-5742 -5743 0
5742 5743 5741 0
-5742 -2329 0
-5742 2399 0
-2399 2329 5742 0
-5741 2329 0
-5741 -2399 0
2399 -2329 5741 0
-5738 -5740 0
-5739 -5740 0
5739 5740 5738 0
-5739 -2328 0
-5739 2398 0
2328 -2398 5739 0
-5738 2328 0
-5738 -2398 0
2398 -2328 5738 0
-5744 -5746 0
-5745 -5746 0
5745 5746 5744 0
-5745 -2330 0
-5745 2400 0
-2400 2330 5745 0
-5744 2330 0
-5744 -2400 0
2400 -2330 5744 0
-5747 -5749 0
-5748 -5749 0
5748 5749 5747 0
-5748 -2331 0
-5748 2401 0
-2401 2331 5748 0
-5747 2331 0
-5747 -2401 0
2401 -2331 5747 0
-5750 -5752 0
-5751 -5752 0
5751 5752 5750 0
-5751 -2332 0
-5751 2402 0
-2402 2332 5751 0
-5750 2332 0
-5750 -2402 0
2402 -2332 5750 0
-5753 -5755 0
-5754 -5755 0
5754 5755 5753 0
-5754 -2333 0
-5754 2403 0
-2403 2333 5754 0
-5753 2333 0
-5753 -2403 0
2403 -2333 5753 0
-5756 -5758 0
-5757 -5758 0
5758 5757 5756 0
-5757 -2334 0
-5757 2404 0
2334 -2404 5757 0
-5756 2334 0
-5756 -2404 0
2404 -2334 5756 0
-201 -206 5737 0
5729 -5735 0
5734 -5735 0
-5729 5735 -5734 0
5726 -5734 0
5733 -5734 0
-5733 5734 -5726 0
5723 -5733 0
5732 -5733 0
-5732 5733 -5723 0
5720 -5732 0
5731 -5732 0
5732 -5731 -5720 0
5717 -5731 0
5730 -5731 0
-5730 5731 -5717 0
5711 -5730 0
5714 -5730 0
5730 -5714 -5711 0
-5712 -5714 0
-5713 -5714 0
5712 5714 5713 0
-5713 -2329 0
-5713 2385 0
-2385 2329 5713 0
-5712 2329 0
-5712 -2385 0
2385 -2329 5712 0
-5709 -5711 0
-5710 -5711 0
5709 5711 5710 0
-5710 -2328 0
-5710 2384 0
2328 -2384 5710 0
-5709 2328 0
-5709 -2384 0
2384 -2328 5709 0
-5715 -5717 0
-5716 -5717 0
5715 5717 5716 0
-5716 -2330 0
-5716 2386 0
-2386 2330 5716 0
-5715 2330 0
-5715 -2386 0
2386 -2330 5715 0
-5718 -5720 0
-5719 -5720 0
5718 5720 5719 0
-5719 -2331 0
-5719 2387 0
2331 -2387 5719 0
-5718 2331 0
-5718 -2387 0
2387 -2331 5718 0
-5721 -5723 0
-5722 -5723 0
5721 5723 5722 0
-5722 -2332 0
-5722 2388 0
2332 -2388 5722 0
-5721 2332 0
-5721 -2388 0
2388 -2332 5721 0
-5724 -5726 0
-5725 -5726 0
5724 5726 5725 0
-5725 -2333 0
-5725 2389 0
-2389 2333 5725 0
-5724 2333 0
-5724 -2389 0
2389 -2333 5724 0
-5727 -5729 0
-5728 -5729 0
5729 5728 5727 0
-5728 -2334 0
-5728 2390 0
2334 -2390 5728 0
-5727 2334 0
-5727 -2390 0
2390 -2334 5727 0
-5679 5706 5707 0
5700 -5706 0
5705 -5706 0
-5700 -5705 5706 0
5697 -5705 0
5704 -5705 0
5705 -5704 -5697 0
5694 -5704 0
5703 -5704 0
-5703 5704 -5694 0
5691 -5703 0
5702 -5703 0
5703 -5702 -5691 0
5688 -5702 0
5701 -5702 0
-5701 5702 -5688 0
5682 -5701 0
5685 -5701 0
5701 -5685 -5682 0
-5683 -5685 0
-5684 -5685 0
5683 5685 5684 0
-5684 2427 0
-5684 -5616 0
5616 -2427 5684 0
-5683 -2427 0
-5683 5616 0
-5616 2427 5683 0
-5680 -5682 0
-5681 -5682 0
5680 5682 5681 0
-5681 2426 0
-5681 -5615 0
5615 -2426 5681 0
-5680 -2426 0
-5680 5615 0
2426 -5615 5680 0
-5686 -5688 0
-5687 -5688 0
5686 5688 5687 0
-5687 2428 0
-5687 -5617 0
5617 -2428 5687 0
-5686 -2428 0
-5686 5617 0
-5617 2428 5686 0
-5689 -5691 0
-5690 -5691 0
5689 5691 5690 0
-5690 2429 0
-5690 -5618 0
5618 -2429 5690 0
-5689 -2429 0
-5689 5618 0
-5618 2429 5689 0
-5692 -5694 0
-5693 -5694 0
5692 5694 5693 0
-5693 2430 0
-5693 -5619 0
5619 -2430 5693 0
-5692 -2430 0
-5692 5619 0
-5619 2430 5692 0
-5695 -5697 0
-5696 -5697 0
5695 5697 5696 0
-5696 2431 0
-5696 -5620 0
5620 -2431 5696 0
-5695 -2431 0
-5695 5620 0
-5620 2431 5695 0
-5698 -5700 0
-5699 -5700 0
5700 5699 5698 0
-5699 2432 0
-5699 -5621 0
5621 -2432 5699 0
-5698 -2432 0
-5698 5621 0
2432 -5621 5698 0
-200 -208 5679 0
-5650 5677 5678 0
5671 -5677 0
5676 -5677 0
-5671 -5676 5677 0
5668 -5676 0
5675 -5676 0
-5675 5676 -5668 0
5665 -5675 0
5674 -5675 0
-5674 5675 -5665 0
5662 -5674 0
5673 -5674 0
5674 -5673 -5662 0
5659 -5673 0
5672 -5673 0
-5672 5673 -5659 0
5653 -5672 0
5656 -5672 0
5672 -5656 -5653 0
-5654 -5656 0
-5655 -5656 0
5654 5656 5655 0
-5655 2413 0
-5655 -5616 0
5616 -2413 5655 0
-5654 -2413 0
-5654 5616 0
-5616 2413 5654 0
-5651 -5653 0
-5652 -5653 0
5652 5653 5651 0
-5652 2412 0
-5652 -5615 0
5615 -2412 5652 0
-5651 -2412 0
-5651 5615 0
2412 -5615 5651 0
-5657 -5659 0
-5658 -5659 0
5657 5659 5658 0
-5658 2414 0
-5658 -5617 0
5617 -2414 5658 0
-5657 -2414 0
-5657 5617 0
-5617 2414 5657 0
-5660 -5662 0
-5661 -5662 0
5660 5662 5661 0
-5661 2415 0
-5661 -5618 0
5618 -2415 5661 0
-5660 -2415 0
-5660 5618 0
-5618 2415 5660 0
-5663 -5665 0
-5664 -5665 0
5664 5665 5663 0
-5664 2416 0
-5664 -5619 0
5619 -2416 5664 0
-5663 -2416 0
-5663 5619 0
-5619 2416 5663 0
-5666 -5668 0
-5667 -5668 0
5666 5668 5667 0
-5667 2417 0
-5667 -5620 0
5620 -2417 5667 0
-5666 -2417 0
-5666 5620 0
-5620 2417 5666 0
-5669 -5671 0
-5670 -5671 0
5671 5670 5669 0
-5670 2418 0
-5670 -5621 0
5621 -2418 5670 0
-5669 -2418 0
-5669 5621 0
2418 -5621 5669 0
-200 -207 5650 0
-5614 5648 5649 0
5642 -5648 0
5647 -5648 0
-5642 -5647 5648 0
5639 -5647 0
5646 -5647 0
5647 -5646 -5639 0
5636 -5646 0
5645 -5646 0
-5645 5646 -5636 0
5633 -5645 0
5644 -5645 0
5645 -5644 -5633 0
5630 -5644 0
5643 -5644 0
-5643 5644 -5630 0
5624 -5643 0
5627 -5643 0
5643 -5627 -5624 0
-5625 -5627 0
-5626 -5627 0
5625 5627 5626 0
-5626 2399 0
-5626 -5616 0
5616 -2399 5626 0
-5625 -2399 0
-5625 5616 0
-5616 2399 5625 0
-5622 -5624 0
-5623 -5624 0
5622 5624 5623 0
-5623 2398 0
-5623 -5615 0
5615 -2398 5623 0
-5622 -2398 0
-5622 5615 0
2398 -5615 5622 0
-5628 -5630 0
-5629 -5630 0
5628 5630 5629 0
-5629 2400 0
-5629 -5617 0
5617 -2400 5629 0
-5628 -2400 0
-5628 5617 0
-5617 2400 5628 0
-5631 -5633 0
-5632 -5633 0
5631 5633 5632 0
-5632 2401 0
-5632 -5618 0
5618 -2401 5632 0
-5631 -2401 0
-5631 5618 0
-5618 2401 5631 0
-5634 -5636 0
-5635 -5636 0
5635 5636 5634 0
-5635 2402 0
-5635 -5619 0
5619 -2402 5635 0
-5634 -2402 0
-5634 5619 0
-5619 2402 5634 0
-5637 -5639 0
-5638 -5639 0
5637 5639 5638 0
-5638 2403 0
-5638 -5620 0
5620 -2403 5638 0
-5637 -2403 0
-5637 5620 0
-5620 2403 5637 0
-5640 -5642 0
-5641 -5642 0
5642 5641 5640 0
-5641 2404 0
-5641 -5621 0
5621 -2404 5641 0
-5640 -2404 0
-5640 5621 0
2404 -5621 5640 0
-200 -206 5614 0
-5585 5612 5613 0
5606 -5612 0
5611 -5612 0
-5606 -5611 5612 0
5603 -5611 0
5610 -5611 0
-5610 5611 -5603 0
5600 -5610 0
5609 -5610 0
-5609 5610 -5600 0
5597 -5609 0
5608 -5609 0
5609 -5608 -5597 0
5594 -5608 0
5607 -5608 0
-5607 5608 -5594 0
5588 -5607 0
5591 -5607 0
5607 -5588 -5591 0
-5589 -5591 0
-5590 -5591 0
5590 5591 5589 0
-5590 -2028 0
-5590 2427 0
-2427 2028 5590 0
-5589 2028 0
-5589 -2427 0
2427 -2028 5589 0
-5586 -5588 0
-5587 -5588 0
5587 5588 5586 0
-5587 -2027 0
-5587 2426 0
-2426 2027 5587 0
-5586 2027 0
-5586 -2426 0
2426 -2027 5586 0
-5592 -5594 0
-5593 -5594 0
5593 5594 5592 0
-5593 -2029 0
-5593 2428 0
-2428 2029 5593 0
-5592 2029 0
-5592 -2428 0
2428 -2029 5592 0
-5595 -5597 0
-5596 -5597 0
5596 5597 5595 0
-5596 -2030 0
-5596 2429 0
-2429 2030 5596 0
-5595 2030 0
-5595 -2429 0
2429 -2030 5595 0
-5598 -5600 0
-5599 -5600 0
5599 5600 5598 0
-5599 -2031 0
-5599 2430 0
-2430 2031 5599 0
-5598 2031 0
-5598 -2430 0
2430 -2031 5598 0
-5601 -5603 0
-5602 -5603 0
5602 5603 5601 0
-5602 -2032 0
-5602 2431 0
-2431 2032 5602 0
-5601 2032 0
-5601 -2431 0
2431 -2032 5601 0
-5604 -5606 0
-5605 -5606 0
5606 5605 5604 0
-5605 -2033 0
-5605 2432 0
2033 -2432 5605 0
-5604 2033 0
-5604 -2432 0
2432 -2033 5604 0
-199 -208 5585 0
-5556 5583 5584 0
5577 -5583 0
5582 -5583 0
-5577 -5582 5583 0
5574 -5582 0
5581 -5582 0
5582 -5581 -5574 0
5571 -5581 0
5580 -5581 0
-5580 5581 -5571 0
5568 -5580 0
5579 -5580 0
5580 -5579 -5568 0
5565 -5579 0
5578 -5579 0
-5578 5579 -5565 0
5559 -5578 0
5562 -5578 0
5578 -5559 -5562 0
-5560 -5562 0
-5561 -5562 0
5561 5562 5560 0
-5561 -2028 0
-5561 2413 0
-2413 2028 5561 0
-5560 2028 0
-5560 -2413 0
2413 -2028 5560 0
-5557 -5559 0
-5558 -5559 0
5558 5559 5557 0
-5558 -2027 0
-5558 2412 0
2027 -2412 5558 0
-5557 2027 0
-5557 -2412 0
2412 -2027 5557 0
-5563 -5565 0
-5564 -5565 0
5564 5565 5563 0
-5564 -2029 0
-5564 2414 0
-2414 2029 5564 0
-5563 2029 0
-5563 -2414 0
2414 -2029 5563 0
-5566 -5568 0
-5567 -5568 0
5567 5568 5566 0
-5567 -2030 0
-5567 2415 0
-2415 2030 5567 0
-5566 2030 0
-5566 -2415 0
2415 -2030 5566 0
-5569 -5571 0
-5570 -5571 0
5570 5571 5569 0
-5570 -2031 0
-5570 2416 0
-2416 2031 5570 0
-5569 2031 0
-5569 -2416 0
2416 -2031 5569 0
-5572 -5574 0
-5573 -5574 0
5573 5574 5572 0
-5573 -2032 0
-5573 2417 0
-2417 2032 5573 0
-5572 2032 0
-5572 -2417 0
2417 -2032 5572 0
-5575 -5577 0
-5576 -5577 0
5577 5576 5575 0
-5576 -2033 0
-5576 2418 0
2033 -2418 5576 0
-5575 2033 0
-5575 -2418 0
2418 -2033 5575 0
-199 -207 5556 0
-5527 5554 5555 0
5548 -5554 0
5553 -5554 0
-5553 -5548 5554 0
5545 -5553 0
5552 -5553 0
-5552 5553 -5545 0
5542 -5552 0
5551 -5552 0
-5551 5552 -5542 0
5539 -5551 0
5550 -5551 0
5551 -5550 -5539 0
5536 -5550 0
5549 -5550 0
-5549 5550 -5536 0
5530 -5549 0
5533 -5549 0
5549 -5533 -5530 0
-5531 -5533 0
-5532 -5533 0
5532 5533 5531 0
-5532 -2028 0
-5532 2399 0
-2399 2028 5532 0
-5531 2028 0
-5531 -2399 0
2399 -2028 5531 0
-5528 -5530 0
-5529 -5530 0
5529 5530 5528 0
-5529 -2027 0
-5529 2398 0
-2398 2027 5529 0
-5528 2027 0
-5528 -2398 0
2398 -2027 5528 0
-5534 -5536 0
-5535 -5536 0
5535 5536 5534 0
-5535 -2029 0
-5535 2400 0
-2400 2029 5535 0
-5534 2029 0
-5534 -2400 0
2400 -2029 5534 0
-5537 -5539 0
-5538 -5539 0
5538 5539 5537 0
-5538 -2030 0
-5538 2401 0
-2401 2030 5538 0
-5537 2030 0
-5537 -2401 0
2401 -2030 5537 0
-5540 -5542 0
-5541 -5542 0
5541 5542 5540 0
-5541 -2031 0
-5541 2402 0
-2402 2031 5541 0
-5540 2031 0
-5540 -2402 0
2402 -2031 5540 0
-5543 -5545 0
-5544 -5545 0
5544 5545 5543 0
-5544 -2032 0
-5544 2403 0
-2403 2032 5544 0
-5543 2032 0
-5543 -2403 0
2403 -2032 5543 0
-5546 -5548 0
-5547 -5548 0
5548 5547 5546 0
-5547 -2033 0
-5547 2404 0
2033 -2404 5547 0
-5546 2033 0
-5546 -2404 0
2404 -2033 5546 0
-199 -206 5527 0
-5498 5525 5526 0
5519 -5525 0
5524 -5525 0
-5519 -5524 5525 0
5516 -5524 0
5523 -5524 0
5524 -5523 -5516 0
5513 -5523 0
5522 -5523 0
-5522 5523 -5513 0
5510 -5522 0
5521 -5522 0
5522 -5521 -5510 0
5507 -5521 0
5520 -5521 0
-5520 5521 -5507 0
5501 -5520 0
5504 -5520 0
5520 -5504 -5501 0
-5502 -5504 0
-5503 -5504 0
5502 5504 5503 0
-5503 -2028 0
-5503 2385 0
-2385 2028 5503 0
-5502 2028 0
-5502 -2385 0
2385 -2028 5502 0
-5499 -5501 0
-5500 -5501 0
5499 5501 5500 0
-5500 -2027 0
-5500 2384 0
-2384 2027 5500 0
-5499 2027 0
-5499 -2384 0
2384 -2027 5499 0
-5505 -5507 0
-5506 -5507 0
5505 5507 5506 0
-5506 -2029 0
-5506 2386 0
-2386 2029 5506 0
-5505 2029 0
-5505 -2386 0
2386 -2029 5505 0
-5508 -5510 0
-5509 -5510 0
5508 5510 5509 0
-5509 -2030 0
-5509 2387 0
-2387 2030 5509 0
-5508 2030 0
-5508 -2387 0
2387 -2030 5508 0
-5511 -5513 0
-5512 -5513 0
5513 5512 5511 0
-5512 -2031 0
-5512 2388 0
-2388 2031 5512 0
-5511 2031 0
-5511 -2388 0
2388 -2031 5511 0
-5514 -5516 0
-5515 -5516 0
5516 5515 5514 0
-5515 -2032 0
-5515 2389 0
-2389 2032 5515 0
-5514 2032 0
-5514 -2389 0
2389 -2032 5514 0
-5517 -5519 0
-5518 -5519 0
5519 5518 5517 0
-5518 -2033 0
-5518 2390 0
2033 -2390 5518 0
-5517 2033 0
-5517 -2390 0
2390 -2033 5517 0
-199 -205 5498 0
-5469 5496 5497 0
5490 -5496 0
5495 -5496 0
-5495 -5490 5496 0
5487 -5495 0
5494 -5495 0
5495 -5494 -5487 0
5484 -5494 0
5493 -5494 0
-5493 5494 -5484 0
5481 -5493 0
5492 -5493 0
5493 -5492 -5481 0
5478 -5492 0
5491 -5492 0
-5491 5492 -5478 0
5472 -5491 0
5475 -5491 0
5491 -5472 -5475 0
-5473 -5475 0
-5474 -5475 0
5473 5475 5474 0
-1888 -5474 0
2427 -5474 0
1888 -2427 5474 0
1888 -5473 0
-2427 -5473 0
2427 -1888 5473 0
-5470 -5472 0
-5471 -5472 0
5470 5472 5471 0
-5471 -1887 0
2426 -5471 0
-2426 1887 5471 0
-5470 1887 0
-2426 -5470 0
2426 -1887 5470 0
-5476 -5478 0
-5477 -5478 0
5476 5478 5477 0
-5477 -1889 0
2428 -5477 0
1889 -2428 5477 0
1889 -5476 0
-2428 -5476 0
2428 -1889 5476 0
-5479 -5481 0
-5480 -5481 0
5479 5481 5480 0
-5480 -1890 0
2429 -5480 0
1890 -2429 5480 0
1890 -5479 0
-2429 -5479 0
2429 -1890 5479 0
-5482 -5484 0
-5483 -5484 0
5484 5483 5482 0
-5483 -1891 0
2430 -5483 0
-2430 1891 5483 0
-5482 1891 0
-5482 -2430 0
2430 -1891 5482 0
-5485 -5487 0
-5486 -5487 0
5487 5486 5485 0
-1892 -5486 0
-5486 2431 0
-2431 1892 5486 0
-5485 1892 0
-2431 -5485 0
-1892 2431 5485 0
-5488 -5490 0
-5489 -5490 0
5490 5489 5488 0
-5489 -1893 0
2432 -5489 0
1893 -2432 5489 0
-5488 1893 0
-5488 -2432 0
2432 -1893 5488 0
-198 -208 5469 0
-5440 5467 5468 0
5461 -5467 0
5466 -5467 0
-5461 -5466 5467 0
5458 -5466 0
5465 -5466 0
5466 -5465 -5458 0
5455 -5465 0
5464 -5465 0
-5464 5465 -5455 0
5452 -5464 0
5463 -5464 0
5464 -5463 -5452 0
5449 -5463 0
5462 -5463 0
-5462 5463 -5449 0
5443 -5462 0
5446 -5462 0
5462 -5443 -5446 0
-5444 -5446 0
-5445 -5446 0
5444 5446 5445 0
-1888 -5445 0
2413 -5445 0
1888 -2413 5445 0
-5444 1888 0
-5444 -2413 0
2413 -1888 5444 0
-5441 -5443 0
-5442 -5443 0
5443 5442 5441 0
-5442 -1887 0
2412 -5442 0
1887 -2412 5442 0
-5441 1887 0
-5441 -2412 0
2412 -1887 5441 0
-5447 -5449 0
-5448 -5449 0
5447 5449 5448 0
-5448 -1889 0
2414 -5448 0
1889 -2414 5448 0
-5447 1889 0
-5447 -2414 0
2414 -1889 5447 0
-5450 -5452 0
-5451 -5452 0
5450 5452 5451 0
-5451 -1890 0
2415 -5451 0
1890 -2415 5451 0
-5450 1890 0
-5450 -2415 0
2415 -1890 5450 0
-5453 -5455 0
-5454 -5455 0
5455 5454 5453 0
-5454 -1891 0
2416 -5454 0
-2416 1891 5454 0
-5453 1891 0
-5453 -2416 0
2416 -1891 5453 0
-5456 -5458 0
-5457 -5458 0
5458 5457 5456 0
-1892 -5457 0
2417 -5457 0
-2417 1892 5457 0
-5456 1892 0
-5456 -2417 0
2417 -1892 5456 0
-5459 -5461 0
-5460 -5461 0
5461 5459 5460 0
-5460 -1893 0
2418 -5460 0
1893 -2418 5460 0
-5459 1893 0
-5459 -2418 0
2418 -1893 5459 0
-198 -207 5440 0
-5411 5438 5439 0
5432 -5438 0
5437 -5438 0
-5432 -5437 5438 0
5429 -5437 0
5436 -5437 0
5437 -5436 -5429 0
5426 -5436 0
5435 -5436 0
-5435 5436 -5426 0
5423 -5435 0
5434 -5435 0
5435 -5434 -5423 0
5420 -5434 0
5433 -5434 0
-5433 5434 -5420 0
5414 -5433 0
5417 -5433 0
5433 -5414 -5417 0
-5415 -5417 0
-5416 -5417 0
5415 5417 5416 0
-1888 -5416 0
2399 -5416 0
1888 -2399 5416 0
-5415 1888 0
-5415 -2399 0
2399 -1888 5415 0
-5412 -5414 0
-5413 -5414 0
5412 5414 5413 0
-5413 -1887 0
2398 -5413 0
-2398 1887 5413 0
-5412 1887 0
-5412 -2398 0
2398 -1887 5412 0
-5418 -5420 0
-5419 -5420 0
5418 5420 5419 0
-5419 -1889 0
2400 -5419 0
1889 -2400 5419 0
-5418 1889 0
-5418 -2400 0
2400 -1889 5418 0
-5421 -5423 0
-5422 -5423 0
5421 5423 5422 0
-5422 -1890 0
2401 -5422 0
1890 -2401 5422 0
-5421 1890 0
-5421 -2401 0
2401 -1890 5421 0
-5424 -5426 0
-5425 -5426 0
5426 5425 5424 0
-5425 -1891 0
2402 -5425 0
-2402 1891 5425 0
-5424 1891 0
-5424 -2402 0
2402 -1891 5424 0
-5427 -5429 0
-5428 -5429 0
5429 5428 5427 0
-1892 -5428 0
-5428 2403 0
-2403 1892 5428 0
-5427 1892 0
-5427 -2403 0
-1892 2403 5427 0
-5430 -5432 0
-5431 -5432 0
5432 5430 5431 0
-5431 -1893 0
2404 -5431 0
1893 -2404 5431 0
-5430 1893 0
-5430 -2404 0
2404 -1893 5430 0
-198 -206 5411 0
-5382 5409 5410 0
5403 -5409 0
5408 -5409 0
-5408 -5403 5409 0
5400 -5408 0
5407 -5408 0
5408 -5407 -5400 0
5397 -5407 0
5406 -5407 0
-5406 5407 -5397 0
5394 -5406 0
5405 -5406 0
5406 -5405 -5394 0
5391 -5405 0
5404 -5405 0
-5404 5405 -5391 0
5385 -5404 0
5388 -5404 0
5404 -5385 -5388 0
-5386 -5388 0
-5387 -5388 0
5386 5388 5387 0
-1888 -5387 0
2385 -5387 0
1888 -2385 5387 0
-5386 1888 0
-5386 -2385 0
-1888 2385 5386 0
-5383 -5385 0
-5384 -5385 0
5383 5385 5384 0
-5384 -1887 0
2384 -5384 0
-2384 1887 5384 0
-5383 1887 0
-5383 -2384 0
2384 -1887 5383 0
-5389 -5391 0
-5390 -5391 0
5389 5391 5390 0
-5390 -1889 0
2386 -5390 0
1889 -2386 5390 0
-5389 1889 0
-5389 -2386 0
-1889 2386 5389 0
-5392 -5394 0
-5393 -5394 0
5392 5394 5393 0
-5393 -1890 0
2387 -5393 0
1890 -2387 5393 0
-5392 1890 0
-5392 -2387 0
-1890 2387 5392 0
-5395 -5397 0
-5396 -5397 0
5397 5396 5395 0
-5396 -1891 0
-5396 2388 0
-2388 1891 5396 0
-5395 1891 0
-5395 -2388 0
2388 -1891 5395 0
-5398 -5400 0
-5399 -5400 0
5400 5399 5398 0
-1892 -5399 0
-5399 2389 0
-2389 1892 5399 0
-5398 1892 0
-5398 -2389 0
-1892 2389 5398 0
-5401 -5403 0
-5402 -5403 0
5403 5401 5402 0
-5402 -1893 0
2390 -5402 0
1893 -2390 5402 0
-5401 1893 0
-5401 -2390 0
2390 -1893 5401 0
-198 -205 5382 0
-5353 5380 5381 0
5374 -5380 0
5379 -5380 0
-5374 -5379 5380 0
5371 -5379 0
5378 -5379 0
5379 -5378 -5371 0
5368 -5378 0
5377 -5378 0
-5377 5378 -5368 0
5365 -5377 0
5376 -5377 0
5377 -5376 -5365 0
5362 -5376 0
5375 -5376 0
-5375 5376 -5362 0
5356 -5375 0
5359 -5375 0
5375 -5359 -5356 0
-5357 -5359 0
-5358 -5359 0
5358 5359 5357 0
-5358 -1762 0
-5358 2427 0
-2427 1762 5358 0
-5357 1762 0
-5357 -2427 0
2427 -1762 5357 0
-5354 -5356 0
-5355 -5356 0
5355 5356 5354 0
-5355 -1761 0
-5355 2426 0
-2426 1761 5355 0
-5354 1761 0
-5354 -2426 0
2426 -1761 5354 0
-5360 -5362 0
-5361 -5362 0
5361 5362 5360 0
-5361 -1763 0
-5361 2428 0
-2428 1763 5361 0
-5360 1763 0
-5360 -2428 0
2428 -1763 5360 0
-5363 -5365 0
-5364 -5365 0
5364 5365 5363 0
-5364 -1764 0
-5364 2429 0
-2429 1764 5364 0
-5363 1764 0
-5363 -2429 0
2429 -1764 5363 0
-5366 -5368 0
-5367 -5368 0
5367 5368 5366 0
-5367 -1765 0
-5367 2430 0
-2430 1765 5367 0
-5366 1765 0
-5366 -2430 0
2430 -1765 5366 0
-5369 -5371 0
-5370 -5371 0
5370 5371 5369 0
-5370 -1766 0
-5370 2431 0
-2431 1766 5370 0
-5369 1766 0
-5369 -2431 0
2431 -1766 5369 0
-5372 -5374 0
-5373 -5374 0
5374 5373 5372 0
-5373 -1767 0
-5373 2432 0
1767 -2432 5373 0
-5372 1767 0
-5372 -2432 0
2432 -1767 5372 0
-197 -208 5353 0
-5324 5351 5352 0
5345 -5351 0
5350 -5351 0
-5345 -5350 5351 0
5342 -5350 0
5349 -5350 0
5350 -5349 -5342 0
5339 -5349 0
5348 -5349 0
-5348 5349 -5339 0
5336 -5348 0
5347 -5348 0
5348 -5347 -5336 0
5333 -5347 0
5346 -5347 0
-5346 5347 -5333 0
5327 -5346 0
5330 -5346 0
5346 -5327 -5330 0
-5328 -5330 0
-5329 -5330 0
5329 5330 5328 0
-5329 -1762 0
-5329 2413 0
-2413 1762 5329 0
1762 -5328 0
-2413 -5328 0
2413 -1762 5328 0
-5325 -5327 0
-5326 -5327 0
5326 5327 5325 0
-5326 -1761 0
-5326 2412 0
1761 -2412 5326 0
-5325 1761 0
-5325 -2412 0
2412 -1761 5325 0
-5331 -5333 0
-5332 -5333 0
5332 5333 5331 0
-5332 -1763 0
-5332 2414 0
-2414 1763 5332 0
1763 -5331 0
-2414 -5331 0
2414 -1763 5331 0
-5334 -5336 0
-5335 -5336 0
5335 5336 5334 0
-5335 -1764 0
-5335 2415 0
-2415 1764 5335 0
1764 -5334 0
-2415 -5334 0
2415 -1764 5334 0
-5337 -5339 0
-5338 -5339 0
5338 5339 5337 0
-5338 -1765 0
-5338 2416 0
-2416 1765 5338 0
-5337 1765 0
-2416 -5337 0
2416 -1765 5337 0
-5340 -5342 0
-5341 -5342 0
5341 5342 5340 0
-5341 -1766 0
-5341 2417 0
-2417 1766 5341 0
-5340 1766 0
-2417 -5340 0
2417 -1766 5340 0
-5343 -5345 0
-5344 -5345 0
5345 5344 5343 0
-5344 -1767 0
-5344 2418 0
1767 -2418 5344 0
1767 -5343 0
-5343 -2418 0
2418 -1767 5343 0
-197 -207 5324 0
-5295 5322 5323 0
5316 -5322 0
5321 -5322 0
-5316 -5321 5322 0
5313 -5321 0
5320 -5321 0
5321 -5320 -5313 0
5310 -5320 0
5319 -5320 0
-5319 5320 -5310 0
5307 -5319 0
5318 -5319 0
5319 -5318 -5307 0
5304 -5318 0
5317 -5318 0
-5317 5318 -5304 0
5298 -5317 0
5301 -5317 0
5317 -5298 -5301 0
-5299 -5301 0
-5300 -5301 0
5300 5301 5299 0
-5300 -1762 0
-5300 2399 0
-2399 1762 5300 0
1762 -5299 0
-2399 -5299 0
2399 -1762 5299 0
-5296 -5298 0
-5297 -5298 0
5297 5298 5296 0
-5297 -1761 0
-5297 2398 0
-2398 1761 5297 0
-5296 1761 0
-2398 -5296 0
2398 -1761 5296 0
-5302 -5304 0
-5303 -5304 0
5303 5304 5302 0
-5303 -1763 0
-5303 2400 0
-2400 1763 5303 0
1763 -5302 0
-2400 -5302 0
2400 -1763 5302 0
-5305 -5307 0
-5306 -5307 0
5306 5307 5305 0
-5306 -1764 0
-5306 2401 0
-2401 1764 5306 0
1764 -5305 0
-2401 -5305 0
2401 -1764 5305 0
-5308 -5310 0
-5309 -5310 0
5309 5310 5308 0
-5309 -1765 0
-5309 2402 0
-2402 1765 5309 0
-5308 1765 0
-5308 -2402 0
2402 -1765 5308 0
-5311 -5313 0
-5312 -5313 0
5312 5313 5311 0
-5312 -1766 0
-5312 2403 0
-2403 1766 5312 0
-5311 1766 0
-2403 -5311 0
2403 -1766 5311 0
-5314 -5316 0
-5315 -5316 0
5316 5315 5314 0
-5315 -1767 0
-5315 2404 0
1767 -2404 5315 0
1767 -5314 0
-5314 -2404 0
2404 -1767 5314 0
-197 -206 5295 0
-5266 5293 5294 0
5287 -5293 0
5292 -5293 0
-5292 5293 -5287 0
5284 -5292 0
5291 -5292 0
-5291 5292 -5284 0
5281 -5291 0
5290 -5291 0
-5290 5291 -5281 0
5278 -5290 0
5289 -5290 0
5290 -5289 -5278 0
5275 -5289 0
5288 -5289 0
-5288 5289 -5275 0
5269 -5288 0
5272 -5288 0
5288 -5269 -5272 0
-5270 -5272 0
-5271 -5272 0
5271 5272 5270 0
-5271 -1762 0
-5271 2385 0
-2385 1762 5271 0
1762 -5270 0
-2385 -5270 0
2385 -1762 5270 0
-5267 -5269 0
-5268 -5269 0
5268 5269 5267 0
-5268 -1761 0
-5268 2384 0
-2384 1761 5268 0
-5267 1761 0
-2384 -5267 0
2384 -1761 5267 0
-5273 -5275 0
-5274 -5275 0
5274 5275 5273 0
-5274 -1763 0
-5274 2386 0
-2386 1763 5274 0
1763 -5273 0
-5273 -2386 0
2386 -1763 5273 0
-5276 -5278 0
-5277 -5278 0
5277 5278 5276 0
-5277 -1764 0
-5277 2387 0
1764 -2387 5277 0
1764 -5276 0
-5276 -2387 0
2387 -1764 5276 0
-5279 -5281 0
-5280 -5281 0
5280 5281 5279 0
-5280 -1765 0
-5280 2388 0
-2388 1765 5280 0
-5279 1765 0
-5279 -2388 0
2388 -1765 5279 0
-5282 -5284 0
-5283 -5284 0
5283 5284 5282 0
-5283 -1766 0
-5283 2389 0
-2389 1766 5283 0
-5282 1766 0
-2389 -5282 0
2389 -1766 5282 0
-5285 -5287 0
-5286 -5287 0
5287 5286 5285 0
-5286 -1767 0
-5286 2390 0
1767 -2390 5286 0
1767 -5285 0
-5285 -2390 0
2390 -1767 5285 0
-197 -205 5266 0
-3397 -5265 0
5264 -5265 0
-3426 -5264 0
5263 -5264 0
-3455 -5263 0
5262 -5263 0
-3484 -5262 0
5261 -5262 0
-3513 -5261 0
5260 -5261 0
-3542 -5260 0
5259 -5260 0
-3571 -5259 0
5258 -5259 0
-3600 -5258 0
5257 -5258 0
-3629 -5257 0
5256 -5257 0
-3658 -5256 0
5255 -5256 0
-3687 -5255 0
5254 -5255 0
-3716 -5254 0
5253 -5254 0
-3745 -5253 0
5252 -5253 0
-3774 -5252 0
5251 -5252 0
-3803 -5251 0
5250 -5251 0
-3832 -5250 0
5249 -5250 0
-3861 -5249 0
5248 -5249 0
5247 -5248 0
5246 -5247 0
5245 -5246 0
5244 -5245 0
5243 -5244 0
-4034 -5243 0
5242 -5243 0
-4063 -5242 0
5241 -5242 0
-4092 -5241 0
5240 -5241 0
-4121 -5240 0
5239 -5240 0
-4150 -5239 0
5238 -5239 0
-4179 -5238 0
5237 -5238 0
-4208 -5237 0
5236 -5237 0
-4237 -5236 0
5235 -5236 0
-4266 -5235 0
5234 -5235 0
5233 -5234 0
5232 -5233 0
5231 -5232 0
5230 -5231 0
5229 -5230 0
5228 -5229 0
5227 -5228 0
-4493 -5227 0
5226 -5227 0
-4521 -5226 0
5225 -5226 0
-4549 -5225 0
5224 -5225 0
-4577 -5224 0
5223 -5224 0
-4605 -5223 0
5222 -5223 0
-4633 -5222 0
5221 -5222 0
-4661 -5221 0
5220 -5221 0
-4689 -5220 0
5219 -5220 0
-4717 -5219 0
5218 -5219 0
-4745 -5218 0
5217 -5218 0
-4773 -5217 0
5216 -5217 0
-4801 -5216 0
5215 -5216 0
-4829 -5215 0
5214 -5215 0
-4857 -5214 0
5213 -5214 0
-4885 -5213 0
5212 -5213 0
-4913 -5212 0
5211 -5212 0
-4942 -5211 0
5210 -5211 0
-4971 -5210 0
5209 -5210 0
-5000 -5209 0
5208 -5209 0
-5029 -5208 0
5207 -5208 0
-5058 -5207 0
5206 -5207 0
-5087 -5206 0
5205 -5206 0
-5116 -5205 0
5204 -5205 0
-5145 -5204 0
5203 -5204 0
-5174 -5203 0
-5202 -5203 0
-130 5201 5202 0
5195 -5201 0
5200 -5201 0
5192 -5200 0
5199 -5200 0
5189 -5199 0
5198 -5199 0
5186 -5198 0
5197 -5198 0
5183 -5197 0
5196 -5197 0
5180 -5196 0
-5179 -5180 0
5180 5179 5178 0
-5179 -2189 0
2203 -5179 0
5179 -2203 2189 0
-5178 2189 0
-5178 -2203 0
5177 5176 5175 0
-5176 -2188 0
-5175 2188 0
-5175 -2202 0
-5182 -5183 0
5183 5182 5181 0
-5182 -2190 0
-5182 2204 0
5182 -2204 2190 0
-5181 2190 0
-5181 -2204 0
-5185 -5186 0
5186 5185 5184 0
-5185 -2191 0
-5185 2205 0
-2205 5185 2191 0
-5184 2191 0
-5184 -2205 0
-5188 -5189 0
5189 5187 5188 0
-5188 -2192 0
-5188 2206 0
-2206 5188 2192 0
-5187 2192 0
-5187 -2206 0
-5190 -5192 0
-5191 -5192 0
5192 5190 5191 0
-5191 -2193 0
-5191 2207 0
-2207 5191 2193 0
-5190 2193 0
-5190 -2207 0
-2193 5190 2207 0
-5193 -5195 0
-5194 -5195 0
5195 5193 5194 0
-5194 -2194 0
-5194 2208 0
2194 -2208 5194 0
-5193 2194 0
-5193 -2208 0
5193 2208 -2194 0
5173 -5146 5174 0
-5173 5167 0
5172 -5173 0
-5172 5164 0
-5172 5171 0
-5171 5161 0
5170 -5171 0
-5170 5158 0
-5170 5169 0
-5169 5155 0
5168 -5169 0
-5168 5149 0
-5168 5152 0
-5155 -5154 0
5155 5154 5153 0
5154 -2204 2176 0
-5153 2176 0
5158 5157 5156 0
-5157 -2177 0
-5157 2205 0
-2205 5157 2177 0
-5156 2177 0
-5156 -2205 0
-5161 -5160 0
5161 5159 5160 0
-5160 -2178 0
-5160 2206 0
-2206 5160 2178 0
-5159 2178 0
-5159 -2206 0
-5164 -5163 0
5164 5162 5163 0
-5163 -2179 0
-5163 2207 0
-2207 5163 2179 0
-5162 2179 0
-5162 -2207 0
5167 5165 5166 0
-5166 2208 0
2180 -2208 5166 0
-5165 2180 0
5146 -109 -111 0
5144 -5117 5145 0
-5144 5138 0
5143 -5144 0
-5143 -5138 5144 0
-5143 5135 0
-5143 5142 0
-5142 5143 -5135 0
-5142 5132 0
5141 -5142 0
-5141 5142 -5132 0
-5141 5129 0
-5141 5140 0
5141 -5140 -5129 0
-5140 5126 0
5139 -5140 0
-5139 5140 -5126 0
-5139 5120 0
-5139 5123 0
5139 -5120 -5123 0
-5123 -5122 0
5123 5121 5122 0
-5122 -2175 0
-5122 2189 0
2175 -2189 5122 0
-5121 2175 0
-5121 -2189 0
5120 5118 5119 0
-5119 -2174 0
-5119 2188 0
-5118 2174 0
-5118 -2188 0
-5126 -5125 0
5126 5124 5125 0
-5125 -2176 0
-5125 2190 0
5125 -2190 2176 0
-5124 2176 0
-5124 -2190 0
-5129 -5128 0
5129 5127 5128 0
-5128 -2177 0
-5128 2191 0
5128 -2191 2177 0
-5127 2177 0
-5127 -2191 0
-5132 -5131 0
5132 5130 5131 0
-5131 -2178 0
-5131 2192 0
5131 -2192 2178 0
-5130 2178 0
-5130 -2192 0
5135 5133 5134 0
-5134 -2179 0
-5134 2193 0
5134 -2193 2179 0
-5133 2179 0
-5133 -2193 0
5138 5136 5137 0
-5137 -2180 0
2180 -2194 5137 0
-5136 2180 0
-5136 -2194 0
5117 -109 -110 0
5115 -5088 5116 0
-5115 5109 0
5114 -5115 0
-5114 5106 0
-5114 5113 0
-5113 5103 0
5112 -5113 0
-5112 5100 0
-5112 5111 0
-5111 5097 0
5110 -5111 0
-5110 5091 0
-5110 5094 0
-5097 -5096 0
5097 5096 5095 0
5096 -2204 2162 0
-5095 2162 0
-5100 -5099 0
5100 5099 5098 0
-5099 -2163 0
-5099 2205 0
-2205 5099 2163 0
-5098 2163 0
-5098 -2205 0
-5103 -5102 0
5103 5101 5102 0
-5102 -2164 0
-5102 2206 0
-2206 5102 2164 0
-5101 2164 0
-5101 -2206 0
-5106 -5105 0
5106 5104 5105 0
-5105 -2165 0
-5105 2207 0
-2207 5105 2165 0
-5104 2165 0
-5104 -2207 0
5109 5107 5108 0
-5108 2208 0
2166 -2208 5108 0
-5107 2166 0
5088 -108 -111 0
5086 -5059 5087 0
-5086 5080 0
5085 -5086 0
-5085 5077 0
-5085 5084 0
-5084 5074 0
5083 -5084 0
-5083 5071 0
-5083 5082 0
-5082 5068 0
5081 -5082 0
-5081 5062 0
-5081 5065 0
-5065 -5064 0
5065 5063 5064 0
-5064 -2161 0
-5064 2189 0
2161 -2189 5064 0
-5063 2161 0
-5063 -2189 0
5062 5060 5061 0
-5061 2188 0
-5060 2160 0
-5068 -5067 0
5068 5066 5067 0
-5067 -2162 0
-5067 2190 0
5067 -2190 2162 0
-5066 2162 0
-5066 -2190 0
-5071 -5070 0
5071 5069 5070 0
-5070 -2163 0
-5070 2191 0
5070 -2191 2163 0
-5069 2163 0
-5069 -2191 0
-5074 -5073 0
5074 5072 5073 0
-5073 -2164 0
-5073 2192 0
5073 -2192 2164 0
-5072 2164 0
-5072 -2192 0
-5075 -5077 0
5077 5075 5076 0
-5076 -2165 0
-5076 2193 0
5076 -2193 2165 0
-5075 2165 0
-5075 -2193 0
-2165 5075 2193 0
-5078 -5080 0
5080 5078 5079 0
-5079 -2166 0
-5078 2166 0
-5078 -2194 0
5078 2194 -2166 0
5059 -108 -110 0
5057 -5030 5058 0
-5057 5051 0
5056 -5057 0
-5056 -5051 5057 0
-5056 5048 0
-5056 5055 0
5056 -5055 -5048 0
-5055 5045 0
5054 -5055 0
-5054 5055 -5045 0
-5054 5042 0
-5054 5053 0
5054 -5053 -5042 0
-5053 5039 0
5052 -5053 0
-5052 5053 -5039 0
-5052 5033 0
-5052 5036 0
5052 -5033 -5036 0
-5036 -5035 0
5036 5034 5035 0
-5035 -2161 0
-5035 2175 0
5035 -2175 2161 0
-5034 2161 0
-5034 -2175 0
5033 5031 5032 0
-5032 2174 0
-5031 2160 0
-5031 -2174 0
-5039 -5038 0
5039 5037 5038 0
-5038 -2162 0
-5038 2176 0
5038 -2176 2162 0
-5037 2162 0
-5037 -2176 0
-5042 -5041 0
5042 5040 5041 0
-5041 -2163 0
-5041 2177 0
5041 -2177 2163 0
-5040 2163 0
-5040 -2177 0
-5045 -5044 0
5045 5043 5044 0
-5044 -2164 0
-5044 2178 0
5044 -2178 2164 0
-5043 2164 0
-5043 -2178 0
-5046 -5048 0
-5048 -5047 0
5048 5046 5047 0
-5047 -2165 0
-5047 2179 0
5047 -2179 2165 0
-5046 2165 0
-5046 -2179 0
-2165 5046 2179 0
5051 5049 5050 0
-5050 -2166 0
2166 -2180 5050 0
-5049 2166 0
-5049 -2180 0
5030 -108 -109 0
-5001 5028 5029 0
5022 -5028 0
5027 -5028 0
5019 -5027 0
5026 -5027 0
5016 -5026 0
5025 -5026 0
5013 -5025 0
5024 -5025 0
5010 -5024 0
5023 -5024 0
5004 -5023 0
5007 -5023 0
-5006 -5007 0
5007 5006 5005 0
-5006 -2147 0
2203 -5006 0
-2203 2147 5006 0
-5005 2147 0
-5005 -2203 0
5004 5003 5002 0
-5003 -2146 0
2202 -5003 0
-5002 2146 0
-2202 -5002 0
-5008 -5010 0
5010 5009 5008 0
-5009 -2148 0
2204 -5009 0
-2204 5009 2148 0
-5008 2148 0
-5008 -2204 0
2204 -2148 5008 0
-5011 -5013 0
5013 5012 5011 0
-5012 2205 0
-5011 2149 0
2205 -2149 5011 0
-5014 -5016 0
5016 5014 5015 0
-5015 2206 0
-5014 2150 0
-2150 2206 5014 0
-5017 -5019 0
-5018 -5019 0
5019 5017 5018 0
-5018 -2151 0
-5018 2207 0
-2207 2151 5018 0
-5017 2151 0
-5017 -2207 0
-2151 2207 5017 0
-5020 -5022 0
-5021 -5022 0
5022 5021 5020 0
-5021 -2152 0
-5021 2208 0
2152 -2208 5021 0
-5020 2152 0
-5020 -2208 0
2208 -2152 5020 0
-107 -111 5001 0
-4972 4999 5000 0
4993 -4999 0
4998 -4999 0
4990 -4998 0
4997 -4998 0
4987 -4997 0
4996 -4997 0
4984 -4996 0
4995 -4996 0
4981 -4995 0
4994 -4995 0
4975 -4994 0
4978 -4994 0
-4977 -4978 0
4978 4977 4976 0
-4977 2189 0
-2189 2147 4977 0
-4976 2147 0
4975 4973 4974 0
-4974 -2146 0
-2188 4974 2146 0
-4973 -2188 0
-4979 -4981 0
-4980 -4981 0
4981 4980 4979 0
-4980 -2148 0
-4980 2190 0
-2190 2148 4980 0
-4979 2148 0
-4979 -2190 0
2190 -2148 4979 0
-4982 -4984 0
4984 4983 4982 0
-4983 2191 0
-4982 2149 0
2191 -2149 4982 0
-4986 -4987 0
4987 4985 4986 0
-4986 -2150 0
-4986 2192 0
-2192 2150 4986 0
-4985 2150 0
-4985 -2192 0
-4989 -4990 0
4990 4988 4989 0
-4989 -2151 0
-4989 2193 0
-2193 2151 4989 0
-4988 2151 0
-4988 -2193 0
-4992 -4993 0
4993 4991 4992 0
-4992 2194 0
2152 -2194 4992 0
-4991 2152 0
-107 -110 4972 0
-4943 4970 4971 0
4964 -4970 0
4969 -4970 0
4961 -4969 0
4968 -4969 0
4958 -4968 0
4967 -4968 0
4955 -4967 0
4966 -4967 0
4952 -4966 0
4965 -4966 0
4946 -4965 0
4949 -4965 0
-4951 -4952 0
4952 4950 4951 0
-4951 -2148 0
-2176 2148 4951 0
-4950 -2176 0
-4953 -4955 0
4955 4954 4953 0
-4954 -2149 0
-4954 2177 0
-2177 4954 2149 0
-4953 2149 0
-4953 -2177 0
2177 -2149 4953 0
4958 4956 4957 0
-4957 -2150 0
-4957 2178 0
-4956 2150 0
-4956 -2178 0
-4960 -4961 0
4961 4959 4960 0
-4960 -2151 0
-4960 2179 0
-2179 2151 4960 0
-4959 2151 0
-4959 -2179 0
-4962 -4964 0
-4963 -4964 0
4964 4962 4963 0
-4963 -2152 0
-4963 2180 0
2152 -2180 4963 0
-4962 2152 0
-4962 -2180 0
2180 -2152 4962 0
-107 -109 4943 0
-4914 4941 4942 0
4935 -4941 0
4940 -4941 0
4932 -4940 0
4939 -4940 0
4929 -4939 0
4938 -4939 0
4926 -4938 0
4937 -4938 0
4923 -4937 0
4936 -4937 0
4917 -4936 0
4920 -4936 0
-4919 -4920 0
-2161 2147 4919 0
-4916 -4917 0
-2160 2146 4916 0
-4921 -4923 0
-4922 -4923 0
-2162 2148 4922 0
2162 -2148 4921 0
-4924 -4926 0
-4925 -4926 0
4926 4925 4924 0
-2163 2149 4925 0
-4924 2149 0
2163 -2149 4924 0
-4927 -4929 0
-4928 -4929 0
4929 4927 4928 0
-4928 -2150 0
-4928 2164 0
-2164 2150 4928 0
-4927 2150 0
-4927 -2164 0
-2150 2164 4927 0
-4930 -4932 0
-4931 -4932 0
4932 4930 4931 0
-4931 -2151 0
-4931 2165 0
-2165 2151 4931 0
-4930 2151 0
-4930 -2165 0
-2151 2165 4930 0
-4933 -4935 0
-4934 -4935 0
4935 4933 4934 0
-4934 -2152 0
-4934 2166 0
2152 -2166 4934 0
-4933 2152 0
-4933 -2166 0
2166 -2152 4933 0
-107 -108 4914 0
-353 4912 4913 0
4911 -4912 0
4903 -4911 0
4910 -4911 0
4900 -4910 0
-4894 -4892 0
-4894 -4893 0
4894 4893 4892 0
-4893 2204 0
4893 -2204 2134 0
-4892 2134 0
2204 -2134 4892 0
4897 4896 4895 0
-4896 -2135 0
-4896 2205 0
-4895 2135 0
-2205 -4895 0
2205 -2135 4895 0
-4899 -4900 0
4900 4899 4898 0
-4899 -2136 0
-4899 2206 0
-2206 2136 4899 0
-4898 2136 0
-2206 -4898 0
-2136 4898 2206 0
-4901 -4903 0
4903 4902 4901 0
-4902 -2137 0
-4902 2207 0
-4901 2137 0
-4901 -2207 0
-2137 2207 4901 0
-4904 -4906 0
-4905 -4906 0
4906 4905 4904 0
-4905 -2138 0
-4905 2208 0
2138 -2208 4905 0
-4904 2138 0
-4904 -2208 0
2208 -2138 4904 0
-350 4884 4885 0
4878 -4884 0
4883 -4884 0
4882 -4883 0
4881 -4882 0
4869 -4881 0
4880 -4881 0
4866 -4880 0
4879 -4880 0
4860 -4879 0
4863 -4879 0
-4861 -4863 0
-4862 -4863 0
2133 -2189 4862 0
-2133 2189 4861 0
-4858 -4860 0
-2132 2188 4858 0
-4864 -4866 0
-4865 -4866 0
4866 4864 4865 0
-4865 2190 0
-2190 2134 4865 0
-4864 2134 0
-2134 2190 4864 0
-4867 -4869 0
4869 4867 4868 0
-4868 -2135 0
-4868 2191 0
-4867 2135 0
-4867 -2191 0
-2135 2191 4867 0
-4870 -4872 0
4872 4871 4870 0
-4871 -2136 0
-4871 2192 0
-4870 2136 0
-4870 -2192 0
-2136 4870 2192 0
4875 4874 4873 0
-4874 -2137 0
-4874 2193 0
-4873 2137 0
-4873 -2193 0
-2137 4873 2193 0
-4876 -4878 0
4878 4877 4876 0
-4877 -2138 0
-4877 2194 0
-4876 2138 0
-4876 -2194 0
2194 -2138 4876 0
-347 4856 4857 0
4850 -4856 0
4855 -4856 0
4847 -4855 0
4854 -4855 0
4844 -4854 0
4853 -4854 0
4841 -4853 0
4852 -4853 0
4838 -4852 0
4851 -4852 0
4832 -4851 0
4835 -4851 0
-4830 -4832 0
-2132 2174 4830 0
-4836 -4838 0
-4837 -4838 0
4838 4836 4837 0
-2176 2134 4837 0
-4836 -2176 0
-2134 2176 4836 0
-4839 -4841 0
-4840 -4841 0
4841 4839 4840 0
-4840 -2135 0
-4840 2177 0
-2177 2135 4840 0
-4839 2135 0
-4839 -2177 0
-2135 2177 4839 0
-4842 -4844 0
4844 4843 4842 0
-4843 -2136 0
-4843 2178 0
-4842 2136 0
-4842 -2178 0
-2136 2178 4842 0
-4845 -4847 0
-4846 -4847 0
4847 4846 4845 0
-4846 -2137 0
-4846 2179 0
-2179 2137 4846 0
-4845 2137 0
-4845 -2179 0
-2137 2179 4845 0
-4848 -4850 0
4850 4849 4848 0
-4849 -2138 0
-4849 2180 0
-4848 2138 0
-4848 -2180 0
2180 -2138 4848 0
-344 4828 4829 0
4822 -4828 0
4827 -4828 0
4819 -4827 0
4826 -4827 0
4816 -4826 0
4825 -4826 0
4813 -4825 0
4824 -4825 0
4810 -4824 0
4823 -4824 0
4804 -4823 0
4807 -4823 0
-4802 -4804 0
-4803 -4804 0
4804 4802 4803 0
-4803 -2132 0
-4803 2160 0
-2160 2132 4803 0
-4802 2132 0
-4802 -2160 0
-2132 2160 4802 0
-4808 -4810 0
-2134 2162 4808 0
-4811 -4813 0
4813 4811 4812 0
-4812 -2135 0
-4812 2163 0
-4811 2135 0
-4811 -2163 0
-2135 2163 4811 0
-4814 -4816 0
4816 4815 4814 0
-4815 -2136 0
-4815 2164 0
-4814 2136 0
-4814 -2164 0
-2136 2164 4814 0
-4818 -4819 0
4819 4818 4817 0
-4818 -2137 0
-4818 2165 0
-2165 2137 4818 0
-4817 2137 0
-4817 -2165 0
-2137 4817 2165 0
-4820 -4822 0
4822 4821 4820 0
-4821 -2138 0
-4821 2166 0
-4820 2138 0
-4820 -2166 0
2166 -2138 4820 0
-341 4800 4801 0
4794 -4800 0
4799 -4800 0
4791 -4799 0
4798 -4799 0
4788 -4798 0
4797 -4798 0
4785 -4797 0
4796 -4797 0
4782 -4796 0
4795 -4796 0
4779 -4795 0
-4777 -4779 0
4779 4777 4778 0
-4778 -2133 0
-4778 2147 0
-4777 2133 0
-4777 -2147 0
-2133 2147 4777 0
-4776 -4775 0
4776 4774 4775 0
-4775 -2132 0
-4775 2146 0
2132 -2146 4775 0
-4774 2132 0
-4774 -2146 0
-4780 -4782 0
-4781 -4782 0
4782 4780 4781 0
-4781 2148 0
2134 -2148 4781 0
-4780 2134 0
-4780 -2148 0
-2134 2148 4780 0
-4783 -4785 0
-4784 -4785 0
4785 4783 4784 0
-4784 -2135 0
-4784 2149 0
2135 -2149 4784 0
-4783 2135 0
-4783 -2149 0
-2135 2149 4783 0
-4786 -4788 0
-4787 -4788 0
4788 4787 4786 0
-4787 -2136 0
-4787 2150 0
-2150 2136 4787 0
-4786 2136 0
-4786 -2150 0
-2136 2150 4786 0
-4789 -4791 0
-4790 -4791 0
4791 4790 4789 0
-4790 -2137 0
-4790 2151 0
-2151 2137 4790 0
-4789 2137 0
-4789 -2151 0
-2137 2151 4789 0
-4792 -4794 0
-4793 -4794 0
4794 4792 4793 0
-4793 -2138 0
-4793 2152 0
2138 -2152 4793 0
-4792 2138 0
-4792 -2152 0
2152 -2138 4792 0
-338 4772 4773 0
4766 -4772 0
4771 -4772 0
-4766 4772 -4771 0
4763 -4771 0
4770 -4771 0
4771 -4770 -4763 0
4760 -4770 0
4769 -4770 0
-4769 4770 -4760 0
4757 -4769 0
4768 -4769 0
4769 -4757 -4768 0
4754 -4768 0
4767 -4768 0
-4767 4768 -4754 0
4748 -4767 0
4751 -4767 0
-4748 4767 -4751 0
-4749 -4751 0
-4750 -4751 0
4751 4749 4750 0
-2203 2119 4750 0
-4749 -2203 0
2203 -2119 4749 0
-4752 -4754 0
-4753 -4754 0
4754 4753 4752 0
-4753 2204 0
-2204 2120 4753 0
-4752 2120 0
2204 -2120 4752 0
-4755 -4757 0
4757 4756 4755 0
-4756 -2121 0
-4756 2205 0
-4755 2121 0
-4755 -2205 0
2205 -2121 4755 0
-4758 -4760 0
-4759 -4760 0
4760 4759 4758 0
-4759 -2122 0
-4759 2206 0
-2206 2122 4759 0
-4758 2122 0
-2206 -4758 0
-2122 2206 4758 0
-4761 -4763 0
4763 4762 4761 0
-4762 -2123 0
-4762 2207 0
-4761 2123 0
-4761 -2207 0
-2123 2207 4761 0
-4764 -4766 0
4766 4764 4765 0
-4765 -2124 0
-4765 2208 0
-4764 2124 0
-4764 -2208 0
2208 -2124 4764 0
-335 4744 4745 0
4743 -4744 0
4742 -4743 0
4741 -4742 0
4729 -4741 0
4740 -4741 0
4726 -4740 0
-4723 -4722 0
4723 4721 4722 0
2119 -2189 4722 0
-4721 2119 0
-4724 -4726 0
-4725 -4726 0
4726 4724 4725 0
-4725 2190 0
-2190 2120 4725 0
-4724 2120 0
-2120 2190 4724 0
-4727 -4729 0
4729 4727 4728 0
-4728 -2121 0
-4728 2191 0
-4727 2121 0
-4727 -2191 0
-2121 2191 4727 0
-4731 -4732 0
4732 4731 4730 0
-4731 -2122 0
-4731 2192 0
4731 -2192 2122 0
-4730 2122 0
-4730 -2192 0
4735 4734 4733 0
-4734 -2123 0
-4734 2193 0
-4733 2123 0
-4733 -2193 0
-4737 -4738 0
4738 4736 4737 0
-4737 -2124 0
-4737 2194 0
2124 -2194 4737 0
-4736 2124 0
-4736 -2194 0
-332 4716 4717 0
4715 -4716 0
4714 -4715 0
4704 -4714 0
4713 -4714 0
4712 -4713 0
4698 -4712 0
4695 4693 4694 0
-4694 -2119 0
-4694 2175 0
-4693 2119 0
-4693 -2175 0
-4692 -4691 0
4692 4690 4691 0
-4691 -2118 0
-2174 4691 2118 0
-4690 2118 0
-4690 -2174 0
-4696 -4698 0
-4697 -4698 0
4698 4696 4697 0
-4697 -2120 0
-4697 2176 0
-2176 2120 4697 0
-4696 2120 0
-4696 -2176 0
-2120 2176 4696 0
4701 4699 4700 0
-4700 -2121 0
-4700 2177 0
-4699 2121 0
-4699 -2177 0
-2121 4699 2177 0
-4702 -4704 0
4704 4703 4702 0
-4703 -2122 0
-4703 2178 0
4703 -2178 2122 0
-4702 2122 0
-4702 -2178 0
-2122 2178 4702 0
-4706 -4707 0
4707 4706 4705 0
-4706 -2123 0
-4706 2179 0
4706 -2179 2123 0
-4705 2123 0
-4705 -2179 0
4710 4708 4709 0
-4709 -2124 0
-4709 2180 0
-4708 2124 0
-4708 -2180 0
-329 4688 4689 0
4687 -4688 0
4679 -4687 0
4686 -4687 0
4685 -4686 0
4673 -4685 0
4684 -4685 0
4670 -4684 0
4683 -4684 0
4664 -4683 0
4667 -4683 0
-4665 -4667 0
-2119 2161 4665 0
-4662 -4664 0
-4663 -4664 0
4664 4662 4663 0
-4663 -2118 0
-4663 2160 0
-2160 2118 4663 0
-4662 2118 0
-4662 -2160 0
-2118 2160 4662 0
-4668 -4670 0
-4669 -4670 0
4670 4668 4669 0
-2162 2120 4669 0
-4668 2120 0
-2120 2162 4668 0
-4671 -4673 0
4673 4671 4672 0
-4672 -2121 0
-4672 2163 0
-4671 2121 0
-4671 -2163 0
-2121 2163 4671 0
4676 4675 4674 0
-4675 -2122 0
-4675 2164 0
-4674 2122 0
-4674 -2164 0
-4677 -4679 0
4679 4678 4677 0
-4678 -2123 0
-4678 2165 0
-4677 2123 0
-4677 -2165 0
-2123 2165 4677 0
-4680 -4682 0
-4681 -4682 0
4682 4680 4681 0
-4681 -2124 0
-4681 2166 0
2124 -2166 4681 0
-4680 2124 0
-4680 -2166 0
2166 -2124 4680 0
-326 4660 4661 0
4654 -4660 0
4659 -4660 0
4651 -4659 0
4658 -4659 0
4648 -4658 0
4657 -4658 0
4645 -4657 0
4656 -4657 0
4642 -4656 0
4655 -4656 0
4636 -4655 0
4639 -4655 0
-4637 -4639 0
-4638 -4639 0
4639 4637 4638 0
-4638 -2119 0
-4638 2147 0
2119 -2147 4638 0
-4637 2119 0
-4637 -2147 0
-2119 2147 4637 0
-4635 -4636 0
4636 4634 4635 0
-4635 2146 0
2118 -2146 4635 0
-4634 2118 0
-4640 -4642 0
4642 4640 4641 0
-4641 -2120 0
-4641 2148 0
2120 -2148 4641 0
-4640 2120 0
-4640 -2148 0
-2120 2148 4640 0
-4643 -4645 0
-4644 -4645 0
4645 4643 4644 0
-4644 -2121 0
-4644 2149 0
2121 -2149 4644 0
-4643 2121 0
-4643 -2149 0
-2121 2149 4643 0
-4646 -4648 0
-4647 -4648 0
4648 4647 4646 0
-4647 -2122 0
-4647 2150 0
-2150 2122 4647 0
-4646 2122 0
-4646 -2150 0
-2122 2150 4646 0
-4649 -4651 0
-4650 -4651 0
4651 4650 4649 0
-4650 -2123 0
-4650 2151 0
-2151 2123 4650 0
-4649 2123 0
-4649 -2151 0
-2123 2151 4649 0
-4652 -4654 0
-4653 -4654 0
4654 4652 4653 0
-4653 -2124 0
-4653 2152 0
2124 -2152 4653 0
-4652 2124 0
-4652 -2152 0
2152 -2124 4652 0
-323 4632 4633 0
4626 -4632 0
4631 -4632 0
-4631 -4626 4632 0
4623 -4631 0
4630 -4631 0
4631 -4630 -4623 0
4620 -4630 0
4629 -4630 0
-4629 4630 -4620 0
4617 -4629 0
4628 -4629 0
4629 -4628 -4617 0
4614 -4628 0
4627 -4628 0
-4627 4628 -4614 0
4608 -4627 0
4611 -4627 0
4627 -4608 -4611 0
-4610 -4611 0
4611 4609 4610 0
-4610 -2119 0
-4610 2133 0
-2133 2119 4610 0
-4609 2119 0
-4609 -2133 0
-2119 4609 2133 0
-4607 -4608 0
4608 4606 4607 0
-4607 -2118 0
-4607 2132 0
-2132 2118 4607 0
-4606 2118 0
-4606 -2132 0
-4612 -4614 0
-4613 -4614 0
4614 4612 4613 0
-4613 -2120 0
-4613 2134 0
-2134 2120 4613 0
-4612 2120 0
-4612 -2134 0
-2120 2134 4612 0
-4615 -4617 0
-4616 -4617 0
4617 4615 4616 0
-4616 -2121 0
-4616 2135 0
-2135 2121 4616 0
-4615 2121 0
-4615 -2135 0
-2121 2135 4615 0
-4618 -4620 0
-4619 -4620 0
4620 4618 4619 0
-4619 -2122 0
-4619 2136 0
-2136 2122 4619 0
-4618 2122 0
-4618 -2136 0
-2122 2136 4618 0
-4621 -4623 0
-4622 -4623 0
4623 4621 4622 0
-4622 -2123 0
-4622 2137 0
-2137 2123 4622 0
-4621 2123 0
-4621 -2137 0
-2123 2137 4621 0
-4624 -4626 0
-4625 -4626 0
4626 4624 4625 0
-4625 -2124 0
-4625 2138 0
2124 -2138 4625 0
-4624 2124 0
-4624 -2138 0
2138 -2124 4624 0
-320 4604 4605 0
4598 -4604 0
4603 -4604 0
4595 -4603 0
4602 -4603 0
4592 -4602 0
4601 -4602 0
4589 -4601 0
4600 -4601 0
4586 -4600 0
4599 -4600 0
4580 -4599 0
4583 -4599 0
-4590 -4592 0
4592 4591 4590 0
-4591 -2108 0
-4591 2206 0
-4590 2108 0
-2206 -4590 0
-2108 4590 2206 0
-4593 -4595 0
4595 4594 4593 0
-4594 -2109 0
-4594 2207 0
-2207 4594 2109 0
-4593 2109 0
-4593 -2207 0
-2109 4593 2207 0
4598 4596 4597 0
-4597 2208 0
-4596 2110 0
-314 4576 4577 0
4570 -4576 0
4575 -4576 0
4567 -4575 0
4574 -4575 0
4564 -4574 0
4573 -4574 0
4561 -4573 0
4572 -4573 0
4558 -4572 0
4571 -4572 0
4552 -4571 0
4555 -4571 0
-4559 -4561 0
4561 4559 4560 0
-4560 -2107 0
-2107 2163 4559 0
-4562 -4564 0
4564 4563 4562 0
-4563 -2108 0
-4563 2164 0
4563 -2164 2108 0
-4562 2108 0
-4562 -2164 0
-2108 4562 2164 0
-4565 -4567 0
-4566 -4567 0
4567 4566 4565 0
-4566 -2109 0
-4566 2165 0
-2165 4566 2109 0
-4565 2109 0
-4565 -2165 0
-2109 4565 2165 0
-4569 -4570 0
4570 4568 4569 0
-4569 2166 0
2110 -2166 4569 0
-4568 2110 0
-311 4548 4549 0
4542 -4548 0
4547 -4548 0
4539 -4547 0
4546 -4547 0
4536 -4546 0
4545 -4546 0
4533 -4545 0
4544 -4545 0
4530 -4544 0
4543 -4544 0
4524 -4543 0
4527 -4543 0
-4526 -4527 0
2105 -2147 4526 0
-4528 -4530 0
-4529 -4530 0
4530 4528 4529 0
-4529 -2106 0
2106 -2148 4529 0
-2106 2148 4528 0
-4531 -4533 0
-4532 -4533 0
4533 4532 4531 0
-4532 -2107 0
2107 -2149 4532 0
-4531 -2149 0
-2107 2149 4531 0
-4534 -4536 0
-4535 -4536 0
4536 4535 4534 0
-4535 -2108 0
-4535 2150 0
-2150 2108 4535 0
-4534 2108 0
-4534 -2150 0
-2108 2150 4534 0
-4537 -4539 0
-4538 -4539 0
4539 4538 4537 0
-4538 -2109 0
-4538 2151 0
-2151 2109 4538 0
-4537 2109 0
-4537 -2151 0
-2109 2151 4537 0
-4540 -4542 0
-4541 -4542 0
4542 4540 4541 0
-4541 -2110 0
-4541 2152 0
2110 -2152 4541 0
-4540 2110 0
-4540 -2152 0
2152 -2110 4540 0
-308 4520 4521 0
4514 -4520 0
4519 -4520 0
-4514 4520 -4519 0
4511 -4519 0
4518 -4519 0
4519 -4518 -4511 0
4508 -4518 0
4517 -4518 0
-4517 4518 -4508 0
4505 -4517 0
4516 -4517 0
4517 -4516 -4505 0
4502 -4516 0
4515 -4516 0
-4515 4516 -4502 0
4496 -4515 0
4499 -4515 0
4515 -4496 -4499 0
-4497 -4499 0
4499 4497 4498 0
-4498 -2105 0
-4498 2133 0
-4497 2105 0
-4497 -2133 0
-2105 2133 4497 0
4496 4494 4495 0
-4495 -2104 0
-4495 2132 0
-4494 2104 0
-4494 -2132 0
-2104 4494 2132 0
-4500 -4502 0
-4501 -4502 0
4502 4500 4501 0
-4501 -2106 0
-4501 2134 0
-2134 2106 4501 0
-4500 2106 0
-4500 -2134 0
-2106 2134 4500 0
-4503 -4505 0
4505 4503 4504 0
-4504 -2107 0
-4504 2135 0
-4503 2107 0
-4503 -2135 0
-2107 2135 4503 0
-4506 -4508 0
-4507 -4508 0
4508 4506 4507 0
-4507 -2108 0
-4507 2136 0
-2136 2108 4507 0
-4506 2108 0
-4506 -2136 0
-2108 2136 4506 0
-4509 -4511 0
-4510 -4511 0
4511 4509 4510 0
-4510 -2109 0
-4510 2137 0
-2137 2109 4510 0
-4509 2109 0
-4509 -2137 0
-2109 2137 4509 0
-4512 -4514 0
-4513 -4514 0
4514 4513 4512 0
-4513 -2110 0
-4513 2138 0
2110 -2138 4513 0
-4512 2110 0
-4512 -2138 0
2138 -2110 4512 0
-305 4492 4493 0
4486 -4492 0
4491 -4492 0
-4486 -4491 4492 0
4483 -4491 0
4490 -4491 0
4491 -4483 -4490 0
4480 -4490 0
4489 -4490 0
-4489 4490 -4480 0
4477 -4489 0
4488 -4489 0
4489 -4477 -4488 0
4474 -4488 0
4487 -4488 0
-4487 4488 -4474 0
4468 -4487 0
4471 -4487 0
-4468 4487 -4471 0
-4469 -4471 0
-4470 -4471 0
4471 4469 4470 0
-4470 2119 0
-2119 2105 4470 0
-2105 2119 4469 0
-4466 -4468 0
-4467 -4468 0
4468 4466 4467 0
-4467 -2104 0
-4467 2118 0
-2118 2104 4467 0
-4466 2104 0
-4466 -2118 0
-2104 2118 4466 0
-4473 -4474 0
4474 4472 4473 0
-4473 2120 0
-2120 2106 4473 0
-4472 2106 0
-2106 4472 2120 0
-4475 -4477 0
-4476 -4477 0
4477 4475 4476 0
-4476 -2107 0
-4476 2121 0
-2121 2107 4476 0
-4475 2107 0
-2107 2121 4475 0
-4478 -4480 0
4480 4478 4479 0
-4479 -2108 0
-4479 2122 0
-4478 2108 0
-4478 -2122 0
-2108 2122 4478 0
-4481 -4483 0
4483 4481 4482 0
-4482 -2109 0
-4482 2123 0
-4481 2109 0
-4481 -2123 0
-2109 2123 4481 0
-4485 -4486 0
4486 4485 4484 0
-4485 -2110 0
-4485 2124 0
2110 -2124 4485 0
-4484 2110 0
-4484 -2124 0
2124 -2110 4484 0
-4443 -4441 0
-4443 -4442 0
4443 4441 4442 0
-4442 -2014 0
-4442 2189 0
-2189 2014 4442 0
-4441 2014 0
-2189 -4441 0
2189 4441 -2014 0
-4440 -4438 0
-4440 -4439 0
4440 4438 4439 0
-4439 -2013 0
-4439 2188 0
-2188 2013 4439 0
-4438 2013 0
-2188 -4438 0
2188 4438 -2013 0
-4446 -4444 0
-4446 -4445 0
4446 4444 4445 0
-4445 -2015 0
-4445 2190 0
-2190 2015 4445 0
-4444 2015 0
-2190 -4444 0
2190 4444 -2015 0
-4449 -4447 0
-4449 -4448 0
4449 4447 4448 0
-4448 -2016 0
-4448 2191 0
-2191 2016 4448 0
-4447 2016 0
-2191 -4447 0
2191 4447 -2016 0
-4452 -4450 0
-4452 -4451 0
4452 4450 4451 0
-4451 -2017 0
-4451 2192 0
-2192 4451 2017 0
-4450 2017 0
-2192 -4450 0
-2017 4450 2192 0
-4455 -4453 0
-4455 -4454 0
4455 4453 4454 0
-4454 -2018 0
-4454 2193 0
-2193 4454 2018 0
-4453 2018 0
-2193 -4453 0
-2018 4453 2193 0
-4458 -4456 0
-4458 -4457 0
4458 4457 4456 0
-4457 -2019 0
-4457 2194 0
2019 4457 -2194 0
-4456 2019 0
-4456 -2194 0
2194 4456 -2019 0
-4413 -2014 0
-4413 2175 0
-2175 2014 4413 0
-4412 2014 0
-2175 -4412 0
2175 4412 -2014 0
-4409 2013 0
-2174 -4409 0
2174 4409 -2013 0
-4417 -4415 0
-4417 -4416 0
4417 4415 4416 0
-4416 -2015 0
-4416 2176 0
-2176 2015 4416 0
-4415 2015 0
-2176 -4415 0
2176 4415 -2015 0
-4420 -4418 0
-4420 -4419 0
4420 4418 4419 0
-4419 -2016 0
-4419 2177 0
-2177 2016 4419 0
-4418 2016 0
-2177 -4418 0
2177 4418 -2016 0
-4423 -4421 0
-4423 -4422 0
4423 4421 4422 0
-4422 -2017 0
-4422 2178 0
-2178 4422 2017 0
-4421 2017 0
-2178 -4421 0
-2017 4421 2178 0
-4426 -4424 0
-4426 -4425 0
4426 4424 4425 0
-4425 -2018 0
-4425 2179 0
-2179 4425 2018 0
-4424 2018 0
-2179 -4424 0
-2018 4424 2179 0
-4429 -4427 0
-4429 -4428 0
4429 4428 4427 0
-4428 -2019 0
-4428 2180 0
2019 4428 -2180 0
-4427 2019 0
-4427 -2180 0
2180 4427 -2019 0
-4406 4400 0
-4406 4405 0
-4405 -4400 4406 0
-4405 4397 0
-4405 4404 0
-4404 -4397 4405 0
-4404 4394 0
-4404 4403 0
-4403 -4394 4404 0
-4403 4391 0
-4403 4402 0
-4402 -4391 4403 0
-4402 4388 0
-4402 4401 0
-4401 -4388 4402 0
-4401 4382 0
-4401 4385 0
-4385 -4382 4401 0
-4385 -4383 0
-4385 -4384 0
4385 4383 4384 0
-4384 -2014 0
-4384 2161 0
-2161 2014 4384 0
-4383 2014 0
-2161 -4383 0
2161 4383 -2014 0
-4382 -4380 0
-4382 -4381 0
4382 4380 4381 0
-4381 -2013 0
-4381 2160 0
-2160 2013 4381 0
-4380 2013 0
-2160 -4380 0
2160 4380 -2013 0
-4388 -4386 0
-4388 -4387 0
4388 4386 4387 0
-4387 -2015 0
-4387 2162 0
-2162 2015 4387 0
-4386 2015 0
-2162 -4386 0
2162 4386 -2015 0
-4391 -4389 0
-4391 -4390 0
4391 4389 4390 0
-4390 -2016 0
-4390 2163 0
-2163 2016 4390 0
-4389 2016 0
-2163 -4389 0
2163 4389 -2016 0
-4394 -4392 0
-4394 -4393 0
4394 4392 4393 0
-4393 -2017 0
-4393 2164 0
-2164 4393 2017 0
-4392 2017 0
-2164 -4392 0
-2017 4392 2164 0
-4397 -4395 0
-4397 -4396 0
4397 4395 4396 0
-4396 -2018 0
-4396 2165 0
-2165 4396 2018 0
-4395 2018 0
-2165 -4395 0
-2018 4395 2165 0
-4400 -4398 0
-4400 -4399 0
4400 4399 4398 0
-4399 -2019 0
-4399 2166 0
2019 4399 -2166 0
-4398 2019 0
-4398 -2166 0
2166 4398 -2019 0
-4376 4377 -4371 0
-4375 4376 -4368 0
-4374 4375 -4365 0
-4373 4374 -4362 0
-4372 4373 -4359 0
4372 -4356 -4353 0
4356 4354 4355 0
-4355 -2014 0
-4355 2147 0
2014 -2147 4355 0
-4354 2014 0
-4354 -2147 0
4353 4351 4352 0
-4352 -2013 0
-4352 2146 0
2013 -2146 4352 0
-4351 2013 0
-4351 -2146 0
-2013 4351 2146 0
4359 4357 4358 0
-4358 -2015 0
-4358 2148 0
2015 -2148 4358 0
-4357 2015 0
-4357 -2148 0
4362 4360 4361 0
-4361 -2016 0
-4361 2149 0
2016 -2149 4361 0
-4360 2016 0
-4360 -2149 0
4365 4364 4363 0
-4364 -2017 0
-4364 2150 0
-2150 4364 2017 0
-4363 2017 0
-4363 -2150 0
-2017 4363 2150 0
4368 4367 4366 0
-4367 -2018 0
-4367 2151 0
-2151 4367 2018 0
-4366 2018 0
-4366 -2151 0
-2018 4366 2151 0
4371 4370 4369 0
-4370 -2019 0
-4370 2152 0
2019 4370 -2152 0
-4369 2019 0
-4369 -2152 0
4369 2152 -2019 0
-4343 -4348 4349 0
-4347 -4340 4348 0
-4346 -4337 4347 0
-4345 -4334 4346 0
-4344 -4331 4345 0
-4325 -4328 4344 0
-4328 -4326 0
-4328 -4327 0
4328 4326 4327 0
-4327 -2014 0
-4327 2133 0
-2133 2014 4327 0
-4326 2014 0
-2133 -4326 0
2133 4326 -2014 0
-4325 -4323 0
-4325 -4324 0
4325 4323 4324 0
-4324 -2013 0
-4324 2132 0
-2132 2013 4324 0
-4323 2013 0
-2132 -4323 0
2132 4323 -2013 0
-4331 -4329 0
-4331 -4330 0
4331 4329 4330 0
-4330 -2015 0
-4330 2134 0
-2134 2015 4330 0
-4329 2015 0
-2134 -4329 0
2134 4329 -2015 0
-4334 -4332 0
-4334 -4333 0
4334 4332 4333 0
-4333 -2016 0
-4333 2135 0
-2135 2016 4333 0
-4332 2016 0
-2135 -4332 0
2135 4332 -2016 0
-4337 -4335 0
-4337 -4336 0
4337 4335 4336 0
-4336 -2017 0
-4336 2136 0
-2136 4336 2017 0
-4335 2017 0
-2136 -4335 0
-2017 4335 2136 0
-4340 -4338 0
-4340 -4339 0
4340 4338 4339 0
-4339 -2018 0
-4339 2137 0
-2137 4339 2018 0
-4338 2018 0
-2137 -4338 0
-2018 4338 2137 0
-4341 -4343 0
-4342 -4343 0
4343 4342 4341 0
-4342 -2019 0
-4342 2138 0
2019 -2138 4342 0
-4341 2019 0
-4341 -2138 0
2138 -2019 4341 0
-4315 -4320 4321 0
-4319 -4312 4320 0
-4318 -4309 4319 0
-4317 -4306 4318 0
-4316 -4303 4317 0
-4300 -4297 4316 0
-4300 -4298 0
-4300 -4299 0
4300 4298 4299 0
-4299 -2014 0
-4299 2119 0
-2119 2014 4299 0
-4298 2014 0
-2119 -4298 0
2119 4298 -2014 0
-4297 -4295 0
-4297 -4296 0
4297 4295 4296 0
-4296 -2013 0
-4296 2118 0
-2118 2013 4296 0
-4295 2013 0
-2118 -4295 0
2118 4295 -2013 0
-4303 -4301 0
-4303 -4302 0
4303 4301 4302 0
-4302 -2015 0
-4302 2120 0
-2120 2015 4302 0
-4301 2015 0
-2120 -4301 0
2120 4301 -2015 0
-4306 -4304 0
-4306 -4305 0
4306 4304 4305 0
-4305 -2016 0
-4305 2121 0
-2121 2016 4305 0
-4304 2016 0
-2121 -4304 0
2121 4304 -2016 0
-4309 -4307 0
-4309 -4308 0
4309 4307 4308 0
-4308 -2017 0
-4308 2122 0
-2122 4308 2017 0
-4307 2017 0
-2122 -4307 0
-2017 4307 2122 0
-4312 -4310 0
-4312 -4311 0
4312 4310 4311 0
-4311 -2018 0
-4311 2123 0
-2123 4311 2018 0
-4310 2018 0
-2123 -4310 0
-2018 4310 2123 0
-4313 -4315 0
-4314 -4315 0
4315 4314 4313 0
-4314 -2019 0
-4314 2124 0
2019 -2124 4314 0
-4313 2019 0
-4313 -2124 0
2124 -2019 4313 0
4287 -4293 0
4292 -4293 0
-4287 -4292 4293 0
4284 -4292 0
4291 -4292 0
-4284 4292 -4291 0
4281 -4291 0
4290 -4291 0
-4281 4291 -4290 0
4278 -4290 0
4289 -4290 0
-4278 4290 -4289 0
4275 -4289 0
4288 -4289 0
-4275 4289 -4288 0
4269 -4288 0
4272 -4288 0
-4269 4288 -4272 0
-4270 -4272 0
-4271 -4272 0
4272 4270 4271 0
-4271 -2014 0
-4271 2105 0
-2105 2014 4271 0
-4270 2014 0
-2105 -4270 0
2105 -2014 4270 0
-4267 -4269 0
-4268 -4269 0
4269 4267 4268 0
-4268 -2013 0
-4268 2104 0
-2104 2013 4268 0
-4267 2013 0
-2104 -4267 0
2104 -2013 4267 0
-4273 -4275 0
-4274 -4275 0
4275 4273 4274 0
-4274 -2015 0
-4274 2106 0
-2106 2015 4274 0
-4273 2015 0
-2106 -4273 0
2106 -2015 4273 0
-4276 -4278 0
-4277 -4278 0
4278 4276 4277 0
-4277 -2016 0
-4277 2107 0
-2107 2016 4277 0
-4276 2016 0
-2107 -4276 0
2107 -2016 4276 0
-4279 -4281 0
-4280 -4281 0
4281 4279 4280 0
-4280 -2017 0
-4280 2108 0
-2108 2017 4280 0
-4279 2017 0
-2108 -4279 0
-2017 2108 4279 0
-4282 -4284 0
-4283 -4284 0
4284 4282 4283 0
-4283 -2018 0
-4283 2109 0
-2109 2018 4283 0
-4282 2018 0
-2109 -4282 0
-2018 2109 4282 0
-4285 -4287 0
-4286 -4287 0
4287 4286 4285 0
-4286 -2019 0
-4286 2110 0
2019 -2110 4286 0
-4285 2019 0
-4285 -2110 0
2110 -2019 4285 0
-4238 4265 4266 0
4259 -4265 0
4264 -4265 0
4256 -4264 0
4263 -4264 0
4253 -4263 0
4262 -4263 0
4250 -4262 0
4261 -4262 0
4247 -4261 0
4260 -4261 0
4241 -4260 0
4244 -4260 0
-4242 -4244 0
-4243 -4244 0
4244 4243 4242 0
-4243 -1860 0
-4243 2203 0
-2203 1860 4243 0
-4242 1860 0
2203 -1860 4242 0
-4239 -4241 0
-4240 -4241 0
4241 4240 4239 0
-4240 -1859 0
-4240 2202 0
-2202 1859 4240 0
-4239 1859 0
-4239 -2202 0
2202 -1859 4239 0
-4245 -4247 0
-4246 -4247 0
4247 4246 4245 0
-4246 -1861 0
-4246 2204 0
-2204 1861 4246 0
-4245 1861 0
-4245 -2204 0
2204 -1861 4245 0
-4248 -4250 0
-4249 -4250 0
4250 4249 4248 0
-4249 -1862 0
-4249 2205 0
-2205 1862 4249 0
-4248 1862 0
-4248 -2205 0
2205 -1862 4248 0
-4251 -4253 0
-4252 -4253 0
4253 4251 4252 0
-4252 -1863 0
-4252 2206 0
-2206 1863 4252 0
-4251 1863 0
-4251 -2206 0
-1863 2206 4251 0
-4254 -4256 0
-4255 -4256 0
4256 4254 4255 0
-4255 -1864 0
-4255 2207 0
-2207 1864 4255 0
-4254 1864 0
-4254 -2207 0
-1864 2207 4254 0
-4257 -4259 0
4259 4258 4257 0
-4258 -1865 0
-4258 2208 0
-4257 1865 0
-4257 -2208 0
2208 -1865 4257 0
-111 4238 -101 0
-4209 4236 4237 0
4230 -4236 0
4235 -4236 0
4227 -4235 0
4234 -4235 0
4224 -4234 0
4233 -4234 0
4221 -4233 0
4232 -4233 0
4218 -4232 0
4231 -4232 0
4212 -4231 0
4215 -4231 0
-4213 -4215 0
-4214 -4215 0
4215 4214 4213 0
-4214 -1860 0
-4214 2189 0
-2189 1860 4214 0
-4213 1860 0
-2189 -4213 0
2189 -1860 4213 0
-4211 -4212 0
4212 4211 4210 0
-4211 -1859 0
-4211 2188 0
-2188 1859 4211 0
-4210 1859 0
-2188 -4210 0
2188 -1859 4210 0
-4216 -4218 0
-4217 -4218 0
4218 4217 4216 0
-4217 -1861 0
-4217 2190 0
-2190 1861 4217 0
-4216 1861 0
-2190 -4216 0
2190 -1861 4216 0
-4219 -4221 0
-4220 -4221 0
4221 4220 4219 0
-4220 -1862 0
-4220 2191 0
-2191 1862 4220 0
-4219 1862 0
-2191 -4219 0
2191 -1862 4219 0
-4222 -4224 0
-4223 -4224 0
4224 4222 4223 0
-4223 -1863 0
-4223 2192 0
-2192 1863 4223 0
-4222 1863 0
-2192 -4222 0
-1863 2192 4222 0
-4225 -4227 0
-4226 -4227 0
4227 4225 4226 0
-4226 -1864 0
-4226 2193 0
-2193 1864 4226 0
-4225 1864 0
-2193 -4225 0
-1864 2193 4225 0
-4228 -4230 0
-4229 -4230 0
4230 4229 4228 0
-4229 -1865 0
-4229 2194 0
1865 -2194 4229 0
-4228 1865 0
-4228 -2194 0
2194 -1865 4228 0
-110 4209 -101 0
-4180 4207 4208 0
4201 -4207 0
4206 -4207 0
4198 -4206 0
4205 -4206 0
4195 -4205 0
4204 -4205 0
4192 -4204 0
4203 -4204 0
4189 -4203 0
4202 -4203 0
4183 -4202 0
4186 -4202 0
-4184 -4186 0
-4185 -4186 0
-2175 1860 4185 0
2175 -1860 4184 0
-4181 -4183 0
2174 -1859 4181 0
-4187 -4189 0
-4188 -4189 0
4189 4188 4187 0
-4188 -1861 0
-4188 2176 0
-2176 1861 4188 0
-4187 1861 0
-2176 -4187 0
2176 -1861 4187 0
-4190 -4192 0
-4191 -4192 0
4192 4191 4190 0
-4191 -1862 0
-4191 2177 0
-2177 1862 4191 0
-4190 1862 0
-2177 -4190 0
2177 -1862 4190 0
-4193 -4195 0
-4194 -4195 0
4195 4193 4194 0
-4194 -1863 0
-4194 2178 0
-2178 1863 4194 0
-4193 1863 0
-2178 -4193 0
-1863 2178 4193 0
-4196 -4198 0
-4197 -4198 0
4198 4196 4197 0
-4197 -1864 0
-4197 2179 0
-2179 1864 4197 0
-4196 1864 0
-2179 -4196 0
-1864 2179 4196 0
-4199 -4201 0
-4200 -4201 0
4201 4200 4199 0
-4200 -1865 0
-4200 2180 0
1865 -2180 4200 0
-4199 1865 0
-4199 -2180 0
2180 -1865 4199 0
-109 4180 -101 0
-4151 4178 4179 0
4172 -4178 0
4177 -4178 0
-4177 -4172 4178 0
4169 -4177 0
4176 -4177 0
-4176 4177 -4169 0
4166 -4176 0
4175 -4176 0
-4175 4176 -4166 0
4163 -4175 0
4174 -4175 0
-4174 4175 -4163 0
4160 -4174 0
4173 -4174 0
-4173 4174 -4160 0
4154 -4173 0
4157 -4173 0
-4157 4173 -4154 0
-4155 -4157 0
-4156 -4157 0
4157 4156 4155 0
-4156 -1860 0
-4156 2161 0
-2161 1860 4156 0
-4155 1860 0
-2161 -4155 0
2161 -1860 4155 0
-4152 -4154 0
-4153 -4154 0
4154 4153 4152 0
-4153 -1859 0
-4153 2160 0
-2160 1859 4153 0
-4152 1859 0
-2160 -4152 0
2160 -1859 4152 0
-4158 -4160 0
-4159 -4160 0
4160 4159 4158 0
-4159 -1861 0
-4159 2162 0
-2162 1861 4159 0
-4158 1861 0
-2162 -4158 0
2162 -1861 4158 0
-4161 -4163 0
-4162 -4163 0
4163 4162 4161 0
-4162 -1862 0
-4162 2163 0
-2163 1862 4162 0
-4161 1862 0
-2163 -4161 0
2163 -1862 4161 0
-4164 -4166 0
-4165 -4166 0
4166 4164 4165 0
-4165 -1863 0
-4165 2164 0
-2164 1863 4165 0
-4164 1863 0
-2164 -4164 0
-1863 2164 4164 0
-4167 -4169 0
-4168 -4169 0
4169 4167 4168 0
-4168 -1864 0
-4168 2165 0
-2165 1864 4168 0
-4167 1864 0
-2165 -4167 0
-1864 2165 4167 0
-4170 -4172 0
-4171 -4172 0
4172 4171 4170 0
-4171 -1865 0
-4171 2166 0
1865 -2166 4171 0
-4170 1865 0
-4170 -2166 0
2166 -1865 4170 0
-108 4151 -101 0
-4122 4149 4150 0
4143 -4149 0
4148 -4149 0
4140 -4148 0
4147 -4148 0
4137 -4147 0
4146 -4147 0
4134 -4146 0
4145 -4146 0
4131 -4145 0
4144 -4145 0
4125 -4144 0
4128 -4144 0
-4126 -4128 0
-4127 -4128 0
4128 4126 4127 0
-4127 -1860 0
-4127 2147 0
1860 -2147 4127 0
-4126 1860 0
-4126 -2147 0
-1860 2147 4126 0
-4123 -4125 0
-4124 -4125 0
4125 4123 4124 0
-4124 -1859 0
-4124 2146 0
1859 -2146 4124 0
-4123 1859 0
-4123 -2146 0
-1859 2146 4123 0
-4129 -4131 0
-4130 -4131 0
4131 4129 4130 0
-4130 -1861 0
-4130 2148 0
1861 -2148 4130 0
-4129 1861 0
-4129 -2148 0
-1861 2148 4129 0
-4132 -4134 0
-4133 -4134 0
4134 4132 4133 0
-4133 -1862 0
-4133 2149 0
1862 -2149 4133 0
-4132 1862 0
-4132 -2149 0
-1862 2149 4132 0
-4135 -4137 0
-4136 -4137 0
4137 4136 4135 0
-4136 -1863 0
-4136 2150 0
-2150 1863 4136 0
-4135 1863 0
-4135 -2150 0
-1863 2150 4135 0
-4138 -4140 0
-4139 -4140 0
4140 4139 4138 0
-4139 -1864 0
-4139 2151 0
-2151 1864 4139 0
-4138 1864 0
-4138 -2151 0
-1864 2151 4138 0
-4141 -4143 0
-4142 -4143 0
4143 4142 4141 0
-4142 -1865 0
-4142 2152 0
1865 -2152 4142 0
-4141 1865 0
-4141 -2152 0
2152 -1865 4141 0
-107 4122 -101 0
-4093 4120 4121 0
4114 -4120 0
4119 -4120 0
4111 -4119 0
4118 -4119 0
4108 -4118 0
4117 -4118 0
4105 -4117 0
4116 -4117 0
4102 -4116 0
4115 -4116 0
4096 -4115 0
4099 -4115 0
-4097 -4099 0
-4098 -4099 0
4099 4098 4097 0
-4098 -1860 0
-4098 2133 0
-2133 1860 4098 0
-4097 1860 0
-2133 -4097 0
2133 -1860 4097 0
-4094 -4096 0
-4095 -4096 0
4096 4095 4094 0
-4095 -1859 0
-4095 2132 0
-2132 1859 4095 0
-4094 1859 0
-2132 -4094 0
2132 -1859 4094 0
-4100 -4102 0
-4101 -4102 0
4102 4101 4100 0
-4101 -1861 0
-4101 2134 0
-2134 1861 4101 0
-4100 1861 0
-2134 -4100 0
2134 -1861 4100 0
-4103 -4105 0
-4104 -4105 0
4105 4104 4103 0
-4104 -1862 0
-4104 2135 0
-2135 1862 4104 0
-4103 1862 0
-2135 -4103 0
2135 -1862 4103 0
-4106 -4108 0
-4107 -4108 0
4108 4106 4107 0
-4107 -1863 0
-4107 2136 0
-2136 1863 4107 0
-4106 1863 0
-2136 -4106 0
-1863 2136 4106 0
-4109 -4111 0
-4110 -4111 0
4111 4109 4110 0
-4110 -1864 0
-4110 2137 0
-2137 1864 4110 0
-4109 1864 0
-2137 -4109 0
-1864 2137 4109 0
-4112 -4114 0
-4113 -4114 0
4114 4113 4112 0
-4113 -1865 0
-4113 2138 0
1865 -2138 4113 0
-4112 1865 0
-4112 -2138 0
2138 -1865 4112 0
-106 4093 -101 0
-4064 4091 4092 0
4085 -4091 0
4090 -4091 0
4082 -4090 0
4089 -4090 0
4079 -4089 0
4088 -4089 0
4076 -4088 0
4087 -4088 0
4073 -4087 0
4086 -4087 0
4067 -4086 0
4070 -4086 0
-4068 -4070 0
-4069 -4070 0
4070 4069 4068 0
-4069 -1860 0
-4069 2119 0
-2119 1860 4069 0
-4068 1860 0
-2119 -4068 0
2119 -1860 4068 0
-4065 -4067 0
-4066 -4067 0
4067 4066 4065 0
-4066 -1859 0
-4066 2118 0
-2118 1859 4066 0
-4065 1859 0
-2118 -4065 0
2118 -1859 4065 0
-4071 -4073 0
-4072 -4073 0
4073 4072 4071 0
-4072 -1861 0
-4072 2120 0
-2120 1861 4072 0
-4071 1861 0
-2120 -4071 0
2120 -1861 4071 0
-4074 -4076 0
-4075 -4076 0
4076 4075 4074 0
-4075 -1862 0
-4075 2121 0
-2121 1862 4075 0
-4074 1862 0
-2121 -4074 0
2121 -1862 4074 0
-4077 -4079 0
-4078 -4079 0
4079 4077 4078 0
-4078 -1863 0
-4078 2122 0
-2122 1863 4078 0
-4077 1863 0
-2122 -4077 0
-1863 2122 4077 0
-4080 -4082 0
-4081 -4082 0
4082 4080 4081 0
-4081 -1864 0
-4081 2123 0
-2123 1864 4081 0
-4080 1864 0
-2123 -4080 0
-1864 2123 4080 0
-4083 -4085 0
-4084 -4085 0
4085 4084 4083 0
-4084 -1865 0
-4084 2124 0
1865 -2124 4084 0
-4083 1865 0
-4083 -2124 0
2124 -1865 4083 0
-105 4064 -101 0
-4035 4062 4063 0
4056 -4062 0
4061 -4062 0
-4056 4062 -4061 0
4053 -4061 0
4060 -4061 0
-4060 4061 -4053 0
4050 -4060 0
4059 -4060 0
-4059 4060 -4050 0
4047 -4059 0
4058 -4059 0
-4058 4059 -4047 0
4044 -4058 0
4057 -4058 0
-4057 4058 -4044 0
4038 -4057 0
4041 -4057 0
4057 -4041 -4038 0
-4039 -4041 0
-4040 -4041 0
4041 4040 4039 0
-4040 -1860 0
-4040 2105 0
-2105 1860 4040 0
-4039 1860 0
-2105 -4039 0
2105 -1860 4039 0
-4036 -4038 0
-4037 -4038 0
4038 4037 4036 0
-4037 -1859 0
-4037 2104 0
-2104 1859 4037 0
-4036 1859 0
-2104 -4036 0
2104 -1859 4036 0
-4042 -4044 0
-4043 -4044 0
4044 4043 4042 0
-4043 -1861 0
-4043 2106 0
-2106 1861 4043 0
-4042 1861 0
-2106 -4042 0
2106 -1861 4042 0
-4045 -4047 0
-4046 -4047 0
4047 4046 4045 0
-4046 -1862 0
-4046 2107 0
-2107 1862 4046 0
-4045 1862 0
-2107 -4045 0
2107 -1862 4045 0
-4048 -4050 0
-4049 -4050 0
4050 4048 4049 0
-4049 -1863 0
-4049 2108 0
-2108 1863 4049 0
-4048 1863 0
-2108 -4048 0
-1863 2108 4048 0
-4051 -4053 0
-4052 -4053 0
4053 4051 4052 0
-4052 -1864 0
-4052 2109 0
-2109 1864 4052 0
-4051 1864 0
-2109 -4051 0
-1864 2109 4051 0
-4054 -4056 0
-4055 -4056 0
4056 4055 4054 0
-4055 -1865 0
-4055 2110 0
1865 -2110 4055 0
-4054 1865 0
-4054 -2110 0
2110 -1865 4054 0
4035 -104 -101 0
4033 -4006 4034 0
4027 -4033 0
4032 -4033 0
4024 -4032 0
4031 -4032 0
4021 -4031 0
4030 -4031 0
4018 -4030 0
4029 -4030 0
4015 -4029 0
4028 -4029 0
4009 -4028 0
4012 -4028 0
-4010 -4012 0
-4011 -4012 0
-2014 1860 4011 0
-1860 2014 4010 0
-4007 -4009 0
-4008 -4009 0
-2013 1859 4008 0
-1859 2013 4007 0
-4013 -4015 0
-4014 -4015 0
-2015 1861 4014 0
-1861 2015 4013 0
-4016 -4018 0
-4017 -4018 0
-2016 1862 4017 0
-1862 2016 4016 0
-4019 -4021 0
-4020 -4021 0
-2017 1863 4020 0
-1863 2017 4019 0
-4022 -4024 0
-4023 -4024 0
-2018 1864 4023 0
2018 -1864 4022 0
-4025 -4027 0
-4026 -4027 0
1865 -2019 4026 0
2019 -1865 4025 0
4006 -102 -101 0
3981 3982 3983 0
3243 -3982 0
-3243 3982 3207 0
-3981 3207 0
3980 3979 3978 0
-3978 3206 0
-3986 -3985 0
3984 3985 3986 0
3244 -3985 0
-3244 3985 3208 0
-3984 3208 0
3987 3988 3989 0
3245 -3988 0
-3245 3988 3209 0
-3987 3209 0
3990 3991 3992 0
3246 -3991 0
-3246 3210 3991 0
-3990 3210 0
3993 3994 3995 0
3247 -3994 0
-3247 3994 3211 0
-3993 3211 0
3996 3998 3997 0
-3212 -3997 0
3248 -3997 0
-3248 3212 3997 0
-3996 3212 0
-3996 -3248 0
3965 3966 3967 0
3247 -3966 0
-3247 3966 1850 0
-3965 1850 0
3968 3970 3969 0
3248 -3969 0
-3248 1851 3969 0
-3968 1851 0
-3926 -3925 0
3924 3925 3926 0
3207 -3925 0
-3207 1846 3925 0
-3924 1846 0
3921 3922 3923 0
3206 -3922 0
1845 3922 -3206 0
-3921 1845 0
-3929 -3928 0
3927 3928 3929 0
-3928 -1847 0
3208 -3928 0
3928 -3208 1847 0
-3927 1847 0
-3927 -3208 0
-3932 -3931 0
3930 3931 3932 0
-3931 -1848 0
3209 -3931 0
3931 -3209 1848 0
-3930 1848 0
-3930 -3209 0
3933 3934 3935 0
-3934 -1849 0
3210 -3934 0
3934 -3210 1849 0
-3933 1849 0
-3933 -3210 0
-3938 -3937 0
3936 3937 3938 0
-1850 -3937 0
3211 -3937 0
3937 -3211 1850 0
-3936 1850 0
-3936 -3211 0
-3941 -3940 0
3939 3941 3940 0
-3940 -1851 0
-3212 1851 3940 0
-3939 1851 0
-3939 -3212 0
-3900 -3899 0
3898 3899 3900 0
3899 -3208 1833 0
-3898 -3208 0
-3903 -3902 0
3901 3902 3903 0
-3902 -1834 0
3209 -3902 0
3902 -3209 1834 0
-3901 1834 0
-3901 -3209 0
-3906 -3905 0
3904 3905 3906 0
-3905 -1835 0
3210 -3905 0
3905 -3210 1835 0
-3904 1835 0
-3904 -3210 0
-3909 -3908 0
3907 3908 3909 0
-1836 -3908 0
3211 -3908 0
-3211 3908 1836 0
-3907 1836 0
-3907 -3211 0
3910 3912 3911 0
-3911 -1837 0
3212 -3911 0
-3212 1837 3911 0
-3910 1837 0
-3910 -3212 0
-3868 -3867 0
3866 3867 3868 0
-3867 -1832 0
1846 -3867 0
3867 -1846 1832 0
-3866 1832 0
-3866 -1846 0
3863 3864 3865 0
-3864 -1831 0
1831 -1845 3864 0
-3863 -1845 0
3869 3870 3871 0
-3870 -1833 0
-3869 -1847 0
3872 3873 3874 0
-3873 -1834 0
-3872 -1848 0
-3877 -3876 0
3875 3876 3877 0
-3876 1849 0
3876 1835 -1849 0
-3875 1835 0
-3875 -1849 0
3878 3879 3880 0
-1836 -3879 0
-3879 1850 0
-1850 3879 1836 0
-3878 1836 0
-3878 -1850 0
3883 3881 3882 0
1837 -1851 3882 0
-3881 1837 0
-3881 -1851 0
-3833 3860 3861 0
3854 -3860 0
3859 -3860 0
3851 -3859 0
3858 -3859 0
3848 -3858 0
3857 -3858 0
3845 -3857 0
3856 -3857 0
3842 -3856 0
-3840 -3842 0
3244 -1805 3840 0
-3843 -3845 0
3245 -1806 3843 0
-3846 -3848 0
3246 -1807 3846 0
-3849 -3851 0
3247 -1808 3849 0
-3852 -3854 0
3248 -1809 3852 0
-14 -9 3833 0
-3804 3831 3832 0
3825 -3831 0
3830 -3831 0
3822 -3830 0
3829 -3830 0
3828 -3829 0
3816 -3828 0
3827 -3828 0
3813 -3827 0
-3811 -3813 0
3208 -1805 3811 0
-3814 -3816 0
-1806 3209 3814 0
-3820 -3822 0
3211 -1808 3820 0
-3823 -3825 0
3212 -1809 3823 0
-13 -9 3804 0
-3775 3802 3803 0
3801 -3802 0
3793 -3801 0
3800 -3801 0
3790 -3800 0
3799 -3800 0
3787 -3799 0
-3785 -3787 0
1848 -1806 3785 0
-3788 -3790 0
1849 -1807 3788 0
-3791 -3793 0
-3792 -3793 0
-1850 1808 3792 0
1850 -1808 3791 0
3794 3796 3795 0
-3795 1851 0
-3794 1809 0
-12 -9 3775 0
-3746 3773 3774 0
3767 -3773 0
3772 -3773 0
3764 -3772 0
3771 -3772 0
3761 -3771 0
3770 -3771 0
3758 -3770 0
3769 -3770 0
3755 -3769 0
3768 -3769 0
3749 -3768 0
3752 -3768 0
-3750 -3752 0
1832 -1804 3750 0
-3747 -3749 0
1831 -1803 3747 0
-3753 -3755 0
1833 -1805 3753 0
-3756 -3758 0
1834 -1806 3756 0
-3759 -3761 0
1835 -1807 3759 0
-3762 -3764 0
1836 -1808 3762 0
-3765 -3767 0
3766 3767 3765 0
-3766 1837 0
-3765 1809 0
1837 -1809 3765 0
-11 -9 3746 0
-3717 3744 3745 0
3738 -3744 0
3743 -3744 0
-3743 -3738 3744 0
3735 -3743 0
3742 -3743 0
3743 -3742 -3735 0
3732 -3742 0
3741 -3742 0
-3741 3742 -3732 0
3729 -3741 0
3740 -3741 0
3741 -3740 -3729 0
3726 -3740 0
3739 -3740 0
-3739 3740 -3726 0
3720 -3739 0
3723 -3739 0
3739 -3720 -3723 0
-3721 -3723 0
-3722 -3723 0
3723 3721 3722 0
-3722 -1804 0
-3722 1818 0
1804 -1818 3722 0
-3721 1804 0
-3721 -1818 0
-1804 1818 3721 0
-3718 -3720 0
3720 3718 3719 0
-1803 -3719 0
-3719 1817 0
1803 -1817 3719 0
-3718 1803 0
-3718 -1817 0
-1803 1817 3718 0
-3724 -3726 0
-3725 -3726 0
3726 3724 3725 0
-3725 -1805 0
-3725 1819 0
1805 -1819 3725 0
-3724 1805 0
-3724 -1819 0
-1805 1819 3724 0
-3727 -3729 0
-3728 -3729 0
3729 3727 3728 0
-3728 -1806 0
-3728 1820 0
1806 -1820 3728 0
-3727 1806 0
-3727 -1820 0
-1806 1820 3727 0
-3730 -3732 0
-3731 -3732 0
3732 3730 3731 0
-3731 -1807 0
-3731 1821 0
1807 -1821 3731 0
-3730 1807 0
-3730 -1821 0
-1807 1821 3730 0
-3733 -3735 0
-3734 -3735 0
3735 3733 3734 0
-3734 -1808 0
-3734 1822 0
1808 -1822 3734 0
-3733 1808 0
-3733 -1822 0
-1808 1822 3733 0
-3736 -3738 0
-3737 -3738 0
3738 3736 3737 0
-3737 -1809 0
-3737 1823 0
1809 -1823 3737 0
-3736 1809 0
-3736 -1823 0
1823 -1809 3736 0
-10 -9 3717 0
-3688 3715 3716 0
3709 -3715 0
3714 -3715 0
3706 -3714 0
3713 -3714 0
3703 -3713 0
3712 -3713 0
3700 -3712 0
3711 -3712 0
3697 -3711 0
3710 -3711 0
3691 -3710 0
3694 -3710 0
-3698 -3700 0
3245 -1792 3698 0
-3701 -3703 0
-3702 -3703 0
-3246 1793 3702 0
3246 -1793 3701 0
-3704 -3706 0
-3705 -3706 0
-3247 1794 3705 0
3247 -1794 3704 0
-3707 -3709 0
3248 -1795 3707 0
-8 -14 3688 0
-3659 3686 3687 0
3680 -3686 0
3685 -3686 0
3677 -3685 0
3684 -3685 0
3674 -3684 0
3683 -3684 0
3671 -3683 0
3682 -3683 0
3668 -3682 0
3681 -3682 0
3662 -3681 0
3665 -3681 0
-3669 -3671 0
-1792 3209 3669 0
-3672 -3674 0
3210 -1793 3672 0
-3675 -3677 0
3211 -1794 3675 0
-3678 -3680 0
3212 -1795 3678 0
-8 -13 3659 0
-3630 3657 3658 0
3651 -3657 0
3656 -3657 0
3655 -3656 0
3645 -3655 0
3654 -3655 0
3642 -3654 0
3653 -3654 0
3639 -3653 0
-3637 -3639 0
1847 -1791 3637 0
-3640 -3642 0
-3641 -3642 0
1792 -1848 3641 0
1848 -1792 3640 0
-3643 -3645 0
1849 -1793 3643 0
-3649 -3651 0
1851 -1795 3649 0
-8 -12 3630 0
-3601 3628 3629 0
3622 -3628 0
3627 -3628 0
3619 -3627 0
3626 -3627 0
3616 -3626 0
3625 -3626 0
3613 -3625 0
3624 -3625 0
3610 -3624 0
3623 -3624 0
3604 -3623 0
3607 -3623 0
-3608 -3610 0
-1791 1833 3608 0
-3611 -3613 0
-1792 1834 3611 0
-3620 -3622 0
1837 -1795 3620 0
-8 -11 3601 0
-3572 3599 3600 0
3593 -3599 0
3598 -3599 0
3590 -3598 0
3597 -3598 0
3587 -3597 0
3596 -3597 0
3584 -3596 0
3595 -3596 0
3581 -3595 0
3594 -3595 0
3575 -3594 0
3578 -3594 0
-3576 -3578 0
-1790 1818 3576 0
-3573 -3575 0
-1789 1817 3573 0
-3579 -3581 0
-3580 -3581 0
3579 3581 3580 0
1791 -1819 3580 0
-3579 1791 0
-1791 1819 3579 0
-3582 -3584 0
-3583 -3584 0
3584 3582 3583 0
-3583 -1792 0
-3583 1820 0
1792 -1820 3583 0
-3582 1792 0
-3582 -1820 0
-1792 1820 3582 0
-3585 -3587 0
-3586 -3587 0
3587 3585 3586 0
-3586 -1793 0
-3586 1821 0
1793 -1821 3586 0
-3585 1793 0
-3585 -1821 0
-1793 1821 3585 0
-3588 -3590 0
-3589 -3590 0
3590 3588 3589 0
-1794 -3589 0
-3589 1822 0
1794 -1822 3589 0
-3588 1794 0
-3588 -1822 0
-1794 1822 3588 0
-3591 -3593 0
-3592 -3593 0
3593 3592 3591 0
-3592 -1795 0
-3592 1823 0
1795 -1823 3592 0
-3591 1795 0
-3591 -1823 0
1823 -1795 3591 0
-8 -10 3572 0
-3543 3570 3571 0
3564 -3570 0
3569 -3570 0
3561 -3569 0
3568 -3569 0
3558 -3568 0
3567 -3568 0
3555 -3567 0
3566 -3567 0
3552 -3566 0
3565 -3566 0
3546 -3565 0
3549 -3565 0
-3548 -3549 0
1790 -1804 3548 0
-3545 -3546 0
-1803 1789 3545 0
-3550 -3552 0
-3551 -3552 0
1791 -1805 3551 0
-1791 1805 3550 0
-3553 -3555 0
-3554 -3555 0
3553 3555 3554 0
-3554 -1792 0
-1806 1792 3554 0
-3553 -1806 0
-1792 1806 3553 0
-3556 -3558 0
-3557 -3558 0
3556 3558 3557 0
-3557 -1793 0
-3557 1807 0
1793 -1807 3557 0
-3556 1793 0
-3556 -1807 0
1807 -1793 3556 0
-3559 -3561 0
-3560 -3561 0
3559 3561 3560 0
-3560 -1794 0
-3560 1808 0
-1808 1794 3560 0
-3559 1794 0
-3559 -1808 0
-1794 1808 3559 0
-3562 -3564 0
-3563 -3564 0
3564 3562 3563 0
-3563 -1795 0
-3563 1809 0
1795 -1809 3563 0
-3562 1795 0
-3562 -1809 0
1809 -1795 3562 0
-8 -9 3543 0
-3514 3541 3542 0
3535 -3541 0
3540 -3541 0
3539 -3540 0
3529 -3539 0
-3527 -3529 0
3246 -1779 3527 0
-3533 -3535 0
3248 -1781 3533 0
-7 -14 3514 0
-3485 3512 3513 0
3506 -3512 0
3511 -3512 0
3503 -3511 0
3510 -3511 0
3500 -3510 0
3509 -3510 0
3497 -3509 0
3508 -3509 0
3494 -3508 0
-3492 -3494 0
3208 -1777 3492 0
-3495 -3497 0
3209 -1778 3495 0
-3498 -3500 0
-3499 -3500 0
-3210 1779 3499 0
3210 -1779 3498 0
-3501 -3503 0
-3502 -3503 0
-3211 1780 3502 0
3211 -1780 3501 0
-3504 -3506 0
3212 -1781 3504 0
-7 -13 3485 0
-3456 3483 3484 0
3477 -3483 0
3482 -3483 0
3474 -3482 0
3481 -3482 0
3471 -3481 0
-3469 -3471 0
1849 -1779 3469 0
-3472 -3474 0
-1780 1850 3472 0
-3475 -3477 0
1851 -1781 3475 0
-7 -12 3456 0
-3427 3454 3455 0
3448 -3454 0
3453 -3454 0
3445 -3453 0
3452 -3453 0
3442 -3452 0
-3440 -3442 0
1835 -1779 3440 0
-3443 -3445 0
-1780 1836 3443 0
-3446 -3448 0
1837 -1781 3446 0
3427 -7 -11 0
-3398 3425 3426 0
3419 -3425 0
3424 -3425 0
-3419 -3424 3425 0
3416 -3424 0
3423 -3424 0
3424 -3423 -3416 0
3413 -3423 0
3422 -3423 0
-3422 3423 -3413 0
3410 -3422 0
3421 -3422 0
3422 -3421 -3410 0
3407 -3421 0
3420 -3421 0
-3420 3421 -3407 0
3401 -3420 0
3404 -3420 0
3420 -3401 -3404 0
-3402 -3404 0
-3403 -3404 0
3404 3402 3403 0
-3403 -1776 0
-3403 1818 0
1776 -1818 3403 0
-3402 1776 0
-3402 -1818 0
-1776 1818 3402 0
-3399 -3401 0
-3400 -3401 0
3401 3399 3400 0
-1775 -3400 0
-3400 1817 0
1775 -1817 3400 0
-3399 1775 0
-3399 -1817 0
-1775 1817 3399 0
-3405 -3407 0
-3406 -3407 0
3407 3405 3406 0
-3406 -1777 0
-3406 1819 0
1777 -1819 3406 0
-3405 1777 0
-3405 -1819 0
-1777 1819 3405 0
-3408 -3410 0
-3409 -3410 0
3410 3408 3409 0
-3409 -1778 0
-3409 1820 0
1778 -1820 3409 0
-3408 1778 0
-3408 -1820 0
-1778 1820 3408 0
-3411 -3413 0
-3412 -3413 0
3413 3411 3412 0
-3412 -1779 0
-3412 1821 0
1779 -1821 3412 0
-3411 1779 0
-3411 -1821 0
-1779 1821 3411 0
-3414 -3416 0
-3415 -3416 0
3416 3414 3415 0
-1780 -3415 0
-3415 1822 0
1780 -1822 3415 0
-3414 1780 0
-3414 -1822 0
-1780 1822 3414 0
-3417 -3419 0
-3418 -3419 0
3419 3418 3417 0
-3418 -1781 0
-3418 1823 0
1781 -1823 3418 0
-3417 1781 0
-3417 -1823 0
1823 -1781 3417 0
-7 -10 3398 0
-3369 3396 3397 0
3390 -3396 0
3395 -3396 0
3387 -3395 0
3394 -3395 0
3384 -3394 0
3393 -3394 0
3381 -3393 0
3392 -3393 0
3378 -3392 0
3391 -3392 0
3372 -3391 0
3375 -3391 0
-3373 -3375 0
-3374 -3375 0
1776 -1804 3374 0
1804 -1776 3373 0
-3370 -3372 0
-3371 -3372 0
-1803 1775 3371 0
-1775 1803 3370 0
-3376 -3378 0
-3377 -3378 0
1777 -1805 3377 0
1805 -1777 3376 0
-3379 -3381 0
-3380 -3381 0
-1806 1778 3380 0
1806 -1778 3379 0
-3382 -3384 0
-3383 -3384 0
3382 3384 3383 0
-3383 1807 0
1779 -1807 3383 0
-3382 1779 0
1807 -1779 3382 0
-3385 -3387 0
-3386 -3387 0
3385 3387 3386 0
-3386 -1780 0
-3386 1808 0
-1808 1780 3386 0
-3385 1780 0
-3385 -1808 0
-1780 1808 3385 0
-3388 -3390 0
-3389 -3390 0
3390 3388 3389 0
-3389 -1781 0
1781 -1809 3389 0
-3388 -1809 0
1809 -1781 3388 0
-7 -9 3369 0
-2117 -3368 0
3367 -3368 0
-2131 -3367 0
3366 -3367 0
-2145 -3366 0
3365 -3366 0
3364 -3365 0
-2173 -3364 0
3363 -3364 0
-2187 -3363 0
3362 -3363 0
-2201 -3362 0
3361 -3362 0
-2215 -3361 0
3360 -3361 0
-2229 -3360 0
3359 -3360 0
-2243 -3359 0
3358 -3359 0
-2257 -3358 0
3357 -3358 0
3356 -3357 0
-2285 -3356 0
3355 -3356 0
-2299 -3355 0
3354 -3355 0
-2313 -3354 0
3353 -3354 0
-2327 -3353 0
3352 -3353 0
-2341 -3352 0
3351 -3352 0
-2355 -3351 0
3350 -3351 0
-2369 -3350 0
3349 -3350 0
-2383 -3349 0
3348 -3349 0
-2397 -3348 0
3347 -3348 0
-2411 -3347 0
3346 -3347 0
-2425 -3346 0
3345 -3346 0
-2439 -3345 0
3344 -3345 0
-2453 -3344 0
3343 -3344 0
-2467 -3343 0
3342 -3343 0
-2481 -3342 0
3341 -3342 0
-2495 -3341 0
3340 -3341 0
-2509 -3340 0
3339 -3340 0
-2523 -3339 0
3338 -3339 0
-2537 -3338 0
3337 -3338 0
-2551 -3337 0
3336 -3337 0
-2565 -3336 0
3335 -3336 0
-2579 -3335 0
3334 -3335 0
-2593 -3334 0
3333 -3334 0
-2607 -3333 0
3332 -3333 0
-2621 -3332 0
3331 -3332 0
-2635 -3331 0
3330 -3331 0
-2649 -3330 0
3329 -3330 0
-2663 -3329 0
3328 -3329 0
-2677 -3328 0
3327 -3328 0
-2691 -3327 0
3326 -3327 0
3325 -3326 0
3324 -3325 0
-2733 -3324 0
3323 -3324 0
-2769 -3323 0
3322 -3323 0
-2798 -3322 0
3321 -3322 0
-2827 -3321 0
3320 -3321 0
-2856 -3320 0
3319 -3320 0
-2885 -3319 0
3318 -3319 0
-2914 -3318 0
3317 -3318 0
-2943 -3317 0
3316 -3317 0
-2972 -3316 0
3315 -3316 0
-3001 -3315 0
3314 -3315 0
-3030 -3314 0
3313 -3314 0
-3059 -3313 0
3312 -3313 0
-3088 -3312 0
3311 -3312 0
-3117 -3311 0
3310 -3311 0
-3146 -3310 0
3309 -3310 0
-3175 -3309 0
3308 -3309 0
-3204 -3308 0
3307 -3308 0
-3240 -3307 0
3306 -3307 0
-3276 -3306 0
-3305 -3306 0
-3277 3304 3305 0
3298 -3304 0
3303 -3304 0
3295 -3303 0
3302 -3303 0
3292 -3302 0
3301 -3302 0
3289 -3301 0
3300 -3301 0
3286 -3300 0
3299 -3300 0
3280 -3299 0
3283 -3299 0
-3281 -3283 0
-3282 -3283 0
1776 -1790 3282 0
1790 -1776 3281 0
-3278 -3280 0
-1775 1789 3278 0
-3284 -3286 0
-3285 -3286 0
3284 3286 3285 0
-3285 -1777 0
-1791 1777 3285 0
-3284 -1791 0
1791 -1777 3284 0
-3287 -3289 0
-3288 -3289 0
3287 3289 3288 0
-3288 1792 0
-1792 1778 3288 0
-3287 1778 0
-1778 1792 3287 0
-3290 -3292 0
-3291 -3292 0
3290 3292 3291 0
-3291 -1779 0
-3291 1793 0
1779 -1793 3291 0
-3290 1779 0
-3290 -1793 0
1793 -1779 3290 0
-3293 -3295 0
-3294 -3295 0
3294 3295 3293 0
-3294 -1780 0
-3294 1794 0
-1794 1780 3294 0
-3293 1780 0
-3293 -1794 0
-1780 1794 3293 0
-3296 -3298 0
-3297 -3298 0
3298 3296 3297 0
-3297 -1781 0
-3297 1795 0
1781 -1795 3297 0
-3296 1781 0
-3296 -1795 0
1795 -1781 3296 0
-7 -8 3277 0
3275 -3241 3276 0
3241 -6 -14 0
3239 -3205 3240 0
3205 -6 -13 0
3203 -3176 3204 0
3176 -6 -12 0
3174 -3147 3175 0
3147 -6 -11 0
3145 -3118 3146 0
3139 -3145 0
3144 -3145 0
3143 -3144 0
3133 -3143 0
3142 -3143 0
3130 -3142 0
3141 -3142 0
3127 -3141 0
-3125 -3127 0
-3126 -3127 0
1763 -1819 3126 0
-1763 1819 3125 0
-3128 -3130 0
-3129 -3130 0
1764 -1820 3129 0
-1764 1820 3128 0
-3131 -3133 0
-3132 -3133 0
1765 -1821 3132 0
-1765 1821 3131 0
-3138 -3139 0
1767 -1823 3138 0
3118 -6 -10 0
-3089 3116 3117 0
3110 -3116 0
3115 -3116 0
3107 -3115 0
3114 -3115 0
3104 -3114 0
3113 -3114 0
3101 -3113 0
-3099 -3101 0
-3100 -3101 0
-1806 1764 3100 0
1806 -1764 3099 0
-3102 -3104 0
1807 -1765 3102 0
-3105 -3107 0
1808 -1766 3105 0
-3108 -3110 0
1809 -1767 3108 0
3089 -6 -9 0
-3060 3087 3088 0
3081 -3087 0
3086 -3087 0
3078 -3086 0
3085 -3086 0
3075 -3085 0
3084 -3085 0
3072 -3084 0
3083 -3084 0
3069 -3083 0
-3067 -3069 0
-3068 -3069 0
-1791 1763 3068 0
1791 -1763 3067 0
-3070 -3072 0
-3071 -3072 0
-1792 1764 3071 0
1792 -1764 3070 0
-3073 -3075 0
-3074 -3075 0
-1793 1765 3074 0
1793 -1765 3073 0
-3076 -3078 0
-3077 -3078 0
-1794 1766 3077 0
1794 -1766 3076 0
-3079 -3081 0
-3080 -3081 0
1767 -1795 3080 0
1795 -1767 3079 0
3060 -6 -8 0
-3031 3058 3059 0
3052 -3058 0
3057 -3058 0
3049 -3057 0
3056 -3057 0
3046 -3056 0
3055 -3056 0
3043 -3055 0
3054 -3055 0
3040 -3054 0
3053 -3054 0
3034 -3053 0
3037 -3053 0
-3035 -3037 0
-3036 -3037 0
1762 -1776 3036 0
-1762 1776 3035 0
-3032 -3034 0
-3033 -3034 0
-1775 1761 3033 0
1775 -1761 3032 0
-3038 -3040 0
-3039 -3040 0
1763 -1777 3039 0
1777 -1763 3038 0
-3041 -3043 0
-3042 -3043 0
-1778 1764 3042 0
1778 -1764 3041 0
-3044 -3046 0
-3045 -3046 0
3044 3046 3045 0
-3045 1779 0
-1779 1765 3045 0
-3044 1765 0
1779 -1765 3044 0
-3047 -3049 0
-3048 -3049 0
3047 3049 3048 0
-3048 1780 0
-1780 1766 3048 0
-3047 1766 0
1780 -1766 3047 0
-3050 -3052 0
-3051 -3052 0
3052 3051 3050 0
-3051 -1767 0
-3051 1781 0
1767 -1781 3051 0
1767 -3050 0
-3050 -1781 0
1781 -1767 3050 0
-6 -7 3031 0
3029 -3002 3030 0
-3029 3023 0
-3029 3028 0
-3028 3020 0
-3028 3027 0
-3027 3017 0
-3027 3026 0
-3026 3014 0
-3026 3025 0
-3025 3011 0
-3025 3024 0
-3024 3005 0
-3024 3008 0
3006 3008 3007 0
-3007 1818 0
1748 -1818 3007 0
-3006 1748 0
3005 3004 3003 0
-3003 -1817 0
-3011 -3010 0
3011 3009 3010 0
-3010 -1749 0
-3010 1819 0
1749 -1819 3010 0
-3009 1749 0
-3009 -1819 0
-3014 -3013 0
3014 3012 3013 0
-3013 -1750 0
-3013 1820 0
1750 -1820 3013 0
-3012 1750 0
-3012 -1820 0
-3015 -3017 0
-3017 -3016 0
3017 3016 3015 0
-3016 -1751 0
-3016 1821 0
-1821 3016 1751 0
-3015 1751 0
-3015 -1821 0
-1751 3015 1821 0
-3018 -3020 0
3020 3019 3018 0
-3019 -1752 0
-3019 1822 0
-3018 1752 0
-3018 -1822 0
-1752 3018 1822 0
3023 3022 3021 0
-3022 -1753 0
-3022 1823 0
-3021 1753 0
-3021 -1823 0
3002 -5 -10 0
-2973 3000 3001 0
2994 -3000 0
2999 -3000 0
2991 -2999 0
2998 -2999 0
2988 -2998 0
2997 -2998 0
2985 -2997 0
2996 -2997 0
2982 -2996 0
2995 -2996 0
2976 -2995 0
2979 -2995 0
-2978 -2979 0
2977 2979 2978 0
-2978 -1748 0
1804 -2978 0
1748 -1804 2978 0
-2977 1748 0
-2977 -1804 0
2975 2976 2974 0
-1747 -2975 0
1803 -2975 0
-1803 1747 2975 0
-2974 1747 0
-1803 -2974 0
2980 2982 2981 0
-2981 -1749 0
1805 -2981 0
-1805 2981 1749 0
-2980 1749 0
-2980 -1805 0
1805 2980 -1749 0
-2983 -2985 0
2984 2985 2983 0
-2984 -1750 0
1806 -2984 0
-1806 1750 2984 0
1750 -2983 0
-2983 -1806 0
1806 -1750 2983 0
-2987 -2988 0
2988 2987 2986 0
-2987 -1751 0
-2987 1807 0
-1807 1751 2987 0
-2986 1751 0
-2986 -1807 0
-2990 -2991 0
2991 2990 2989 0
-2990 -1752 0
-2990 1808 0
-1808 1752 2990 0
-2989 1752 0
-2989 -1808 0
1808 -1752 2989 0
-2992 -2994 0
-2993 -2994 0
2994 2993 2992 0
-2993 -1753 0
1809 -2993 0
1753 -1809 2993 0
-2992 1753 0
-2992 -1809 0
1809 -1753 2992 0
-5 -9 2973 0
-2944 2971 2972 0
-2948 -2950 0
2948 2949 2950 0
-2949 -1748 0
1790 -2949 0
2949 1748 -1790 0
1748 -2948 0
-2948 -1790 0
2948 1790 -1748 0
2945 2946 2947 0
-1747 -2946 0
1789 -2946 0
2946 -1789 1747 0
-2945 1747 0
-1789 -2945 0
-2951 -2953 0
-2953 -2952 0
2951 2952 2953 0
-2952 -1749 0
1791 -2952 0
2952 -1791 1749 0
-2951 1749 0
-2951 -1791 0
2951 1791 -1749 0
-2954 -2956 0
-2956 -2955 0
2954 2955 2956 0
-2955 -1750 0
1792 -2955 0
2955 -1792 1750 0
1750 -2954 0
-2954 -1792 0
2954 1792 -1750 0
-2957 -2959 0
-2959 -2958 0
2958 2959 2957 0
-2958 -1751 0
-2958 1793 0
2958 -1793 1751 0
-2957 1751 0
-2957 -1793 0
1793 -1751 2957 0
-2960 -2962 0
-2962 -2961 0
2961 2962 2960 0
-2961 -1752 0
-2961 1794 0
2961 -1794 1752 0
-2960 1752 0
-1794 -2960 0
1794 -1752 2960 0
-2963 -2965 0
2965 2964 2963 0
-2964 -1753 0
1795 -2964 0
1753 -1795 2964 0
-2963 1753 0
-2963 -1795 0
1795 -1753 2963 0
-5 -8 2944 0
-2915 2942 2943 0
2936 -2942 0
2941 -2942 0
-2941 -2936 2942 0
2933 -2941 0
2940 -2941 0
2941 -2940 -2933 0
2930 -2940 0
-2939 2940 -2930 0
2939 -2938 -2927 0
-2937 2938 -2924 0
2937 -2918 -2921 0
-2921 -2920 0
2919 2920 2921 0
-2920 -1748 0
1776 -2920 0
2920 1748 -1776 0
1748 -2919 0
-2919 -1776 0
2919 1776 -1748 0
2916 2917 2918 0
-1747 -2917 0
1775 -2917 0
2917 -1775 1747 0
-2916 1747 0
-1775 -2916 0
2922 2923 2924 0
-2923 -1749 0
1777 -2923 0
2923 -1777 1749 0
-2922 1749 0
-2922 -1777 0
2922 1777 -1749 0
-2925 -2927 0
-2927 -2926 0
2925 2926 2927 0
-2926 -1750 0
1778 -2926 0
2926 -1778 1750 0
1750 -2925 0
-2925 -1778 0
2925 1778 -1750 0
-2928 -2930 0
-2929 -2930 0
2930 2929 2928 0
-2929 -1751 0
-2929 1779 0
-1779 1751 2929 0
-2928 1751 0
-2928 -1779 0
1779 -1751 2928 0
-2931 -2933 0
-2932 -2933 0
2933 2932 2931 0
-2932 -1752 0
-2932 1780 0
-1780 1752 2932 0
-2931 1752 0
-1780 -2931 0
1780 -1752 2931 0
-2934 -2936 0
-2935 -2936 0
2936 2935 2934 0
-2935 -1753 0
1781 -2935 0
1753 -1781 2935 0
-2934 1753 0
-2934 -1781 0
1781 -1753 2934 0
-5 -7 2915 0
2913 -2886 2914 0
2907 -2913 0
2912 -2913 0
2904 -2912 0
2911 -2912 0
2901 -2911 0
2910 -2911 0
2898 -2910 0
2909 -2910 0
2895 -2909 0
2908 -2909 0
2889 -2908 0
2892 -2908 0
-2887 -2889 0
1803 -1733 2887 0
-2897 -2898 0
-1806 1736 2897 0
-2900 -2901 0
-1807 1737 2900 0
2899 1807 -1737 0
2903 2904 2902 0
-2903 1808 0
-2902 1738 0
1808 -1738 2902 0
-2905 -2907 0
-2906 -2907 0
2906 2907 2905 0
-2906 1809 0
1739 -1809 2906 0
-2905 1739 0
1809 -1739 2905 0
2886 -4 -9 0
-2857 2884 2885 0
2878 -2884 0
2883 -2884 0
2875 -2883 0
2882 -2883 0
2872 -2882 0
2881 -2882 0
2869 -2881 0
2880 -2881 0
2866 -2880 0
2879 -2880 0
2860 -2879 0
2863 -2879 0
-2865 -2866 0
-1791 1735 2865 0
2871 2872 2870 0
-2871 1793 0
-2870 1737 0
-2874 -2875 0
2874 2875 2873 0
-2874 -1738 0
-2874 1794 0
-1794 1738 2874 0
-2873 1738 0
-2873 -1794 0
2878 2877 2876 0
-2877 -1739 0
-2877 1795 0
-2876 1739 0
-2876 -1795 0
1795 -1739 2876 0
-4 -8 2857 0
-2828 2855 2856 0
2849 -2855 0
2854 -2855 0
-2854 -2849 2855 0
2846 -2854 0
2853 -2854 0
-2853 2854 -2846 0
2843 -2853 0
2852 -2853 0
-2852 2853 -2843 0
2840 -2852 0
2851 -2852 0
2852 -2851 -2840 0
2837 -2851 0
2850 -2851 0
-2850 2851 -2837 0
2831 -2850 0
2834 -2850 0
2850 -2831 -2834 0
-2832 -2834 0
2833 2834 2832 0
-2833 -1734 0
-2833 1776 0
1734 -2832 0
-2832 -1776 0
1776 -1734 2832 0
2830 2829 2831 0
-2830 -1733 0
-2830 1775 0
-2829 1733 0
2829 1775 -1733 0
2836 2835 2837 0
-2836 -1735 0
-1735 1777 2835 0
2839 2838 2840 0
-2839 -1736 0
-2839 1778 0
-2838 1736 0
-2838 -1778 0
-2842 -2843 0
2843 2842 2841 0
-2842 -1737 0
-2842 1779 0
-1779 1737 2842 0
-2841 1737 0
-2841 -1779 0
-2845 -2846 0
2844 2846 2845 0
-2845 -1738 0
-2845 1780 0
-1780 1738 2845 0
-1780 -2844 0
-2848 -2849 0
2848 2849 2847 0
-2848 1781 0
1739 -1781 2848 0
-2847 1739 0
-4 -7 2828 0
-2799 2826 2827 0
2825 -2826 0
2824 -2825 0
2814 -2824 0
2823 -2824 0
2811 -2823 0
2822 -2823 0
2808 -2822 0
-2807 -2808 0
2737 -1805 2807 0
-2810 -2811 0
2738 -1806 2810 0
-2813 -2814 0
2739 -1807 2813 0
2799 -3 -9 0
-2770 2797 2798 0
2791 -2797 0
2796 -2797 0
2788 -2796 0
-2787 -2788 0
2740 -1794 2787 0
-2790 -2791 0
2741 -1795 2790 0
-3 -8 2770 0
-2734 2768 2769 0
2762 -2768 0
2767 -2768 0
2759 -2767 0
2766 -2767 0
2756 -2766 0
2765 -2766 0
2753 -2765 0
-2752 -2753 0
2738 -1778 2752 0
-2755 -2756 0
2739 -1779 2755 0
-2758 -2759 0
2740 -1780 2758 0
-2761 -2762 0
2741 -1781 2761 0
-3 -7 2734 0
2732 -2726 2733 0
-2732 -2725 0
-2731 -2732 0
2731 2725 2730 0
-2730 -2724 0
-2684 2690 2691 0
-2690 -2683 0
-2690 -2689 0
2689 2683 2688 0
-2688 -2682 0
-2688 -2687 0
2687 2682 -2686 0
2686 -2681 -2685 0
-2680 -2679 2685 0
-2670 2676 2677 0
-2676 -2669 0
-2676 -2675 0
2675 2669 2674 0
-2674 -2668 0
-2674 -2673 0
2673 2668 -2672 0
2672 -2667 -2671 0
2671 -2666 -2665 0
-2656 2662 2663 0
-2662 -2655 0
-2662 -2661 0
2661 2655 2660 0
-2660 -2654 0
-2642 2648 2649 0
-2648 -2641 0
-2648 -2647 0
2647 2646 2641 0
-2646 -2640 0
2634 -2628 2635 0
-2634 -2627 0
-2614 2620 2621 0
-2620 -2613 0
-2620 -2619 0
2619 2613 2618 0
-2618 -2612 0
-2618 -2617 0
2617 2612 -2616 0
2616 -2611 -2615 0
2615 -2610 -2609 0
-2600 2606 2607 0
-2606 -2599 0
-2606 -2605 0
2605 2604 2599 0
-2604 -2598 0
-2604 -2603 0
2603 2598 -2602 0
2602 -2597 -2601 0
2601 -2596 -2595 0
-2586 2592 2593 0
-2592 -2585 0
-2592 -2591 0
2591 2590 2585 0
-2590 -2584 0
-2590 -2589 0
2589 2584 -2588 0
2588 -2583 -2587 0
2587 -2582 -2581 0
-2572 2578 2579 0
-2578 -2571 0
-2578 -2577 0
2577 2571 2576 0
-2576 -2570 0
-2576 -2575 0
2575 2570 -2574 0
2574 -2569 -2573 0
2573 -2567 -2568 0
2564 -2558 2565 0
-2564 -2557 0
-2563 -2564 0
2563 2557 2562 0
-2562 -2556 0
-2561 -2562 0
-2560 2561 2556 0
-2559 2560 -2555 0
2559 -2554 -2553 0
-2544 2550 2551 0
-2550 -2543 0
-2550 -2549 0
2549 2548 2543 0
-2548 -2542 0
-2530 2536 2537 0
-2536 -2529 0
-2536 -2535 0
2535 2529 2534 0
-2534 -2528 0
-2534 -2533 0
2533 2528 -2532 0
2532 -2527 -2531 0
2531 -2525 -2526 0
-2516 2522 2523 0
-2522 -2515 0
-2522 -2521 0
2521 2520 2515 0
-2520 -2514 0
-2520 -2519 0
2519 2514 -2518 0
2518 -2513 -2517 0
2517 -2511 -2512 0
-2502 2508 2509 0
-2508 -2501 0
-2508 -2507 0
2507 2506 2501 0
-2506 -2500 0
-2488 2494 2495 0
-2494 -2487 0
-2494 -2493 0
2493 2487 2492 0
-2492 -2486 0
2480 -2474 2481 0
-2480 -2473 0
-2479 -2480 0
2479 2473 2478 0
-2478 -2472 0
-2477 -2478 0
-2476 2477 2472 0
-2475 2476 -2471 0
2475 -2470 -2469 0
-2460 2466 2467 0
-2466 -2459 0
-2466 -2465 0
2465 2459 2464 0
-2464 -2458 0
-2464 -2463 0
2463 2458 -2462 0
2462 -2457 -2461 0
-2456 -2455 2461 0
-2446 2452 2453 0
-2452 -2445 0
-2452 -2451 0
2451 2450 2445 0
-2450 -2444 0
-2432 2438 2439 0
-2438 -2431 0
-2438 -2437 0
2437 2431 2436 0
-2436 -2430 0
-2418 2424 2425 0
-2424 -2417 0
-2404 2410 2411 0
-2410 -2403 0
-2410 -2409 0
2409 2403 2408 0
-2408 -2402 0
-2390 2396 2397 0
-2396 -2389 0
-2396 -2395 0
2395 2389 2394 0
-2394 -2388 0
-2394 -2393 0
2393 2388 -2392 0
2392 -2387 -2391 0
-2385 -2386 2391 0
2382 -2376 2383 0
-2382 -2375 0
-2381 -2382 0
2381 2375 2380 0
-2380 -2374 0
-2379 -2380 0
-2378 2379 2374 0
-2377 2378 -2373 0
2377 -2372 -2371 0
-2362 2368 2369 0
-2368 -2361 0
-2368 -2367 0
2367 2361 2366 0
-2366 -2360 0
-2366 -2365 0
2365 2360 -2364 0
2364 -2359 -2363 0
-2357 -2358 2363 0
-2348 2354 2355 0
-2354 -2347 0
-2354 -2353 0
2353 2347 2352 0
-2352 -2346 0
-2334 2340 2341 0
-2340 -2333 0
-2340 -2339 0
2339 2338 2333 0
-2338 -2332 0
-2320 2326 2327 0
-2319 -2326 0
-2325 -2326 0
2324 2325 2319 0
-2318 -2324 0
-2306 2312 2313 0
-2305 -2312 0
-2311 -2312 0
2310 2311 2305 0
-2304 -2310 0
-2292 2298 2299 0
-2291 -2298 0
-2297 -2298 0
2296 2297 2291 0
-2290 -2296 0
-2278 2284 2285 0
-2277 -2284 0
-2283 -2284 0
2282 2283 2277 0
-2276 -2282 0
-2281 -2282 0
-2280 2281 2276 0
-2279 -2275 2280 0
2279 -2273 -2274 0
-2269 -2263 0
-2269 -2268 0
2263 2269 2268 0
-2268 -2262 0
-2268 -2267 0
2268 2262 2267 0
-2267 -2262 0
-2267 2266 0
-2266 2262 2267 0
-2266 2261 0
-2266 2265 0
-2265 2266 -2261 0
-2265 2259 0
-2265 2260 0
2265 -2260 -2259 0
-2250 2256 2257 0
-2249 -2256 0
-2255 -2256 0
2254 2255 2249 0
-2248 -2254 0
-2236 2242 2243 0
-2235 -2242 0
-2241 -2242 0
2240 2241 2235 0
-2234 -2240 0
-2222 2228 2229 0
-2221 -2228 0
-2227 -2228 0
2226 2227 2221 0
-2220 -2226 0
-2208 2214 2215 0
-2207 -2214 0
-2194 2200 2201 0
-2193 -2200 0
-2180 2186 2187 0
-2179 -2186 0
-2166 2172 2173 0
-2165 -2172 0
-2171 -2172 0
2170 2171 2165 0
-2164 -2170 0
2144 -2138 2145 0
-2137 -2144 0
-2143 -2144 0
2142 2143 2137 0
-2136 -2142 0
2130 -2124 2131 0
-2123 -2130 0
-2129 -2130 0
2128 2129 2123 0
-2122 -2128 0
-2127 -2128 0
-2126 2127 2122 0
-2125 -2121 2126 0
2125 -2120 -2119 0
2116 -2110 2117 0
-2109 -2116 0
-2115 -2116 0
2114 2115 2109 0
-2108 -2114 0
2102 -2103 0
1194 -2102 0
2101 -2102 0
1195 -2101 0
2100 -2101 0
1196 -2100 0
2099 -2100 0
1306 -2099 0
2098 -2099 0
1310 -2098 0
2097 -2098 0
-1417 -2097 0
2096 -2097 0
-1421 -2096 0
2095 -2096 0
-1425 -2095 0
2094 -2095 0
-1429 -2094 0
2093 -2094 0
-1433 -2093 0
2092 -2093 0
-1437 -2092 0
2091 -2092 0
-1441 -2091 0
2090 -2091 0
-1445 -2090 0
2089 -2090 0
-1449 -2089 0
2088 -2089 0
1546 -2088 0
2087 -2088 0
-1454 -2087 0
2086 -2087 0
-1554 -2086 0
2085 -2086 0
-1562 -2085 0
2084 -2085 0
-1566 -2084 0
2083 -2084 0
-1570 -2083 0
2082 -2083 0
-1574 -2082 0
2081 -2082 0
-1578 -2081 0
2080 -2081 0
-1582 -2080 0
2079 -2080 0
-1586 -2079 0
2078 -2079 0
1596 -2078 0
2077 -2078 0
1606 -2077 0
2076 -2077 0
-1607 -2076 0
2075 -2076 0
-1608 -2075 0
2074 -2075 0
1324 -2074 0
2073 -2074 0
101 -2073 0
2072 -2073 0
102 -2072 0
2071 -2072 0
-100 -2071 0
2070 -2071 0
-103 -2070 0
2069 -2070 0
-229 -2069 0
2068 -2069 0
-1483 -2068 0
2067 -2068 0
-1623 -2067 0
2066 -2067 0
1732 -2066 0
2065 -2066 0
-1633 -2065 0
2064 -2065 0
-1634 -2064 0
2063 -2064 0
-1635 -2063 0
2062 -2063 0
-1636 -2062 0
2061 -2062 0
-1746 -2061 0
2060 -2061 0
-1760 -2060 0
2059 -2060 0
-1774 -2059 0
2058 -2059 0
-1788 -2058 0
2057 -2058 0
-1802 -2057 0
2056 -2057 0
-1816 -2056 0
2055 -2056 0
-1830 -2055 0
2054 -2055 0
-1844 -2054 0
2053 -2054 0
-1858 -2053 0
2052 -2053 0
-1872 -2052 0
2051 -2052 0
-1886 -2051 0
2050 -2051 0
-1900 -2050 0
2049 -2050 0
-1914 -2049 0
2048 -2049 0
-1928 -2048 0
2047 -2048 0
-1942 -2047 0
2046 -2047 0
-1956 -2046 0
2045 -2046 0
-1970 -2045 0
2044 -2045 0
-1984 -2044 0
2043 -2044 0
2042 -2043 0
-2012 -2042 0
2041 -2042 0
-2040 -2041 0
-2033 2039 2040 0
-2032 -2039 0
-2038 -2039 0
2037 2038 2032 0
-2031 -2037 0
-2036 -2037 0
-2035 2036 2031 0
-2034 -2030 2035 0
2034 -2028 -2029 0
-2024 -2018 0
-2024 -2023 0
2024 2023 2018 0
-2023 -2017 0
-2023 -2022 0
2023 2022 2017 0
-2022 -2017 0
-2022 2021 0
-2021 2022 2017 0
-2021 2016 0
-2021 2020 0
-2020 2021 -2016 0
-2020 2014 0
-2020 2015 0
2020 -2015 -2014 0
-2005 2011 2012 0
-2004 -2011 0
-2010 -2011 0
2009 2010 2004 0
-2003 -2009 0
-1977 1983 1984 0
-1976 -1983 0
-1982 -1983 0
1981 1976 1982 0
-1975 -1981 0
-1963 1969 1970 0
-1962 -1969 0
-1968 -1969 0
1967 1968 1962 0
-1961 -1967 0
1955 -1949 1956 0
-1955 -1948 0
-1954 -1955 0
1954 1948 1953 0
-1953 -1947 0
-1952 -1953 0
1953 1947 1952 0
-1952 -1947 0
-1952 1951 0
-1951 1952 1947 0
-1951 1946 0
-1951 1950 0
-1950 -1946 1951 0
-1950 1944 0
-1950 1945 0
-1945 -1944 1950 0
1941 -1935 1942 0
-1934 -1941 0
-1940 -1941 0
1939 1940 1934 0
-1933 -1939 0
-1938 -1939 0
-1937 1933 1938 0
-1932 -1936 1937 0
1936 -1930 -1931 0
1927 -1921 1928 0
-1920 -1927 0
-1926 -1927 0
1925 1920 1926 0
-1919 -1925 0
-1924 -1925 0
-1923 1919 1924 0
-1918 -1922 1923 0
-1916 -1917 1922 0
1913 -1907 1914 0
-1906 -1913 0
-1912 -1913 0
1911 1906 1912 0
-1905 -1911 0
-1910 -1911 0
-1909 1905 1910 0
-1904 -1908 1909 0
1908 -1902 -1903 0
1899 -1893 1900 0
-1892 -1899 0
-1898 -1899 0
1897 1892 1898 0
-1891 -1897 0
-1896 -1897 0
-1895 1891 1896 0
-1890 -1894 1895 0
-1888 -1889 1894 0
-1879 1885 1886 0
-1878 -1885 0
-1884 -1885 0
1883 1878 1884 0
-1877 -1883 0
-1882 -1883 0
-1881 1882 1877 0
-1880 -1876 1881 0
1880 -1875 -1874 0
-1865 1871 1872 0
-1864 -1871 0
-1870 -1871 0
1869 1870 1864 0
-1863 -1869 0
-1868 -1869 0
1869 1868 1863 0
-1868 -1863 0
-1868 1867 0
-1867 1868 1863 0
-1867 1862 0
-1867 1866 0
-1866 -1862 1867 0
-1866 1860 0
-1866 1861 0
-1861 -1860 1866 0
-1851 1857 1858 0
-1857 -1850 0
-1857 -1856 0
1856 1850 1855 0
-1855 -1849 0
-1855 -1854 0
1854 1849 -1853 0
1853 -1848 -1852 0
1852 -1846 -1847 0
-1837 1843 1844 0
-1843 -1836 0
-1843 -1842 0
1842 1836 1841 0
-1841 -1835 0
-1841 -1840 0
1840 1835 -1839 0
1839 -1834 -1838 0
1838 -1833 -1832 0
1829 -1823 1830 0
-1829 -1822 0
-1828 -1829 0
1828 1822 1827 0
-1827 -1821 0
-1809 1815 1816 0
-1815 -1808 0
-1815 -1814 0
1814 1813 1808 0
-1813 -1807 0
-1813 -1812 0
1812 1807 -1811 0
1811 -1806 -1810 0
1810 -1805 -1804 0
-1795 1801 1802 0
-1801 -1794 0
-1801 -1800 0
1800 1799 1794 0
-1799 -1793 0
-1799 -1798 0
1798 1793 -1797 0
1797 -1792 -1796 0
1796 -1791 -1790 0
-1781 1787 1788 0
-1787 -1780 0
-1787 -1786 0
1786 1780 1785 0
-1785 -1779 0
-1785 -1784 0
1784 1779 -1783 0
1783 -1778 -1782 0
1782 -1776 -1777 0
-1767 1773 1774 0
-1773 -1766 0
-1773 -1772 0
1772 1771 1766 0
-1771 -1765 0
-1771 -1770 0
1770 1765 -1769 0
1769 -1764 -1768 0
1768 -1762 -1763 0
-1753 1759 1760 0
-1752 -1759 0
-1758 -1759 0
1757 1758 1752 0
-1751 -1757 0
-1756 -1757 0
-1755 1756 1751 0
-1754 -1750 1755 0
1754 -1748 -1749 0
-1739 1745 1746 0
-1738 -1745 0
-1718 -1732 0
1731 -1732 0
-1719 -1731 0
1730 -1731 0
-1720 -1730 0
1729 -1730 0
-1721 -1729 0
1728 -1729 0
-1722 -1728 0
1727 -1728 0
1726 -1727 0
-1724 -1726 0
1712 1629 1724 0
1714 1627 1722 0
1715 1626 1721 0
1716 1625 1720 0
1717 1624 1719 0
1704 -1717 1718 0
-1705 -1717 0
1716 -1717 0
1705 1717 -1716 0
-1706 -1716 0
1715 -1716 0
1706 1716 -1715 0
-1707 -1715 0
1714 -1715 0
1715 1707 -1714 0
1713 -1714 0
-1713 1714 1708 0
-1709 -1713 0
1712 -1713 0
1709 1713 -1712 0
-1710 -1712 0
1711 1712 1710 0
-1711 -1631 0
-1711 1696 0
-1710 -1630 0
-1710 -1697 0
1710 1630 1697 0
-1709 -1629 0
-1709 -1698 0
1709 1629 1698 0
-1708 -1628 0
-1707 -1627 0
-1707 -1700 0
1707 1627 1700 0
-1706 -1626 0
-1706 -1701 0
1706 1626 1701 0
-1705 -1625 0
-1702 -1705 0
1705 1625 1702 0
-1704 -1624 0
-1703 -1704 0
-1702 1689 1703 0
-1702 1701 0
-1701 1702 1690 0
-1701 1700 0
-1700 1701 1691 0
-1700 1699 0
-1699 1700 1692 0
-1699 -1693 0
-1699 1698 0
-1698 1693 1699 0
-1698 -1694 0
-1698 1697 0
-1697 1694 1698 0
-1697 -1695 0
-1697 -1696 0
1695 1696 1697 0
-1632 -1696 0
1696 1632 -1681 0
-1631 -1695 0
1695 1631 1682 0
-1630 -1694 0
1694 1630 1683 0
-1629 -1693 0
1693 1629 1684 0
-1692 -1628 0
-1691 -1627 0
-1690 -1626 0
-1689 -1625 0
-1684 1683 0
-1683 1682 0
-1682 -1681 0
1681 -1666 1633 0
1666 -1651 1634 0
1651 1636 1635 0
208 1462 1636 0
207 1461 1635 0
206 1460 1634 0
205 1459 1633 0
-1632 -204 0
-1632 -1458 0
204 1458 1632 0
-1631 -203 0
-1631 -1457 0
203 1631 1457 0
-1630 -202 0
-1630 -1456 0
202 1630 1456 0
-1629 -201 0
-1629 -1455 0
1629 201 1455 0
1628 1454 196 0
-1627 -200 0
-1627 -1453 0
200 1453 1627 0
-1626 -199 0
-1626 -1452 0
199 1626 1452 0
-1625 -198 0
-1625 -1451 0
198 1625 1451 0
-1624 -197 0
-1624 -1450 0
1624 197 1450 0
-1622 1609 1623 0
-1621 1622 1610 0
-1620 1621 1611 0
-1619 1620 1612 0
1619 -1618 1613 0
1618 1614 -1617 0
1617 1615 1616 0
-1616 1585 0
-1615 1577 0
-1614 1569 0
-1613 1561 0
-1612 1581 0
-1611 1573 0
-1610 1565 0
-1609 1553 0
-600 -601 1608 0
-487 -488 1607 0
-1600 -1606 0
1605 -1606 0
-1601 -1605 0
1604 -1605 0
-1602 -1604 0
-1452 1597 1602 0
-1451 1598 1601 0
-1450 1599 1600 0
-1599 -1451 0
-1599 1598 0
-1598 -1452 0
-1598 1597 0
-1597 -1453 0
1595 -1596 0
-1591 -1595 0
1594 -1595 0
-1592 -1594 0
-1593 -1594 0
-1457 -1458 1593 0
-1456 1587 1592 0
-1455 1588 1591 0
-1588 -1456 0
-1588 1587 0
-1587 -1457 0
-1587 -1458 0
-1585 -1462 1586 0
-1581 -1462 1582 0
-1577 -1461 1578 0
-1573 -1461 1574 0
-1569 -1460 1570 0
-1565 -1460 1566 0
-1561 -1459 1562 0
-1553 -1459 1554 0
-1528 -1546 0
1545 -1546 0
-1529 -1545 0
1544 -1545 0
-1530 -1544 0
1543 -1544 0
-1531 -1543 0
1525 -1452 1531 0
1526 -1451 1530 0
1527 -1450 1529 0
-1527 1510 1528 0
1526 -1527 0
-1526 1527 1511 0
-1512 -1526 0
1525 -1526 0
-1525 1526 1512 0
1524 -1525 0
-1524 1513 1525 0
1523 -1524 0
-1523 1524 1514 0
-1522 1523 1515 0
1522 -1521 1516 0
-1520 1521 1517 0
1520 1519 1518 0
-1519 1459 0
-1519 1500 0
-1518 1458 0
-1518 -1501 0
-1517 1457 0
-1517 -1502 0
-1516 1456 0
-1516 -1503 0
-1515 1455 0
-1515 -1504 0
-1514 1454 0
-1513 1453 0
-1506 -1513 0
-1512 1452 0
-1507 -1512 0
1507 -1452 1512 0
-1511 1451 0
-1508 -1511 0
-1510 1450 0
-1509 -1510 0
-1508 1509 1491 0
-1507 1508 1492 0
-1507 1506 0
-1506 1507 1493 0
-1506 1505 0
-1505 1506 1494 0
-1504 1505 1495 0
-1503 1504 1496 0
-1502 1503 1497 0
-1501 1502 1498 0
-1499 -1501 0
-1501 -1500 0
1501 1499 1500 0
-1500 1460 0
-1500 1481 0
1500 -1460 -1481 0
-1499 1459 0
-1499 -1482 0
1482 1499 -1459 0
-1498 1458 0
-1497 1457 0
-1496 1456 0
-1495 1455 0
-1494 1454 0
-1493 1453 0
-1492 1452 0
-1491 1451 0
-1482 1479 1483 0
1482 1480 1481 0
1461 -1481 0
1462 -1481 0
1481 -1461 -1462 0
-1480 1460 0
-1480 -1463 0
-1479 1459 0
-1479 -1464 0
1464 -1463 1460 0
1463 1461 1462 0
1448 1413 1449 0
-1446 -1448 0
-1447 -1448 0
400 -111 1447 0
-400 111 1446 0
1444 1413 1445 0
-1442 -1444 0
-1443 -1444 0
399 -110 1443 0
-399 110 1442 0
1440 1413 1441 0
-1438 -1440 0
-1439 -1440 0
398 -109 1439 0
-398 109 1438 0
1436 1413 1437 0
-1434 -1436 0
-396 107 1434 0
1432 1413 1433 0
-1430 -1432 0
-394 105 1430 0
1428 1413 1429 0
-1426 -1428 0
-392 103 1426 0
1424 1413 1425 0
-1423 -1424 0
391 1423 -102 0
1420 1413 1421 0
-1419 -1420 0
390 1419 -101 0
1416 1413 1417 0
-1414 -1416 0
-389 1414 100 0
-1413 1412 0
-1412 -1324 0
-1307 -1310 0
1309 -1310 0
-1308 -1309 0
1208 -1193 1308 0
-1208 1193 1307 0
-1300 -1306 0
1305 -1306 0
-1301 -1305 0
1304 -1305 0
-1302 -1304 0
-1198 1298 1302 0
-1197 1299 1301 0
-1299 1197 1300 0
-1299 -1198 0
-1299 1298 0
-1298 1299 1198 0
-1298 -1199 0
1200 1199 1298 0
1207 -1208 0
-1207 1208 1202 0
1206 -1207 0
1207 -1206 1203 0
-1205 -1206 0
1206 1204 1205 0
1191 -1192 0
1190 -1191 0
1189 -1190 0
1188 -1189 0
1187 -1188 0
-913 -1187 0
1186 -1187 0
1185 -1186 0
-918 -1185 0
1184 -1185 0
-921 -1184 0
1183 -1184 0
-924 -1183 0
1182 -1183 0
-927 -1182 0
1181 -1182 0
-930 -1181 0
1180 -1181 0
995 -1180 0
1179 -1180 0
1178 -1179 0
1177 -1178 0
1176 -1177 0
1175 -1176 0
1174 -1175 0
1173 -1174 0
1172 -1173 0
1171 -1172 0
1170 -1171 0
1169 -1170 0
1168 -1169 0
1167 -1168 0
1166 -1167 0
1165 -1166 0
1164 -1165 0
1163 -1164 0
1162 -1163 0
1161 -1162 0
1160 -1161 0
1159 -1160 0
1158 -1159 0
1157 -1158 0
-1055 -1157 0
1156 -1157 0
1155 -1156 0
1154 -1155 0
1153 -1154 0
1152 -1153 0
-1068 -1152 0
1151 -1152 0
1150 -1151 0
1149 -1150 0
1148 -1149 0
1147 -1148 0
1146 -1147 0
1145 -1146 0
1144 -1145 0
1143 -1144 0
1142 -1143 0
1141 -1142 0
1140 -1141 0
1139 -1140 0
1138 -1139 0
1137 -1138 0
1136 -1137 0
1135 -1136 0
1134 -1135 0
-1119 -1134 0
1133 -1134 0
1132 -1133 0
1131 -1132 0
-1125 -1131 0
609 -1128 0
-1128 896 0
1128 -896 -609 0
-1124 -605 1125 0
-827 1124 -607 0
-1118 -604 1119 0
-723 1118 -607 0
-1114 589 0
-1114 605 0
-589 1114 -605 0
-490 -497 1111 0
-490 -496 1108 0
607 -1106 0
-1106 1105 0
1106 -1105 -607 0
-490 -495 1105 0
-490 -494 1102 0
-1100 605 0
-1100 1099 0
-1099 1100 -605 0
-490 -493 1099 0
-490 -492 1096 0
1093 -489 -497 0
1090 -489 -496 0
1087 -489 -495 0
1084 -489 -494 0
-1082 605 0
-1082 1081 0
-1081 1082 -605 0
-489 -493 1081 0
-489 -492 1078 0
-1076 602 0
-1076 1075 0
-1075 -602 1076 0
-490 -489 1075 0
-488 -497 1072 0
-488 -496 1069 0
-1067 -600 1068 0
-1066 1067 -605 0
-488 -493 1066 0
-488 -492 1063 0
-490 -488 1060 0
-1058 605 0
-1058 799 0
-799 1058 -605 0
-1056 582 0
-1056 604 0
-582 -604 1056 0
-1054 -599 1055 0
-1053 1054 -602 0
-490 -487 1053 0
-1051 605 0
-1051 1050 0
-1050 1051 -605 0
-486 -493 1050 0
-1048 604 0
-1048 1047 0
-1047 -604 1048 0
-486 -492 1047 0
-1045 602 0
-1045 1044 0
-1044 -602 1045 0
-490 -486 1044 0
-605 -609 1041 0
-605 -608 1038 0
-605 -607 1035 0
-605 -606 1032 0
-1030 111 0
-1030 928 0
-111 -928 1030 0
-1028 110 0
-1028 925 0
-110 -925 1028 0
-1026 109 0
-1026 922 0
-109 -922 1026 0
-599 -609 1011 0
-599 -608 1008 0
-599 -607 1005 0
-599 -605 1002 0
-599 -604 999 0
-599 -603 996 0
994 -995 0
993 -994 0
992 -993 0
-978 -992 0
991 -992 0
990 -991 0
989 -990 0
-981 -989 0
988 -989 0
-982 -988 0
987 -988 0
-983 -987 0
966 -939 983 0
-938 967 982 0
-937 968 981 0
971 -934 978 0
970 -971 0
969 -970 0
968 -969 0
-960 -968 0
967 -968 0
-961 -967 0
966 -967 0
946 -939 961 0
-938 947 960 0
-947 946 0
945 -946 0
-945 944 0
-942 -944 0
-943 -944 0
943 -111 -609 0
942 -110 -608 0
939 -107 -605 0
938 -106 -604 0
-105 937 -603 0
934 -601 -102 0
-929 -9 930 0
-604 -609 928 0
-926 -9 927 0
-13 926 -925 0
-604 -608 925 0
-923 -9 924 0
-12 923 -922 0
-604 -607 922 0
-920 -9 921 0
-604 -606 919 0
-917 -9 918 0
-10 917 -698 0
-603 -609 914 0
-912 -8 913 0
912 -13 -911 0
-603 -608 911 0
-909 12 0
-909 908 0
-12 -908 909 0
-603 -607 908 0
-603 -606 905 0
-603 -605 902 0
-603 -604 899 0
-493 -497 896 0
-2 -895 0
894 -895 0
98 -894 0
893 -894 0
-99 -893 0
892 -893 0
195 -892 0
891 -892 0
-196 -891 0
890 -891 0
292 -890 0
889 -890 0
-295 -889 0
888 -889 0
887 -888 0
-301 -887 0
886 -887 0
885 -886 0
884 -885 0
883 -884 0
882 -883 0
-316 -882 0
881 -882 0
880 -881 0
-322 -880 0
879 -880 0
878 -879 0
877 -878 0
-331 -877 0
876 -877 0
875 -876 0
874 -875 0
873 -874 0
-343 -873 0
872 -873 0
-346 -872 0
871 -872 0
-349 -871 0
870 -871 0
-352 -870 0
869 -870 0
-355 -869 0
868 -869 0
365 -868 0
867 -868 0
367 -867 0
866 -867 0
377 -866 0
865 -866 0
387 -865 0
864 -865 0
-388 -864 0
863 -864 0
484 -863 0
862 -863 0
-485 -862 0
861 -862 0
581 -861 0
860 -861 0
859 -860 0
596 -859 0
858 -859 0
-597 -858 0
857 -858 0
693 -857 0
856 -857 0
705 -856 0
855 -856 0
854 -855 0
853 -854 0
852 -853 0
851 -852 0
-719 -851 0
850 -851 0
-722 -850 0
849 -850 0
-725 -849 0
848 -849 0
-728 -848 0
847 -848 0
-731 -847 0
846 -847 0
845 -846 0
844 -845 0
843 -844 0
842 -843 0
841 -842 0
840 -841 0
839 -840 0
-815 -839 0
-493 -496 830 0
-493 -495 827 0
-493 -494 824 0
-820 110 0
-820 726 0
-110 -726 820 0
-814 815 -102 0
-104 -712 814 0
-487 -497 811 0
-487 -496 808 0
-487 -495 805 0
-487 -494 802 0
-487 -493 799 0
-730 -9 731 0
730 -14 -729 0
-492 -497 729 0
-727 -9 728 0
-13 727 -726 0
-492 -496 726 0
-724 -9 725 0
-492 -495 723 0
-721 -9 722 0
-492 -494 720 0
-718 -9 719 0
-490 -491 715 0
-489 -491 712 0
-488 -491 709 0
-487 -491 706 0
-701 -705 0
704 -705 0
-703 -704 0
-603 -698 703 0
-602 700 701 0
-700 699 0
-697 -699 0
-699 -698 0
-604 -605 698 0
-603 694 697 0
-694 -604 0
-694 -605 0
-675 -693 0
692 -693 0
-676 -692 0
691 -692 0
-677 -691 0
690 -691 0
-678 -690 0
689 -690 0
-679 -689 0
688 -689 0
-680 -688 0
687 -688 0
686 -687 0
-682 -686 0
685 -686 0
-684 -685 0
-666 -605 684 0
668 -603 682 0
670 -602 680 0
671 -601 679 0
672 -600 678 0
673 -599 677 0
674 -598 676 0
657 -674 675 0
673 -674 0
674 658 -673 0
-659 -673 0
672 -673 0
673 -672 659 0
-660 -672 0
671 -672 0
672 660 -671 0
-661 -671 0
671 -670 661 0
669 -670 0
-669 670 662 0
669 -668 663 0
664 -667 668 0
667 665 666 0
647 -666 0
-665 605 0
-665 -648 0
-664 -649 0
-663 603 0
-663 -650 0
-662 597 0
-661 602 0
-652 -661 0
652 -602 661 0
-660 601 0
-660 -653 0
653 660 -601 0
-659 600 0
-659 -654 0
654 -600 659 0
-658 599 0
-658 -655 0
-657 598 0
-656 -657 0
-655 638 656 0
655 -654 639 0
653 -654 0
654 -653 640 0
-641 -653 0
652 -653 0
653 -652 641 0
651 -652 0
652 -651 642 0
-643 -651 0
650 -651 0
-650 651 643 0
-644 -650 0
-649 650 644 0
645 649 -648 0
646 648 647 0
628 -647 0
-646 -629 0
-645 -630 0
-644 604 0
-644 -631 0
631 -604 644 0
-643 603 0
-643 -632 0
632 -603 643 0
-642 597 0
-641 602 0
-634 -641 0
634 -602 641 0
-640 601 0
-640 -635 0
-639 600 0
-639 -636 0
-638 599 0
-638 -637 0
-636 637 619 0
636 -635 620 0
-635 634 0
-634 635 621 0
-634 633 0
634 -633 622 0
-633 632 0
-632 633 623 0
-632 631 0
-631 632 624 0
-631 -625 0
-630 631 625 0
626 -629 630 0
627 628 629 0
-627 607 0
-627 -610 0
-626 606 0
-626 -611 0
-625 605 0
-625 -612 0
625 -605 612 0
-624 604 0
-624 -613 0
-623 603 0
-623 -614 0
-622 597 0
-621 602 0
-616 -621 0
-620 601 0
-619 600 0
616 -615 597 0
615 -614 603 0
-613 614 604 0
-613 612 0
-612 613 605 0
-612 -606 0
-612 611 0
-611 606 612 0
-611 610 0
-610 607 611 0
-610 -608 0
609 608 610 0
-592 -596 0
595 -596 0
-593 -595 0
-491 590 593 0
-490 591 592 0
-591 -587 0
-591 590 0
-590 -589 0
-492 -493 589 0
587 586 -491 0
-586 585 0
-585 -492 0
-585 -493 0
-487 -492 582 0
-563 -581 0
580 -581 0
-564 -580 0
579 -580 0
-565 -579 0
578 -579 0
577 -578 0
-567 -577 0
576 -577 0
-568 -576 0
575 -576 0
-569 -575 0
574 -575 0
573 -574 0
-572 -573 0
-554 -493 572 0
557 -491 569 0
558 -490 568 0
559 -489 567 0
561 -487 565 0
562 -486 564 0
545 -562 563 0
561 -562 0
562 -561 546 0
-547 -561 0
560 -561 0
-560 561 547 0
-548 -560 0
548 560 -559 0
559 -558 549 0
558 -557 550 0
556 -557 0
-556 557 551 0
-555 552 556 0
555 553 554 0
535 -554 0
-553 493 0
-553 -536 0
-552 -537 0
-551 485 0
-550 491 0
-550 -539 0
-549 490 0
-549 -540 0
-548 489 0
-548 -541 0
541 548 -489 0
-547 488 0
-547 -542 0
542 547 -488 0
-546 487 0
-546 -543 0
-545 486 0
-544 -545 0
-543 544 526 0
543 -542 527 0
541 -542 0
528 542 -541 0
-529 -541 0
540 -541 0
-540 541 529 0
-530 -540 0
539 -540 0
-539 540 530 0
538 -539 0
539 -538 531 0
-532 -538 0
-537 538 532 0
533 -536 537 0
534 535 536 0
516 -535 0
-534 -517 0
-533 -518 0
-532 492 0
-532 -519 0
519 -492 532 0
-531 485 0
-530 491 0
-521 -530 0
521 -491 530 0
-529 490 0
-529 -522 0
522 -490 529 0
-528 489 0
-528 -523 0
-527 488 0
-524 -527 0
-526 487 0
-526 -525 0
-524 525 507 0
508 -523 524 0
-523 522 0
-522 523 509 0
-522 521 0
-521 522 510 0
-521 520 0
521 -520 511 0
-520 519 0
520 -519 512 0
-519 -513 0
-518 519 513 0
-518 -514 0
-517 514 518 0
516 517 515 0
-515 495 0
-515 -498 0
-514 494 0
-514 -499 0
514 -494 499 0
-513 493 0
-513 -500 0
513 -493 500 0
-512 492 0
-512 -501 0
-511 485 0
-510 491 0
-503 -510 0
-509 490 0
-509 -504 0
-508 489 0
-507 488 0
-503 504 491 0
503 -502 485 0
502 -501 492 0
-501 500 0
501 -500 493 0
-500 -494 0
-500 499 0
-499 494 500 0
-499 498 0
495 -498 499 0
-498 -496 0
-498 -497 0
497 496 498 0
-466 -484 0
483 -484 0
482 -483 0
-468 -482 0
464 -390 468 0
-465 448 466 0
449 465 -464 0
463 -464 0
-451 -463 0
444 451 -391 0
-446 -449 0
-448 389 0
-445 446 430 0
431 445 -444 0
-426 -431 0
-430 388 0
-425 426 412 0
-424 413 425 0
-423 414 424 0
415 423 -422 0
422 416 -421 0
417 421 -420 0
-420 -418 0
-420 -419 0
420 418 419 0
-419 399 0
-419 400 0
-399 -400 419 0
-418 398 0
-418 -401 0
418 -398 401 0
-417 -402 0
-416 -403 0
-415 -404 0
-414 394 0
-413 393 0
-412 392 0
-403 404 396 0
403 -402 397 0
-402 -398 0
-402 401 0
-401 402 398 0
-401 -399 0
-401 -400 0
401 399 400 0
-381 -387 0
386 -387 0
-382 -386 0
385 -386 0
-383 -385 0
-199 378 383 0
-198 379 382 0
-197 380 381 0
-380 -198 0
-380 379 0
-379 -199 0
-379 378 0
-378 -200 0
376 -377 0
-372 -376 0
375 -376 0
-373 -375 0
-374 -375 0
-5 -6 374 0
-4 368 373 0
-3 369 372 0
-369 -4 0
-369 368 0
-368 -5 0
-368 -6 0
36 -367 0
364 -365 0
-360 -364 0
363 -364 0
-361 -363 0
-362 -363 0
-203 -204 362 0
-202 356 361 0
-201 357 360 0
-357 -202 0
-357 356 0
-356 -203 0
-356 -204 0
-354 -9 355 0
-106 -111 353 0
-351 -9 352 0
-13 351 -350 0
-106 -110 350 0
-348 -9 349 0
-12 348 -347 0
-106 -109 347 0
-345 -9 346 0
-11 345 -344 0
-106 -108 344 0
-342 -9 343 0
-10 342 -341 0
-106 -107 341 0
-105 -111 338 0
-105 -110 335 0
-105 -109 332 0
-330 -8 331 0
330 -11 -329 0
-105 -108 329 0
-327 10 0
-327 326 0
-10 -326 327 0
-105 -107 326 0
9 -324 0
-324 323 0
-9 -323 324 0
-105 -106 323 0
-321 -7 322 0
321 -14 -320 0
320 -104 -111 0
-315 -7 316 0
315 -11 -314 0
314 -104 -108 0
-104 -107 311 0
-104 -106 308 0
8 -306 0
-306 305 0
-8 -305 306 0
-104 -105 305 0
-300 -5 301 0
-299 300 -9 0
-106 299 -102 0
-294 -5 295 0
-293 294 -7 0
-104 293 -102 0
-274 -292 0
291 -292 0
-275 -291 0
290 -291 0
-276 -290 0
289 -290 0
288 -289 0
-278 -288 0
287 -288 0
286 -287 0
285 -286 0
284 -285 0
-283 -284 0
-265 -204 283 0
270 -200 278 0
272 -198 276 0
273 -197 275 0
-273 256 274 0
272 -273 0
-272 273 257 0
271 -272 0
-271 272 258 0
270 -271 0
259 271 -270 0
269 -270 0
-269 270 260 0
268 -269 0
269 -268 261 0
267 -268 0
268 -267 262 0
-266 267 263 0
266 264 265 0
-265 246 0
-264 204 0
-264 -247 0
-263 203 0
-263 -248 0
-262 202 0
-262 -249 0
-261 201 0
-261 -250 0
-260 196 0
-259 200 0
-258 199 0
-253 -258 0
-257 198 0
-254 -257 0
-256 197 0
-255 -256 0
-254 255 237 0
-253 254 238 0
-252 253 239 0
-251 252 240 0
-250 251 241 0
-249 250 242 0
-248 249 243 0
-247 248 244 0
-247 -246 0
247 245 246 0
-246 206 0
-246 227 0
-245 205 0
-245 -228 0
-244 204 0
-243 203 0
-242 202 0
-241 201 0
-240 196 0
-239 200 0
-238 199 0
-237 198 0
-228 225 229 0
226 228 227 0
207 -227 0
208 -227 0
-207 -208 227 0
-226 206 0
-226 -209 0
-225 205 0
-225 -210 0
210 -209 206 0
209 207 208 0
-177 -195 0
194 -195 0
193 -194 0
-179 -193 0
175 -101 179 0
-176 159 177 0
160 176 -175 0
174 -175 0
-162 -174 0
155 162 -102 0
-157 -160 0
-159 100 0
-156 157 141 0
142 156 -155 0
154 -155 0
-144 -154 0
153 -154 0
-145 -153 0
152 -153 0
-146 -152 0
-106 133 146 0
-105 134 145 0
-104 135 144 0
-137 -142 0
-141 99 0
-136 137 123 0
-135 124 136 0
-125 -135 0
-135 134 0
-134 135 125 0
-126 -134 0
-134 133 0
134 -133 126 0
-133 -127 0
-132 133 127 0
-132 -128 0
-132 131 0
-131 132 128 0
-131 -129 0
-131 -130 0
131 129 130 0
-130 110 0
-130 111 0
-110 -111 130 0
-129 109 0
-129 -112 0
129 -109 112 0
-128 108 0
-128 -113 0
128 -108 113 0
-127 107 0
-127 -114 0
127 -107 114 0
-126 106 0
-126 -115 0
-106 126 115 0
-125 105 0
-116 -125 0
125 -105 116 0
-124 104 0
-117 -124 0
-123 103 0
-116 117 105 0
-116 115 0
-115 116 106 0
-115 -107 0
-115 114 0
-114 115 107 0
-114 -108 0
-114 113 0
-113 114 108 0
-113 -109 0
-113 112 0
-112 113 109 0
-112 -110 0
-112 -111 0
112 110 111 0
-80 -98 0
97 -98 0
96 -97 0
-82 -96 0
95 -96 0
94 -95 0
93 -94 0
-85 -93 0
75 -6 85 0
78 -3 82 0
-79 62 80 0
-78 63 79 0
-77 78 64 0
-76 77 65 0
66 76 -75 0
-67 -75 0
75 67 -74 0
74 68 -73 0
73 69 -72 0
72 70 71 0
-71 52 0
-70 -53 0
-69 -54 0
-68 -55 0
7 -67 0
-67 -56 0
-66 6 0
-57 -66 0
-65 5 0
-65 -58 0
-64 4 0
-59 -64 0
-63 3 0
-60 -63 0
-62 2 0
-59 60 44 0
-58 59 45 0
-57 58 46 0
-57 56 0
47 -56 57 0
-56 -48 0
56 48 -55 0
55 -54 49 0
54 -53 50 0
53 52 51 0
-52 33 0
-51 -34 0
-50 -35 0
-49 -36 0
-48 8 0
-48 -37 0
48 -8 37 0
-47 7 0
-47 -38 0
-46 6 0
-45 5 0
-44 4 0
-38 37 0
28 -37 38 0
-37 -29 0
37 29 -36 0
-30 -36 0
35 -36 0
34 -35 0
-32 -34 0
-33 -34 0
-12 15 32 0
-10 17 30 0
-29 9 0
-18 -29 0
29 18 -9 0
-28 8 0
-28 -19 0
-18 19 9 0
-18 -10 0
-17 10 18 0
-17 -11 0
-17 16 0
11 -16 17 0
-16 15 0
12 -15 16 0
-15 -14 0
13 14 15 0
