p cnf 1070 21102
36 0
37 0
38 0
-39 8 12 0
-8 39 0
-12 39 0
-40 0
-41 6 10 0
-6 41 0
-10 41 0
-42 4 9 0
-4 42 0
-9 42 0
-43 7 11 0
-7 43 0
-11 43 0
-44 0
-45 3 0
-3 45 0
-46 5 0
-5 46 0
-47 1 13 0
-1 47 0
-13 47 0
-48 2 14 0
-2 48 0
-14 48 0
36 49 50 51 0
36 -49 -50 0
36 -49 -51 0
36 -50 -51 0
-36 -49 0
-36 -50 0
-36 -51 0
37 52 53 54 0
37 -52 -53 0
37 -52 -54 0
37 -53 -54 0
-37 -52 0
-37 -53 0
-37 -54 0
38 55 56 57 0
38 -55 -56 0
38 -55 -57 0
38 -56 -57 0
-38 -55 0
-38 -56 0
-38 -57 0
39 58 59 60 0
39 -58 -59 0
39 -58 -60 0
39 -59 -60 0
-39 -58 0
-39 -59 0
-39 -60 0
40 61 62 63 0
40 -61 -62 0
40 -61 -63 0
40 -62 -63 0
-40 -61 0
-40 -62 0
-40 -63 0
41 64 65 66 0
41 -64 -65 0
41 -64 -66 0
41 -65 -66 0
-41 -64 0
-41 -65 0
-41 -66 0
42 67 68 69 0
42 -67 -68 0
42 -67 -69 0
42 -68 -69 0
-42 -67 0
-42 -68 0
-42 -69 0
43 70 71 72 0
43 -70 -71 0
43 -70 -72 0
43 -71 -72 0
-43 -70 0
-43 -71 0
-43 -72 0
44 73 74 75 0
44 -73 -74 0
44 -73 -75 0
44 -74 -75 0
-44 -73 0
-44 -74 0
-44 -75 0
45 76 77 78 0
45 -76 -77 0
45 -76 -78 0
45 -77 -78 0
-45 -76 0
-45 -77 0
-45 -78 0
46 79 80 81 0
46 -79 -80 0
46 -79 -81 0
46 -80 -81 0
-46 -79 0
-46 -80 0
-46 -81 0
47 82 83 84 0
47 -82 -83 0
47 -82 -84 0
47 -83 -84 0
-47 -82 0
-47 -83 0
-47 -84 0
48 85 86 87 0
48 -85 -86 0
48 -85 -87 0
48 -86 -87 0
-48 -85 0
-48 -86 0
-48 -87 0
63 0
75 0
77 0
80 0
97 0
98 0
99 0
100 0
-89 0
-92 0
-88 3 5 1 2 0
-89 0
-90 13 14 0
-91 31 35 19 24 0
-92 0
-93 29 33 17 22 0
-94 28 32 16 21 0
-95 30 34 18 23 0
-96 15 20 0
104 0
105 0
106 0
107 0
108 0
109 0
-103 0
-101 8 6 4 7 0
-102 12 10 9 11 0
-103 0
-109 27 25 26 0
-110 31 29 28 30 0
-111 35 33 32 34 0
-112 19 17 16 18 0
-113 24 22 21 23 0
122 0
124 0
-126 0
-120 0
-130 0
127 0
129 0
-123 0
-121 0
-120 140 0
-122 144 0
-140 144 0
-122 -140 145 0
-141 145 0
-122 -141 146 0
-142 146 0
-122 -142 147 0
-143 147 0
-122 -143 0
-124 148 0
-144 148 0
-124 -144 149 0
-145 149 0
-124 -145 150 0
-146 150 0
-124 -146 151 0
-147 151 0
-124 -147 0
-126 152 0
-148 152 0
-126 -148 153 0
-149 153 0
-126 -149 154 0
-150 154 0
-126 -150 155 0
-151 155 0
-126 -151 0
-128 156 0
-152 156 0
-128 -152 157 0
-153 157 0
-128 -153 158 0
-154 158 0
-128 -154 159 0
-155 159 0
-128 -155 0
-121 160 0
-123 164 0
-160 164 0
-123 -160 165 0
-161 165 0
-123 -161 166 0
-162 166 0
-123 -162 167 0
-163 167 0
-123 -163 0
-125 168 0
-164 168 0
-125 -164 169 0
-165 169 0
-125 -165 170 0
-166 170 0
-125 -166 171 0
-167 171 0
-125 -167 0
-127 172 0
-168 172 0
-127 -168 173 0
-169 173 0
-127 -169 174 0
-170 174 0
-127 -170 175 0
-171 175 0
-127 -171 0
-129 176 0
-172 176 0
-129 -172 177 0
-173 177 0
-129 -173 178 0
-174 178 0
-129 -174 179 0
-175 179 0
-129 -175 0
-94 -115 88 0
-94 115 -88 0
-94 -117 89 0
-94 117 -89 0
-94 -119 90 0
-94 119 -90 0
-94 -121 91 0
-94 121 -91 0
-94 -123 92 0
-94 123 -92 0
-94 -125 93 0
-94 125 -93 0
-94 -127 94 0
-94 127 -94 0
-94 -129 95 0
-94 129 -95 0
-94 -131 96 0
-94 131 -96 0
-94 -133 97 0
-94 133 -97 0
-94 -135 98 0
-94 135 -98 0
-94 -137 99 0
-94 137 -99 0
-94 -139 100 0
-94 139 -100 0
180 181 182 183 184 0
185 186 187 188 189 190 191 192 193 194 195 196 197 198 0
-185 297 0
-186 298 0
-297 298 0
-186 -297 0
-187 299 0
-298 299 0
-187 -298 0
-188 300 0
-299 300 0
-188 -299 0
-189 301 0
-300 301 0
-189 -300 0
-190 302 0
-301 302 0
-190 -301 0
-191 303 0
-302 303 0
-191 -302 0
-192 304 0
-303 304 0
-192 -303 0
-193 305 0
-304 305 0
-193 -304 0
-194 306 0
-305 306 0
-194 -305 0
-195 307 0
-306 307 0
-195 -306 0
-196 308 0
-307 308 0
-196 -307 0
-197 309 0
-308 309 0
-197 -308 0
-198 310 0
-309 310 0
-198 -309 0
199 200 201 202 203 204 205 206 207 208 209 210 211 212 0
-199 311 0
-200 312 0
-311 312 0
-200 -311 0
-201 313 0
-312 313 0
-201 -312 0
-202 314 0
-313 314 0
-202 -313 0
-203 315 0
-314 315 0
-203 -314 0
-204 316 0
-315 316 0
-204 -315 0
-205 317 0
-316 317 0
-205 -316 0
-206 318 0
-317 318 0
-206 -317 0
-207 319 0
-318 319 0
-207 -318 0
-208 320 0
-319 320 0
-208 -319 0
-209 321 0
-320 321 0
-209 -320 0
-210 322 0
-321 322 0
-210 -321 0
-211 323 0
-322 323 0
-211 -322 0
-212 324 0
-323 324 0
-212 -323 0
213 214 215 216 217 218 219 220 221 222 223 224 225 226 0
-213 325 0
-214 326 0
-325 326 0
-214 -325 0
-215 327 0
-326 327 0
-215 -326 0
-216 328 0
-327 328 0
-216 -327 0
-217 329 0
-328 329 0
-217 -328 0
-218 330 0
-329 330 0
-218 -329 0
-219 331 0
-330 331 0
-219 -330 0
-220 332 0
-331 332 0
-220 -331 0
-221 333 0
-332 333 0
-221 -332 0
-222 334 0
-333 334 0
-222 -333 0
-223 335 0
-334 335 0
-223 -334 0
-224 336 0
-335 336 0
-224 -335 0
-225 337 0
-336 337 0
-225 -336 0
-226 338 0
-337 338 0
-226 -337 0
227 228 229 230 231 232 233 234 235 236 237 238 239 240 0
-227 339 0
-228 340 0
-339 340 0
-228 -339 0
-229 341 0
-340 341 0
-229 -340 0
-230 342 0
-341 342 0
-230 -341 0
-231 343 0
-342 343 0
-231 -342 0
-232 344 0
-343 344 0
-232 -343 0
-233 345 0
-344 345 0
-233 -344 0
-234 346 0
-345 346 0
-234 -345 0
-235 347 0
-346 347 0
-235 -346 0
-236 348 0
-347 348 0
-236 -347 0
-237 349 0
-348 349 0
-237 -348 0
-238 350 0
-349 350 0
-238 -349 0
-239 351 0
-350 351 0
-239 -350 0
-240 352 0
-351 352 0
-240 -351 0
241 242 243 244 245 246 247 248 249 250 251 252 253 254 0
-241 353 0
-242 354 0
-353 354 0
-242 -353 0
-243 355 0
-354 355 0
-243 -354 0
-244 356 0
-355 356 0
-244 -355 0
-245 357 0
-356 357 0
-245 -356 0
-246 358 0
-357 358 0
-246 -357 0
-247 359 0
-358 359 0
-247 -358 0
-248 360 0
-359 360 0
-248 -359 0
-249 361 0
-360 361 0
-249 -360 0
-250 362 0
-361 362 0
-250 -361 0
-251 363 0
-362 363 0
-251 -362 0
-252 364 0
-363 364 0
-252 -363 0
-253 365 0
-364 365 0
-253 -364 0
-254 366 0
-365 366 0
-254 -365 0
255 256 257 258 259 260 261 262 263 264 265 266 267 268 0
-255 367 0
-256 368 0
-367 368 0
-256 -367 0
-257 369 0
-368 369 0
-257 -368 0
-258 370 0
-369 370 0
-258 -369 0
-259 371 0
-370 371 0
-259 -370 0
-260 372 0
-371 372 0
-260 -371 0
-261 373 0
-372 373 0
-261 -372 0
-262 374 0
-373 374 0
-262 -373 0
-263 375 0
-374 375 0
-263 -374 0
-264 376 0
-375 376 0
-264 -375 0
-265 377 0
-376 377 0
-265 -376 0
-266 378 0
-377 378 0
-266 -377 0
-267 379 0
-378 379 0
-267 -378 0
-268 380 0
-379 380 0
-268 -379 0
269 270 271 272 273 274 275 276 277 278 279 280 281 282 0
-269 381 0
-270 382 0
-381 382 0
-270 -381 0
-271 383 0
-382 383 0
-271 -382 0
-272 384 0
-383 384 0
-272 -383 0
-273 385 0
-384 385 0
-273 -384 0
-274 386 0
-385 386 0
-274 -385 0
-275 387 0
-386 387 0
-275 -386 0
-276 388 0
-387 388 0
-276 -387 0
-277 389 0
-388 389 0
-277 -388 0
-278 390 0
-389 390 0
-278 -389 0
-279 391 0
-390 391 0
-279 -390 0
-280 392 0
-391 392 0
-280 -391 0
-281 393 0
-392 393 0
-281 -392 0
-282 394 0
-393 394 0
-282 -393 0
283 284 285 286 287 288 289 290 291 292 293 294 295 296 0
-283 395 0
-284 396 0
-395 396 0
-284 -395 0
-285 397 0
-396 397 0
-285 -396 0
-286 398 0
-397 398 0
-286 -397 0
-287 399 0
-398 399 0
-287 -398 0
-288 400 0
-399 400 0
-288 -399 0
-289 401 0
-400 401 0
-289 -400 0
-290 402 0
-401 402 0
-290 -401 0
-291 403 0
-402 403 0
-291 -402 0
-292 404 0
-403 404 0
-292 -403 0
-293 405 0
-404 405 0
-293 -404 0
-294 406 0
-405 406 0
-294 -405 0
-295 407 0
-406 407 0
-295 -406 0
-296 408 0
-407 408 0
-296 -407 0
-189 0
-205 0
-216 0
-232 0
-248 0
-263 0
-278 0
-293 0
-3 -269 0
-4 -199 0
-5 -283 0
-6 -227 0
-7 -241 0
-8 -213 0
-9 -200 0
-10 -228 0
-11 -242 0
-12 -214 0
-15 -266 0
-16 -210 0
-17 -238 0
-18 -252 0
-19 -224 0
-20 -267 0
-21 -211 0
-22 -239 0
-23 -253 0
-24 -225 0
-25 -261 0
-25 -207 0
-26 -262 0
-26 -249 0
-27 -258 0
-27 -221 0
-28 -275 0
-28 -208 0
-29 -274 0
-29 -236 0
-30 -276 0
-30 -250 0
-31 -272 0
-31 -222 0
-32 -209 0
-32 -289 0
-33 -288 0
-33 -237 0
-34 -290 0
-34 -251 0
-35 -286 0
-35 -223 0
-187 0
-201 0
-215 0
-229 0
-243 0
-257 0
-271 0
-285 0
-186 92 0
-92 186 0
-200 94 0
-94 200 0
-214 91 0
-91 214 0
-228 93 0
-93 228 0
-242 95 0
-95 242 0
-256 96 0
-96 256 0
-270 97 0
-97 270 0
-284 98 0
-98 284 0
-185 -114 0
-199 -115 0
-186 -116 0
-200 -117 0
-187 -118 0
-201 -119 0
-188 -120 0
-202 -121 0
-189 -122 0
-203 -123 0
-190 -124 0
-204 -125 0
-191 -126 0
-205 -127 0
-192 -128 0
-206 -129 0
-193 -130 0
-207 -131 0
-194 -132 0
-208 -133 0
-195 -134 0
-209 -135 0
-196 -136 0
-210 -137 0
-197 -138 0
-211 -139 0
188 191 192 0
-185 -255 0
-186 -256 0
-187 -257 0
-188 -258 0
-189 -259 0
-190 -260 0
-191 -261 0
-192 -262 0
-193 -263 0
-194 -264 0
-195 -265 0
-196 -266 0
-197 -267 0
-185 -199 0
-186 -200 0
-187 -201 0
-188 -202 0
-189 -203 0
-190 -204 0
-191 -205 0
-192 -206 0
-193 -207 0
-194 -208 0
-195 -209 0
-196 -210 0
-197 -211 0
-213 -185 0
-213 -199 0
-214 -186 0
-214 -200 0
-215 -187 0
-215 -201 0
-216 -188 0
-216 -202 0
-217 -189 0
-217 -203 0
-218 -190 0
-218 -204 0
-219 -191 0
-219 -205 0
-220 -192 0
-220 -206 0
-221 -193 0
-221 -207 0
-222 -194 0
-222 -208 0
-223 -195 0
-223 -209 0
-224 -196 0
-224 -210 0
-225 -197 0
-225 -211 0
409 0
410 0
411 0
412 0
413 0
414 0
415 0
416 0
417 0
418 0
419 0
420 0
421 0
-422 0
-431 0
-440 0
-449 0
-422 458 0
-423 462 0
-458 462 0
-423 -458 463 0
-459 463 0
-423 -459 464 0
-460 464 0
-423 -460 465 0
-461 465 0
-423 -461 0
-424 466 0
-462 466 0
-424 -462 467 0
-463 467 0
-424 -463 468 0
-464 468 0
-424 -464 469 0
-465 469 0
-424 -465 0
-425 470 0
-466 470 0
-425 -466 471 0
-467 471 0
-425 -467 472 0
-468 472 0
-425 -468 473 0
-469 473 0
-425 -469 0
-426 474 0
-470 474 0
-426 -470 475 0
-471 475 0
-426 -471 476 0
-472 476 0
-426 -472 477 0
-473 477 0
-426 -473 0
-431 478 0
-432 482 0
-478 482 0
-432 -478 483 0
-479 483 0
-432 -479 484 0
-480 484 0
-432 -480 485 0
-481 485 0
-432 -481 0
-433 486 0
-482 486 0
-433 -482 487 0
-483 487 0
-433 -483 488 0
-484 488 0
-433 -484 489 0
-485 489 0
-433 -485 0
-434 490 0
-486 490 0
-434 -486 491 0
-487 491 0
-434 -487 492 0
-488 492 0
-434 -488 493 0
-489 493 0
-434 -489 0
-435 494 0
-490 494 0
-435 -490 495 0
-491 495 0
-435 -491 496 0
-492 496 0
-435 -492 497 0
-493 497 0
-435 -493 0
-440 498 0
-441 502 0
-498 502 0
-441 -498 503 0
-499 503 0
-441 -499 504 0
-500 504 0
-441 -500 505 0
-501 505 0
-441 -501 0
-442 506 0
-502 506 0
-442 -502 507 0
-503 507 0
-442 -503 508 0
-504 508 0
-442 -504 509 0
-505 509 0
-442 -505 0
-443 510 0
-506 510 0
-443 -506 511 0
-507 511 0
-443 -507 512 0
-508 512 0
-443 -508 513 0
-509 513 0
-443 -509 0
-444 514 0
-510 514 0
-444 -510 515 0
-511 515 0
-444 -511 516 0
-512 516 0
-444 -512 517 0
-513 517 0
-444 -513 0
-449 518 0
-450 522 0
-518 522 0
-450 -518 523 0
-519 523 0
-450 -519 524 0
-520 524 0
-450 -520 525 0
-521 525 0
-450 -521 0
-451 526 0
-522 526 0
-451 -522 527 0
-523 527 0
-451 -523 528 0
-524 528 0
-451 -524 529 0
-525 529 0
-451 -525 0
-452 530 0
-526 530 0
-452 -526 531 0
-527 531 0
-452 -527 532 0
-528 532 0
-452 -528 533 0
-529 533 0
-452 -529 0
-453 534 0
-530 534 0
-453 -530 535 0
-531 535 0
-453 -531 536 0
-532 536 0
-453 -532 537 0
-533 537 0
-453 -533 0
-538 422 0
-538 431 0
-422 -431 538 0
-539 423 0
-539 432 0
-423 -432 539 0
-540 424 0
-540 433 0
-424 -433 540 0
-541 425 0
-541 434 0
-425 -434 541 0
-542 426 0
-542 435 0
-426 -435 542 0
-538 543 0
-539 545 0
-543 545 0
-539 -543 546 0
-544 546 0
-539 -544 0
-540 547 0
-545 547 0
-540 -545 548 0
-546 548 0
-540 -546 0
-541 549 0
-547 549 0
-541 -547 550 0
-548 550 0
-541 -548 0
-542 551 0
-549 551 0
-542 -549 552 0
-550 552 0
-542 -550 0
-553 440 0
-553 449 0
-440 -449 553 0
-554 441 0
-554 450 0
-441 -450 554 0
-555 442 0
-555 451 0
-442 -451 555 0
-556 443 0
-556 452 0
-443 -452 556 0
-557 444 0
-557 453 0
-444 -453 557 0
-553 558 0
-554 560 0
-558 560 0
-554 -558 561 0
-559 561 0
-554 -559 0
-555 562 0
-560 562 0
-555 -560 563 0
-561 563 0
-555 -561 0
-556 564 0
-562 564 0
-556 -562 565 0
-563 565 0
-556 -563 0
-557 566 0
-564 566 0
-557 -564 567 0
-565 567 0
-557 -565 0
568 569 0
-569 0
570 571 572 573 574 575 576 577 578 579 580 581 582 583 584 585 586 587 588 589 590 591 592 593 594 595 0
-570 596 0
-571 597 0
-596 597 0
-571 -596 0
-572 598 0
-597 598 0
-572 -597 0
-573 599 0
-598 599 0
-573 -598 0
-574 600 0
-599 600 0
-574 -599 0
-575 601 0
-600 601 0
-575 -600 0
-576 602 0
-601 602 0
-576 -601 0
-577 603 0
-602 603 0
-577 -602 0
-578 604 0
-603 604 0
-578 -603 0
-579 605 0
-604 605 0
-579 -604 0
-580 606 0
-605 606 0
-580 -605 0
-581 607 0
-606 607 0
-581 -606 0
-582 608 0
-607 608 0
-582 -607 0
-583 609 0
-608 609 0
-583 -608 0
-584 610 0
-609 610 0
-584 -609 0
-585 611 0
-610 611 0
-585 -610 0
-586 612 0
-611 612 0
-586 -611 0
-587 613 0
-612 613 0
-587 -612 0
-588 614 0
-613 614 0
-588 -613 0
-589 615 0
-614 615 0
-589 -614 0
-590 616 0
-615 616 0
-590 -615 0
-591 617 0
-616 617 0
-591 -616 0
-592 618 0
-617 618 0
-592 -617 0
-593 619 0
-618 619 0
-593 -618 0
-594 620 0
-619 620 0
-594 -619 0
-595 621 0
-620 621 0
-595 -620 0
622 623 624 625 626 627 628 629 630 631 632 633 634 635 636 637 638 639 640 641 642 643 644 645 646 647 0
-622 648 0
-623 649 0
-648 649 0
-623 -648 0
-624 650 0
-649 650 0
-624 -649 0
-625 651 0
-650 651 0
-625 -650 0
-626 652 0
-651 652 0
-626 -651 0
-627 653 0
-652 653 0
-627 -652 0
-628 654 0
-653 654 0
-628 -653 0
-629 655 0
-654 655 0
-629 -654 0
-630 656 0
-655 656 0
-630 -655 0
-631 657 0
-656 657 0
-631 -656 0
-632 658 0
-657 658 0
-632 -657 0
-633 659 0
-658 659 0
-633 -658 0
-634 660 0
-659 660 0
-634 -659 0
-635 661 0
-660 661 0
-635 -660 0
-636 662 0
-661 662 0
-636 -661 0
-637 663 0
-662 663 0
-637 -662 0
-638 664 0
-663 664 0
-638 -663 0
-639 665 0
-664 665 0
-639 -664 0
-640 666 0
-665 666 0
-640 -665 0
-641 667 0
-666 667 0
-641 -666 0
-642 668 0
-667 668 0
-642 -667 0
-643 669 0
-668 669 0
-643 -668 0
-644 670 0
-669 670 0
-644 -669 0
-645 671 0
-670 671 0
-645 -670 0
-646 672 0
-671 672 0
-646 -671 0
-647 673 0
-672 673 0
-647 -672 0
674 675 676 677 678 679 680 681 682 683 684 685 686 687 688 689 690 691 692 693 694 695 696 697 698 699 0
-674 700 0
-675 701 0
-700 701 0
-675 -700 0
-676 702 0
-701 702 0
-676 -701 0
-677 703 0
-702 703 0
-677 -702 0
-678 704 0
-703 704 0
-678 -703 0
-679 705 0
-704 705 0
-679 -704 0
-680 706 0
-705 706 0
-680 -705 0
-681 707 0
-706 707 0
-681 -706 0
-682 708 0
-707 708 0
-682 -707 0
-683 709 0
-708 709 0
-683 -708 0
-684 710 0
-709 710 0
-684 -709 0
-685 711 0
-710 711 0
-685 -710 0
-686 712 0
-711 712 0
-686 -711 0
-687 713 0
-712 713 0
-687 -712 0
-688 714 0
-713 714 0
-688 -713 0
-689 715 0
-714 715 0
-689 -714 0
-690 716 0
-715 716 0
-690 -715 0
-691 717 0
-716 717 0
-691 -716 0
-692 718 0
-717 718 0
-692 -717 0
-693 719 0
-718 719 0
-693 -718 0
-694 720 0
-719 720 0
-694 -719 0
-695 721 0
-720 721 0
-695 -720 0
-696 722 0
-721 722 0
-696 -721 0
-697 723 0
-722 723 0
-697 -722 0
-698 724 0
-723 724 0
-698 -723 0
-699 725 0
-724 725 0
-699 -724 0
726 727 728 729 730 731 732 733 734 735 736 737 738 739 740 741 742 743 744 745 746 747 748 749 750 751 0
-726 752 0
-727 753 0
-752 753 0
-727 -752 0
-728 754 0
-753 754 0
-728 -753 0
-729 755 0
-754 755 0
-729 -754 0
-730 756 0
-755 756 0
-730 -755 0
-731 757 0
-756 757 0
-731 -756 0
-732 758 0
-757 758 0
-732 -757 0
-733 759 0
-758 759 0
-733 -758 0
-734 760 0
-759 760 0
-734 -759 0
-735 761 0
-760 761 0
-735 -760 0
-736 762 0
-761 762 0
-736 -761 0
-737 763 0
-762 763 0
-737 -762 0
-738 764 0
-763 764 0
-738 -763 0
-739 765 0
-764 765 0
-739 -764 0
-740 766 0
-765 766 0
-740 -765 0
-741 767 0
-766 767 0
-741 -766 0
-742 768 0
-767 768 0
-742 -767 0
-743 769 0
-768 769 0
-743 -768 0
-744 770 0
-769 770 0
-744 -769 0
-745 771 0
-770 771 0
-745 -770 0
-746 772 0
-771 772 0
-746 -771 0
-747 773 0
-772 773 0
-747 -772 0
-748 774 0
-773 774 0
-748 -773 0
-749 775 0
-774 775 0
-749 -774 0
-750 776 0
-775 776 0
-750 -775 0
-751 777 0
-776 777 0
-751 -776 0
-570 -622 -674 729 0
-570 -622 -675 730 0
-570 -622 -676 731 0
-570 -622 -677 732 0
-570 -622 -678 733 0
-570 -622 -679 734 0
-570 -622 -680 735 0
-570 -622 -681 736 0
-570 -622 -682 737 0
-570 -622 -683 738 0
-570 -622 -684 739 0
-570 -622 -685 740 0
-570 -622 -686 741 0
-570 -622 -687 742 0
-570 -622 -688 743 0
-570 -622 -689 744 0
-570 -622 -690 745 0
-570 -622 -691 746 0
-570 -622 -692 747 0
-570 -622 -693 748 0
-570 -622 -694 749 0
-570 -622 -695 750 0
-570 -622 -696 751 0
-570 -622 -697 751 0
-570 -622 -698 751 0
-570 -622 -699 751 0
-570 -623 -674 730 0
-570 -623 -675 731 0
-570 -623 -676 732 0
-570 -623 -677 733 0
-570 -623 -678 734 0
-570 -623 -679 735 0
-570 -623 -680 736 0
-570 -623 -681 737 0
-570 -623 -682 738 0
-570 -623 -683 739 0
-570 -623 -684 740 0
-570 -623 -685 741 0
-570 -623 -686 742 0
-570 -623 -687 743 0
-570 -623 -688 744 0
-570 -623 -689 745 0
-570 -623 -690 746 0
-570 -623 -691 747 0
-570 -623 -692 748 0
-570 -623 -693 749 0
-570 -623 -694 750 0
-570 -623 -695 751 0
-570 -623 -696 751 0
-570 -623 -697 751 0
-570 -623 -698 751 0
-570 -623 -699 751 0
-570 -624 -674 731 0
-570 -624 -675 732 0
-570 -624 -676 733 0
-570 -624 -677 734 0
-570 -624 -678 735 0
-570 -624 -679 736 0
-570 -624 -680 737 0
-570 -624 -681 738 0
-570 -624 -682 739 0
-570 -624 -683 740 0
-570 -624 -684 741 0
-570 -624 -685 742 0
-570 -624 -686 743 0
-570 -624 -687 744 0
-570 -624 -688 745 0
-570 -624 -689 746 0
-570 -624 -690 747 0
-570 -624 -691 748 0
-570 -624 -692 749 0
-570 -624 -693 750 0
-570 -624 -694 751 0
-570 -624 -695 751 0
-570 -624 -696 751 0
-570 -624 -697 751 0
-570 -624 -698 751 0
-570 -624 -699 751 0
-570 -625 -674 732 0
-570 -625 -675 733 0
-570 -625 -676 734 0
-570 -625 -677 735 0
-570 -625 -678 736 0
-570 -625 -679 737 0
-570 -625 -680 738 0
-570 -625 -681 739 0
-570 -625 -682 740 0
-570 -625 -683 741 0
-570 -625 -684 742 0
-570 -625 -685 743 0
-570 -625 -686 744 0
-570 -625 -687 745 0
-570 -625 -688 746 0
-570 -625 -689 747 0
-570 -625 -690 748 0
-570 -625 -691 749 0
-570 -625 -692 750 0
-570 -625 -693 751 0
-570 -625 -694 751 0
-570 -625 -695 751 0
-570 -625 -696 751 0
-570 -625 -697 751 0
-570 -625 -698 751 0
-570 -625 -699 751 0
-570 -626 -674 733 0
-570 -626 -675 734 0
-570 -626 -676 735 0
-570 -626 -677 736 0
-570 -626 -678 737 0
-570 -626 -679 738 0
-570 -626 -680 739 0
-570 -626 -681 740 0
-570 -626 -682 741 0
-570 -626 -683 742 0
-570 -626 -684 743 0
-570 -626 -685 744 0
-570 -626 -686 745 0
-570 -626 -687 746 0
-570 -626 -688 747 0
-570 -626 -689 748 0
-570 -626 -690 749 0
-570 -626 -691 750 0
-570 -626 -692 751 0
-570 -626 -693 751 0
-570 -626 -694 751 0
-570 -626 -695 751 0
-570 -626 -696 751 0
-570 -626 -697 751 0
-570 -626 -698 751 0
-570 -626 -699 751 0
-570 -627 -674 734 0
-570 -627 -675 735 0
-570 -627 -676 736 0
-570 -627 -677 737 0
-570 -627 -678 738 0
-570 -627 -679 739 0
-570 -627 -680 740 0
-570 -627 -681 741 0
-570 -627 -682 742 0
-570 -627 -683 743 0
-570 -627 -684 744 0
-570 -627 -685 745 0
-570 -627 -686 746 0
-570 -627 -687 747 0
-570 -627 -688 748 0
-570 -627 -689 749 0
-570 -627 -690 750 0
-570 -627 -691 751 0
-570 -627 -692 751 0
-570 -627 -693 751 0
-570 -627 -694 751 0
-570 -627 -695 751 0
-570 -627 -696 751 0
-570 -627 -697 751 0
-570 -627 -698 751 0
-570 -627 -699 751 0
-570 -628 -674 735 0
-570 -628 -675 736 0
-570 -628 -676 737 0
-570 -628 -677 738 0
-570 -628 -678 739 0
-570 -628 -679 740 0
-570 -628 -680 741 0
-570 -628 -681 742 0
-570 -628 -682 743 0
-570 -628 -683 744 0
-570 -628 -684 745 0
-570 -628 -685 746 0
-570 -628 -686 747 0
-570 -628 -687 748 0
-570 -628 -688 749 0
-570 -628 -689 750 0
-570 -628 -690 751 0
-570 -628 -691 751 0
-570 -628 -692 751 0
-570 -628 -693 751 0
-570 -628 -694 751 0
-570 -628 -695 751 0
-570 -628 -696 751 0
-570 -628 -697 751 0
-570 -628 -698 751 0
-570 -628 -699 751 0
-570 -629 -674 736 0
-570 -629 -675 737 0
-570 -629 -676 738 0
-570 -629 -677 739 0
-570 -629 -678 740 0
-570 -629 -679 741 0
-570 -629 -680 742 0
-570 -629 -681 743 0
-570 -629 -682 744 0
-570 -629 -683 745 0
-570 -629 -684 746 0
-570 -629 -685 747 0
-570 -629 -686 748 0
-570 -629 -687 749 0
-570 -629 -688 750 0
-570 -629 -689 751 0
-570 -629 -690 751 0
-570 -629 -691 751 0
-570 -629 -692 751 0
-570 -629 -693 751 0
-570 -629 -694 751 0
-570 -629 -695 751 0
-570 -629 -696 751 0
-570 -629 -697 751 0
-570 -629 -698 751 0
-570 -629 -699 751 0
-570 -630 -674 737 0
-570 -630 -675 738 0
-570 -630 -676 739 0
-570 -630 -677 740 0
-570 -630 -678 741 0
-570 -630 -679 742 0
-570 -630 -680 743 0
-570 -630 -681 744 0
-570 -630 -682 745 0
-570 -630 -683 746 0
-570 -630 -684 747 0
-570 -630 -685 748 0
-570 -630 -686 749 0
-570 -630 -687 750 0
-570 -630 -688 751 0
-570 -630 -689 751 0
-570 -630 -690 751 0
-570 -630 -691 751 0
-570 -630 -692 751 0
-570 -630 -693 751 0
-570 -630 -694 751 0
-570 -630 -695 751 0
-570 -630 -696 751 0
-570 -630 -697 751 0
-570 -630 -698 751 0
-570 -630 -699 751 0
-570 -631 -674 738 0
-570 -631 -675 739 0
-570 -631 -676 740 0
-570 -631 -677 741 0
-570 -631 -678 742 0
-570 -631 -679 743 0
-570 -631 -680 744 0
-570 -631 -681 745 0
-570 -631 -682 746 0
-570 -631 -683 747 0
-570 -631 -684 748 0
-570 -631 -685 749 0
-570 -631 -686 750 0
-570 -631 -687 751 0
-570 -631 -688 751 0
-570 -631 -689 751 0
-570 -631 -690 751 0
-570 -631 -691 751 0
-570 -631 -692 751 0
-570 -631 -693 751 0
-570 -631 -694 751 0
-570 -631 -695 751 0
-570 -631 -696 751 0
-570 -631 -697 751 0
-570 -631 -698 751 0
-570 -631 -699 751 0
-570 -632 -674 739 0
-570 -632 -675 740 0
-570 -632 -676 741 0
-570 -632 -677 742 0
-570 -632 -678 743 0
-570 -632 -679 744 0
-570 -632 -680 745 0
-570 -632 -681 746 0
-570 -632 -682 747 0
-570 -632 -683 748 0
-570 -632 -684 749 0
-570 -632 -685 750 0
-570 -632 -686 751 0
-570 -632 -687 751 0
-570 -632 -688 751 0
-570 -632 -689 751 0
-570 -632 -690 751 0
-570 -632 -691 751 0
-570 -632 -692 751 0
-570 -632 -693 751 0
-570 -632 -694 751 0
-570 -632 -695 751 0
-570 -632 -696 751 0
-570 -632 -697 751 0
-570 -632 -698 751 0
-570 -632 -699 751 0
-570 -633 -674 740 0
-570 -633 -675 741 0
-570 -633 -676 742 0
-570 -633 -677 743 0
-570 -633 -678 744 0
-570 -633 -679 745 0
-570 -633 -680 746 0
-570 -633 -681 747 0
-570 -633 -682 748 0
-570 -633 -683 749 0
-570 -633 -684 750 0
-570 -633 -685 751 0
-570 -633 -686 751 0
-570 -633 -687 751 0
-570 -633 -688 751 0
-570 -633 -689 751 0
-570 -633 -690 751 0
-570 -633 -691 751 0
-570 -633 -692 751 0
-570 -633 -693 751 0
-570 -633 -694 751 0
-570 -633 -695 751 0
-570 -633 -696 751 0
-570 -633 -697 751 0
-570 -633 -698 751 0
-570 -633 -699 751 0
-570 -634 -674 741 0
-570 -634 -675 742 0
-570 -634 -676 743 0
-570 -634 -677 744 0
-570 -634 -678 745 0
-570 -634 -679 746 0
-570 -634 -680 747 0
-570 -634 -681 748 0
-570 -634 -682 749 0
-570 -634 -683 750 0
-570 -634 -684 751 0
-570 -634 -685 751 0
-570 -634 -686 751 0
-570 -634 -687 751 0
-570 -634 -688 751 0
-570 -634 -689 751 0
-570 -634 -690 751 0
-570 -634 -691 751 0
-570 -634 -692 751 0
-570 -634 -693 751 0
-570 -634 -694 751 0
-570 -634 -695 751 0
-570 -634 -696 751 0
-570 -634 -697 751 0
-570 -634 -698 751 0
-570 -634 -699 751 0
-570 -635 -674 742 0
-570 -635 -675 743 0
-570 -635 -676 744 0
-570 -635 -677 745 0
-570 -635 -678 746 0
-570 -635 -679 747 0
-570 -635 -680 748 0
-570 -635 -681 749 0
-570 -635 -682 750 0
-570 -635 -683 751 0
-570 -635 -684 751 0
-570 -635 -685 751 0
-570 -635 -686 751 0
-570 -635 -687 751 0
-570 -635 -688 751 0
-570 -635 -689 751 0
-570 -635 -690 751 0
-570 -635 -691 751 0
-570 -635 -692 751 0
-570 -635 -693 751 0
-570 -635 -694 751 0
-570 -635 -695 751 0
-570 -635 -696 751 0
-570 -635 -697 751 0
-570 -635 -698 751 0
-570 -635 -699 751 0
-570 -636 -674 743 0
-570 -636 -675 744 0
-570 -636 -676 745 0
-570 -636 -677 746 0
-570 -636 -678 747 0
-570 -636 -679 748 0
-570 -636 -680 749 0
-570 -636 -681 750 0
-570 -636 -682 751 0
-570 -636 -683 751 0
-570 -636 -684 751 0
-570 -636 -685 751 0
-570 -636 -686 751 0
-570 -636 -687 751 0
-570 -636 -688 751 0
-570 -636 -689 751 0
-570 -636 -690 751 0
-570 -636 -691 751 0
-570 -636 -692 751 0
-570 -636 -693 751 0
-570 -636 -694 751 0
-570 -636 -695 751 0
-570 -636 -696 751 0
-570 -636 -697 751 0
-570 -636 -698 751 0
-570 -636 -699 751 0
-570 -637 -674 744 0
-570 -637 -675 745 0
-570 -637 -676 746 0
-570 -637 -677 747 0
-570 -637 -678 748 0
-570 -637 -679 749 0
-570 -637 -680 750 0
-570 -637 -681 751 0
-570 -637 -682 751 0
-570 -637 -683 751 0
-570 -637 -684 751 0
-570 -637 -685 751 0
-570 -637 -686 751 0
-570 -637 -687 751 0
-570 -637 -688 751 0
-570 -637 -689 751 0
-570 -637 -690 751 0
-570 -637 -691 751 0
-570 -637 -692 751 0
-570 -637 -693 751 0
-570 -637 -694 751 0
-570 -637 -695 751 0
-570 -637 -696 751 0
-570 -637 -697 751 0
-570 -637 -698 751 0
-570 -637 -699 751 0
-570 -638 -674 745 0
-570 -638 -675 746 0
-570 -638 -676 747 0
-570 -638 -677 748 0
-570 -638 -678 749 0
-570 -638 -679 750 0
-570 -638 -680 751 0
-570 -638 -681 751 0
-570 -638 -682 751 0
-570 -638 -683 751 0
-570 -638 -684 751 0
-570 -638 -685 751 0
-570 -638 -686 751 0
-570 -638 -687 751 0
-570 -638 -688 751 0
-570 -638 -689 751 0
-570 -638 -690 751 0
-570 -638 -691 751 0
-570 -638 -692 751 0
-570 -638 -693 751 0
-570 -638 -694 751 0
-570 -638 -695 751 0
-570 -638 -696 751 0
-570 -638 -697 751 0
-570 -638 -698 751 0
-570 -638 -699 751 0
-570 -639 -674 746 0
-570 -639 -675 747 0
-570 -639 -676 748 0
-570 -639 -677 749 0
-570 -639 -678 750 0
-570 -639 -679 751 0
-570 -639 -680 751 0
-570 -639 -681 751 0
-570 -639 -682 751 0
-570 -639 -683 751 0
-570 -639 -684 751 0
-570 -639 -685 751 0
-570 -639 -686 751 0
-570 -639 -687 751 0
-570 -639 -688 751 0
-570 -639 -689 751 0
-570 -639 -690 751 0
-570 -639 -691 751 0
-570 -639 -692 751 0
-570 -639 -693 751 0
-570 -639 -694 751 0
-570 -639 -695 751 0
-570 -639 -696 751 0
-570 -639 -697 751 0
-570 -639 -698 751 0
-570 -639 -699 751 0
-570 -640 -674 747 0
-570 -640 -675 748 0
-570 -640 -676 749 0
-570 -640 -677 750 0
-570 -640 -678 751 0
-570 -640 -679 751 0
-570 -640 -680 751 0
-570 -640 -681 751 0
-570 -640 -682 751 0
-570 -640 -683 751 0
-570 -640 -684 751 0
-570 -640 -685 751 0
-570 -640 -686 751 0
-570 -640 -687 751 0
-570 -640 -688 751 0
-570 -640 -689 751 0
-570 -640 -690 751 0
-570 -640 -691 751 0
-570 -640 -692 751 0
-570 -640 -693 751 0
-570 -640 -694 751 0
-570 -640 -695 751 0
-570 -640 -696 751 0
-570 -640 -697 751 0
-570 -640 -698 751 0
-570 -640 -699 751 0
-570 -641 -674 748 0
-570 -641 -675 749 0
-570 -641 -676 750 0
-570 -641 -677 751 0
-570 -641 -678 751 0
-570 -641 -679 751 0
-570 -641 -680 751 0
-570 -641 -681 751 0
-570 -641 -682 751 0
-570 -641 -683 751 0
-570 -641 -684 751 0
-570 -641 -685 751 0
-570 -641 -686 751 0
-570 -641 -687 751 0
-570 -641 -688 751 0
-570 -641 -689 751 0
-570 -641 -690 751 0
-570 -641 -691 751 0
-570 -641 -692 751 0
-570 -641 -693 751 0
-570 -641 -694 751 0
-570 -641 -695 751 0
-570 -641 -696 751 0
-570 -641 -697 751 0
-570 -641 -698 751 0
-570 -641 -699 751 0
-570 -642 -674 749 0
-570 -642 -675 750 0
-570 -642 -676 751 0
-570 -642 -677 751 0
-570 -642 -678 751 0
-570 -642 -679 751 0
-570 -642 -680 751 0
-570 -642 -681 751 0
-570 -642 -682 751 0
-570 -642 -683 751 0
-570 -642 -684 751 0
-570 -642 -685 751 0
-570 -642 -686 751 0
-570 -642 -687 751 0
-570 -642 -688 751 0
-570 -642 -689 751 0
-570 -642 -690 751 0
-570 -642 -691 751 0
-570 -642 -692 751 0
-570 -642 -693 751 0
-570 -642 -694 751 0
-570 -642 -695 751 0
-570 -642 -696 751 0
-570 -642 -697 751 0
-570 -642 -698 751 0
-570 -642 -699 751 0
-570 -643 -674 750 0
-570 -643 -675 751 0
-570 -643 -676 751 0
-570 -643 -677 751 0
-570 -643 -678 751 0
-570 -643 -679 751 0
-570 -643 -680 751 0
-570 -643 -681 751 0
-570 -643 -682 751 0
-570 -643 -683 751 0
-570 -643 -684 751 0
-570 -643 -685 751 0
-570 -643 -686 751 0
-570 -643 -687 751 0
-570 -643 -688 751 0
-570 -643 -689 751 0
-570 -643 -690 751 0
-570 -643 -691 751 0
-570 -643 -692 751 0
-570 -643 -693 751 0
-570 -643 -694 751 0
-570 -643 -695 751 0
-570 -643 -696 751 0
-570 -643 -697 751 0
-570 -643 -698 751 0
-570 -643 -699 751 0
-570 -644 -674 751 0
-570 -644 -675 751 0
-570 -644 -676 751 0
-570 -644 -677 751 0
-570 -644 -678 751 0
-570 -644 -679 751 0
-570 -644 -680 751 0
-570 -644 -681 751 0
-570 -644 -682 751 0
-570 -644 -683 751 0
-570 -644 -684 751 0
-570 -644 -685 751 0
-570 -644 -686 751 0
-570 -644 -687 751 0
-570 -644 -688 751 0
-570 -644 -689 751 0
-570 -644 -690 751 0
-570 -644 -691 751 0
-570 -644 -692 751 0
-570 -644 -693 751 0
-570 -644 -694 751 0
-570 -644 -695 751 0
-570 -644 -696 751 0
-570 -644 -697 751 0
-570 -644 -698 751 0
-570 -644 -699 751 0
-570 -645 -674 751 0
-570 -645 -675 751 0
-570 -645 -676 751 0
-570 -645 -677 751 0
-570 -645 -678 751 0
-570 -645 -679 751 0
-570 -645 -680 751 0
-570 -645 -681 751 0
-570 -645 -682 751 0
-570 -645 -683 751 0
-570 -645 -684 751 0
-570 -645 -685 751 0
-570 -645 -686 751 0
-570 -645 -687 751 0
-570 -645 -688 751 0
-570 -645 -689 751 0
-570 -645 -690 751 0
-570 -645 -691 751 0
-570 -645 -692 751 0
-570 -645 -693 751 0
-570 -645 -694 751 0
-570 -645 -695 751 0
-570 -645 -696 751 0
-570 -645 -697 751 0
-570 -645 -698 751 0
-570 -645 -699 751 0
-570 -646 -674 751 0
-570 -646 -675 751 0
-570 -646 -676 751 0
-570 -646 -677 751 0
-570 -646 -678 751 0
-570 -646 -679 751 0
-570 -646 -680 751 0
-570 -646 -681 751 0
-570 -646 -682 751 0
-570 -646 -683 751 0
-570 -646 -684 751 0
-570 -646 -685 751 0
-570 -646 -686 751 0
-570 -646 -687 751 0
-570 -646 -688 751 0
-570 -646 -689 751 0
-570 -646 -690 751 0
-570 -646 -691 751 0
-570 -646 -692 751 0
-570 -646 -693 751 0
-570 -646 -694 751 0
-570 -646 -695 751 0
-570 -646 -696 751 0
-570 -646 -697 751 0
-570 -646 -698 751 0
-570 -646 -699 751 0
-570 -647 -674 751 0
-570 -647 -675 751 0
-570 -647 -676 751 0
-570 -647 -677 751 0
-570 -647 -678 751 0
-570 -647 -679 751 0
-570 -647 -680 751 0
-570 -647 -681 751 0
-570 -647 -682 751 0
-570 -647 -683 751 0
-570 -647 -684 751 0
-570 -647 -685 751 0
-570 -647 -686 751 0
-570 -647 -687 751 0
-570 -647 -688 751 0
-570 -647 -689 751 0
-570 -647 -690 751 0
-570 -647 -691 751 0
-570 -647 -692 751 0
-570 -647 -693 751 0
-570 -647 -694 751 0
-570 -647 -695 751 0
-570 -647 -696 751 0
-570 -647 -697 751 0
-570 -647 -698 751 0
-570 -647 -699 751 0
-571 -622 -674 730 0
-571 -622 -675 731 0
-571 -622 -676 732 0
-571 -622 -677 733 0
-571 -622 -678 734 0
-571 -622 -679 735 0
-571 -622 -680 736 0
-571 -622 -681 737 0
-571 -622 -682 738 0
-571 -622 -683 739 0
-571 -622 -684 740 0
-571 -622 -685 741 0
-571 -622 -686 742 0
-571 -622 -687 743 0
-571 -622 -688 744 0
-571 -622 -689 745 0
-571 -622 -690 746 0
-571 -622 -691 747 0
-571 -622 -692 748 0
-571 -622 -693 749 0
-571 -622 -694 750 0
-571 -622 -695 751 0
-571 -622 -696 751 0
-571 -622 -697 751 0
-571 -622 -698 751 0
-571 -622 -699 751 0
-571 -623 -674 731 0
-571 -623 -675 732 0
-571 -623 -676 733 0
-571 -623 -677 734 0
-571 -623 -678 735 0
-571 -623 -679 736 0
-571 -623 -680 737 0
-571 -623 -681 738 0
-571 -623 -682 739 0
-571 -623 -683 740 0
-571 -623 -684 741 0
-571 -623 -685 742 0
-571 -623 -686 743 0
-571 -623 -687 744 0
-571 -623 -688 745 0
-571 -623 -689 746 0
-571 -623 -690 747 0
-571 -623 -691 748 0
-571 -623 -692 749 0
-571 -623 -693 750 0
-571 -623 -694 751 0
-571 -623 -695 751 0
-571 -623 -696 751 0
-571 -623 -697 751 0
-571 -623 -698 751 0
-571 -623 -699 751 0
-571 -624 -674 732 0
-571 -624 -675 733 0
-571 -624 -676 734 0
-571 -624 -677 735 0
-571 -624 -678 736 0
-571 -624 -679 737 0
-571 -624 -680 738 0
-571 -624 -681 739 0
-571 -624 -682 740 0
-571 -624 -683 741 0
-571 -624 -684 742 0
-571 -624 -685 743 0
-571 -624 -686 744 0
-571 -624 -687 745 0
-571 -624 -688 746 0
-571 -624 -689 747 0
-571 -624 -690 748 0
-571 -624 -691 749 0
-571 -624 -692 750 0
-571 -624 -693 751 0
-571 -624 -694 751 0
-571 -624 -695 751 0
-571 -624 -696 751 0
-571 -624 -697 751 0
-571 -624 -698 751 0
-571 -624 -699 751 0
-571 -625 -674 733 0
-571 -625 -675 734 0
-571 -625 -676 735 0
-571 -625 -677 736 0
-571 -625 -678 737 0
-571 -625 -679 738 0
-571 -625 -680 739 0
-571 -625 -681 740 0
-571 -625 -682 741 0
-571 -625 -683 742 0
-571 -625 -684 743 0
-571 -625 -685 744 0
-571 -625 -686 745 0
-571 -625 -687 746 0
-571 -625 -688 747 0
-571 -625 -689 748 0
-571 -625 -690 749 0
-571 -625 -691 750 0
-571 -625 -692 751 0
-571 -625 -693 751 0
-571 -625 -694 751 0
-571 -625 -695 751 0
-571 -625 -696 751 0
-571 -625 -697 751 0
-571 -625 -698 751 0
-571 -625 -699 751 0
-571 -626 -674 734 0
-571 -626 -675 735 0
-571 -626 -676 736 0
-571 -626 -677 737 0
-571 -626 -678 738 0
-571 -626 -679 739 0
-571 -626 -680 740 0
-571 -626 -681 741 0
-571 -626 -682 742 0
-571 -626 -683 743 0
-571 -626 -684 744 0
-571 -626 -685 745 0
-571 -626 -686 746 0
-571 -626 -687 747 0
-571 -626 -688 748 0
-571 -626 -689 749 0
-571 -626 -690 750 0
-571 -626 -691 751 0
-571 -626 -692 751 0
-571 -626 -693 751 0
-571 -626 -694 751 0
-571 -626 -695 751 0
-571 -626 -696 751 0
-571 -626 -697 751 0
-571 -626 -698 751 0
-571 -626 -699 751 0
-571 -627 -674 735 0
-571 -627 -675 736 0
-571 -627 -676 737 0
-571 -627 -677 738 0
-571 -627 -678 739 0
-571 -627 -679 740 0
-571 -627 -680 741 0
-571 -627 -681 742 0
-571 -627 -682 743 0
-571 -627 -683 744 0
-571 -627 -684 745 0
-571 -627 -685 746 0
-571 -627 -686 747 0
-571 -627 -687 748 0
-571 -627 -688 749 0
-571 -627 -689 750 0
-571 -627 -690 751 0
-571 -627 -691 751 0
-571 -627 -692 751 0
-571 -627 -693 751 0
-571 -627 -694 751 0
-571 -627 -695 751 0
-571 -627 -696 751 0
-571 -627 -697 751 0
-571 -627 -698 751 0
-571 -627 -699 751 0
-571 -628 -674 736 0
-571 -628 -675 737 0
-571 -628 -676 738 0
-571 -628 -677 739 0
-571 -628 -678 740 0
-571 -628 -679 741 0
-571 -628 -680 742 0
-571 -628 -681 743 0
-571 -628 -682 744 0
-571 -628 -683 745 0
-571 -628 -684 746 0
-571 -628 -685 747 0
-571 -628 -686 748 0
-571 -628 -687 749 0
-571 -628 -688 750 0
-571 -628 -689 751 0
-571 -628 -690 751 0
-571 -628 -691 751 0
-571 -628 -692 751 0
-571 -628 -693 751 0
-571 -628 -694 751 0
-571 -628 -695 751 0
-571 -628 -696 751 0
-571 -628 -697 751 0
-571 -628 -698 751 0
-571 -628 -699 751 0
-571 -629 -674 737 0
-571 -629 -675 738 0
-571 -629 -676 739 0
-571 -629 -677 740 0
-571 -629 -678 741 0
-571 -629 -679 742 0
-571 -629 -680 743 0
-571 -629 -681 744 0
-571 -629 -682 745 0
-571 -629 -683 746 0
-571 -629 -684 747 0
-571 -629 -685 748 0
-571 -629 -686 749 0
-571 -629 -687 750 0
-571 -629 -688 751 0
-571 -629 -689 751 0
-571 -629 -690 751 0
-571 -629 -691 751 0
-571 -629 -692 751 0
-571 -629 -693 751 0
-571 -629 -694 751 0
-571 -629 -695 751 0
-571 -629 -696 751 0
-571 -629 -697 751 0
-571 -629 -698 751 0
-571 -629 -699 751 0
-571 -630 -674 738 0
-571 -630 -675 739 0
-571 -630 -676 740 0
-571 -630 -677 741 0
-571 -630 -678 742 0
-571 -630 -679 743 0
-571 -630 -680 744 0
-571 -630 -681 745 0
-571 -630 -682 746 0
-571 -630 -683 747 0
-571 -630 -684 748 0
-571 -630 -685 749 0
-571 -630 -686 750 0
-571 -630 -687 751 0
-571 -630 -688 751 0
-571 -630 -689 751 0
-571 -630 -690 751 0
-571 -630 -691 751 0
-571 -630 -692 751 0
-571 -630 -693 751 0
-571 -630 -694 751 0
-571 -630 -695 751 0
-571 -630 -696 751 0
-571 -630 -697 751 0
-571 -630 -698 751 0
-571 -630 -699 751 0
-571 -631 -674 739 0
-571 -631 -675 740 0
-571 -631 -676 741 0
-571 -631 -677 742 0
-571 -631 -678 743 0
-571 -631 -679 744 0
-571 -631 -680 745 0
-571 -631 -681 746 0
-571 -631 -682 747 0
-571 -631 -683 748 0
-571 -631 -684 749 0
-571 -631 -685 750 0
-571 -631 -686 751 0
-571 -631 -687 751 0
-571 -631 -688 751 0
-571 -631 -689 751 0
-571 -631 -690 751 0
-571 -631 -691 751 0
-571 -631 -692 751 0
-571 -631 -693 751 0
-571 -631 -694 751 0
-571 -631 -695 751 0
-571 -631 -696 751 0
-571 -631 -697 751 0
-571 -631 -698 751 0
-571 -631 -699 751 0
-571 -632 -674 740 0
-571 -632 -675 741 0
-571 -632 -676 742 0
-571 -632 -677 743 0
-571 -632 -678 744 0
-571 -632 -679 745 0
-571 -632 -680 746 0
-571 -632 -681 747 0
-571 -632 -682 748 0
-571 -632 -683 749 0
-571 -632 -684 750 0
-571 -632 -685 751 0
-571 -632 -686 751 0
-571 -632 -687 751 0
-571 -632 -688 751 0
-571 -632 -689 751 0
-571 -632 -690 751 0
-571 -632 -691 751 0
-571 -632 -692 751 0
-571 -632 -693 751 0
-571 -632 -694 751 0
-571 -632 -695 751 0
-571 -632 -696 751 0
-571 -632 -697 751 0
-571 -632 -698 751 0
-571 -632 -699 751 0
-571 -633 -674 741 0
-571 -633 -675 742 0
-571 -633 -676 743 0
-571 -633 -677 744 0
-571 -633 -678 745 0
-571 -633 -679 746 0
-571 -633 -680 747 0
-571 -633 -681 748 0
-571 -633 -682 749 0
-571 -633 -683 750 0
-571 -633 -684 751 0
-571 -633 -685 751 0
-571 -633 -686 751 0
-571 -633 -687 751 0
-571 -633 -688 751 0
-571 -633 -689 751 0
-571 -633 -690 751 0
-571 -633 -691 751 0
-571 -633 -692 751 0
-571 -633 -693 751 0
-571 -633 -694 751 0
-571 -633 -695 751 0
-571 -633 -696 751 0
-571 -633 -697 751 0
-571 -633 -698 751 0
-571 -633 -699 751 0
-571 -634 -674 742 0
-571 -634 -675 743 0
-571 -634 -676 744 0
-571 -634 -677 745 0
-571 -634 -678 746 0
-571 -634 -679 747 0
-571 -634 -680 748 0
-571 -634 -681 749 0
-571 -634 -682 750 0
-571 -634 -683 751 0
-571 -634 -684 751 0
-571 -634 -685 751 0
-571 -634 -686 751 0
-571 -634 -687 751 0
-571 -634 -688 751 0
-571 -634 -689 751 0
-571 -634 -690 751 0
-571 -634 -691 751 0
-571 -634 -692 751 0
-571 -634 -693 751 0
-571 -634 -694 751 0
-571 -634 -695 751 0
-571 -634 -696 751 0
-571 -634 -697 751 0
-571 -634 -698 751 0
-571 -634 -699 751 0
-571 -635 -674 743 0
-571 -635 -675 744 0
-571 -635 -676 745 0
-571 -635 -677 746 0
-571 -635 -678 747 0
-571 -635 -679 748 0
-571 -635 -680 749 0
-571 -635 -681 750 0
-571 -635 -682 751 0
-571 -635 -683 751 0
-571 -635 -684 751 0
-571 -635 -685 751 0
-571 -635 -686 751 0
-571 -635 -687 751 0
-571 -635 -688 751 0
-571 -635 -689 751 0
-571 -635 -690 751 0
-571 -635 -691 751 0
-571 -635 -692 751 0
-571 -635 -693 751 0
-571 -635 -694 751 0
-571 -635 -695 751 0
-571 -635 -696 751 0
-571 -635 -697 751 0
-571 -635 -698 751 0
-571 -635 -699 751 0
-571 -636 -674 744 0
-571 -636 -675 745 0
-571 -636 -676 746 0
-571 -636 -677 747 0
-571 -636 -678 748 0
-571 -636 -679 749 0
-571 -636 -680 750 0
-571 -636 -681 751 0
-571 -636 -682 751 0
-571 -636 -683 751 0
-571 -636 -684 751 0
-571 -636 -685 751 0
-571 -636 -686 751 0
-571 -636 -687 751 0
-571 -636 -688 751 0
-571 -636 -689 751 0
-571 -636 -690 751 0
-571 -636 -691 751 0
-571 -636 -692 751 0
-571 -636 -693 751 0
-571 -636 -694 751 0
-571 -636 -695 751 0
-571 -636 -696 751 0
-571 -636 -697 751 0
-571 -636 -698 751 0
-571 -636 -699 751 0
-571 -637 -674 745 0
-571 -637 -675 746 0
-571 -637 -676 747 0
-571 -637 -677 748 0
-571 -637 -678 749 0
-571 -637 -679 750 0
-571 -637 -680 751 0
-571 -637 -681 751 0
-571 -637 -682 751 0
-571 -637 -683 751 0
-571 -637 -684 751 0
-571 -637 -685 751 0
-571 -637 -686 751 0
-571 -637 -687 751 0
-571 -637 -688 751 0
-571 -637 -689 751 0
-571 -637 -690 751 0
-571 -637 -691 751 0
-571 -637 -692 751 0
-571 -637 -693 751 0
-571 -637 -694 751 0
-571 -637 -695 751 0
-571 -637 -696 751 0
-571 -637 -697 751 0
-571 -637 -698 751 0
-571 -637 -699 751 0
-571 -638 -674 746 0
-571 -638 -675 747 0
-571 -638 -676 748 0
-571 -638 -677 749 0
-571 -638 -678 750 0
-571 -638 -679 751 0
-571 -638 -680 751 0
-571 -638 -681 751 0
-571 -638 -682 751 0
-571 -638 -683 751 0
-571 -638 -684 751 0
-571 -638 -685 751 0
-571 -638 -686 751 0
-571 -638 -687 751 0
-571 -638 -688 751 0
-571 -638 -689 751 0
-571 -638 -690 751 0
-571 -638 -691 751 0
-571 -638 -692 751 0
-571 -638 -693 751 0
-571 -638 -694 751 0
-571 -638 -695 751 0
-571 -638 -696 751 0
-571 -638 -697 751 0
-571 -638 -698 751 0
-571 -638 -699 751 0
-571 -639 -674 747 0
-571 -639 -675 748 0
-571 -639 -676 749 0
-571 -639 -677 750 0
-571 -639 -678 751 0
-571 -639 -679 751 0
-571 -639 -680 751 0
-571 -639 -681 751 0
-571 -639 -682 751 0
-571 -639 -683 751 0
-571 -639 -684 751 0
-571 -639 -685 751 0
-571 -639 -686 751 0
-571 -639 -687 751 0
-571 -639 -688 751 0
-571 -639 -689 751 0
-571 -639 -690 751 0
-571 -639 -691 751 0
-571 -639 -692 751 0
-571 -639 -693 751 0
-571 -639 -694 751 0
-571 -639 -695 751 0
-571 -639 -696 751 0
-571 -639 -697 751 0
-571 -639 -698 751 0
-571 -639 -699 751 0
-571 -640 -674 748 0
-571 -640 -675 749 0
-571 -640 -676 750 0
-571 -640 -677 751 0
-571 -640 -678 751 0
-571 -640 -679 751 0
-571 -640 -680 751 0
-571 -640 -681 751 0
-571 -640 -682 751 0
-571 -640 -683 751 0
-571 -640 -684 751 0
-571 -640 -685 751 0
-571 -640 -686 751 0
-571 -640 -687 751 0
-571 -640 -688 751 0
-571 -640 -689 751 0
-571 -640 -690 751 0
-571 -640 -691 751 0
-571 -640 -692 751 0
-571 -640 -693 751 0
-571 -640 -694 751 0
-571 -640 -695 751 0
-571 -640 -696 751 0
-571 -640 -697 751 0
-571 -640 -698 751 0
-571 -640 -699 751 0
-571 -641 -674 749 0
-571 -641 -675 750 0
-571 -641 -676 751 0
-571 -641 -677 751 0
-571 -641 -678 751 0
-571 -641 -679 751 0
-571 -641 -680 751 0
-571 -641 -681 751 0
-571 -641 -682 751 0
-571 -641 -683 751 0
-571 -641 -684 751 0
-571 -641 -685 751 0
-571 -641 -686 751 0
-571 -641 -687 751 0
-571 -641 -688 751 0
-571 -641 -689 751 0
-571 -641 -690 751 0
-571 -641 -691 751 0
-571 -641 -692 751 0
-571 -641 -693 751 0
-571 -641 -694 751 0
-571 -641 -695 751 0
-571 -641 -696 751 0
-571 -641 -697 751 0
-571 -641 -698 751 0
-571 -641 -699 751 0
-571 -642 -674 750 0
-571 -642 -675 751 0
-571 -642 -676 751 0
-571 -642 -677 751 0
-571 -642 -678 751 0
-571 -642 -679 751 0
-571 -642 -680 751 0
-571 -642 -681 751 0
-571 -642 -682 751 0
-571 -642 -683 751 0
-571 -642 -684 751 0
-571 -642 -685 751 0
-571 -642 -686 751 0
-571 -642 -687 751 0
-571 -642 -688 751 0
-571 -642 -689 751 0
-571 -642 -690 751 0
-571 -642 -691 751 0
-571 -642 -692 751 0
-571 -642 -693 751 0
-571 -642 -694 751 0
-571 -642 -695 751 0
-571 -642 -696 751 0
-571 -642 -697 751 0
-571 -642 -698 751 0
-571 -642 -699 751 0
-571 -643 -674 751 0
-571 -643 -675 751 0
-571 -643 -676 751 0
-571 -643 -677 751 0
-571 -643 -678 751 0
-571 -643 -679 751 0
-571 -643 -680 751 0
-571 -643 -681 751 0
-571 -643 -682 751 0
-571 -643 -683 751 0
-571 -643 -684 751 0
-571 -643 -685 751 0
-571 -643 -686 751 0
-571 -643 -687 751 0
-571 -643 -688 751 0
-571 -643 -689 751 0
-571 -643 -690 751 0
-571 -643 -691 751 0
-571 -643 -692 751 0
-571 -643 -693 751 0
-571 -643 -694 751 0
-571 -643 -695 751 0
-571 -643 -696 751 0
-571 -643 -697 751 0
-571 -643 -698 751 0
-571 -643 -699 751 0
-571 -644 -674 751 0
-571 -644 -675 751 0
-571 -644 -676 751 0
-571 -644 -677 751 0
-571 -644 -678 751 0
-571 -644 -679 751 0
-571 -644 -680 751 0
-571 -644 -681 751 0
-571 -644 -682 751 0
-571 -644 -683 751 0
-571 -644 -684 751 0
-571 -644 -685 751 0
-571 -644 -686 751 0
-571 -644 -687 751 0
-571 -644 -688 751 0
-571 -644 -689 751 0
-571 -644 -690 751 0
-571 -644 -691 751 0
-571 -644 -692 751 0
-571 -644 -693 751 0
-571 -644 -694 751 0
-571 -644 -695 751 0
-571 -644 -696 751 0
-571 -644 -697 751 0
-571 -644 -698 751 0
-571 -644 -699 751 0
-571 -645 -674 751 0
-571 -645 -675 751 0
-571 -645 -676 751 0
-571 -645 -677 751 0
-571 -645 -678 751 0
-571 -645 -679 751 0
-571 -645 -680 751 0
-571 -645 -681 751 0
-571 -645 -682 751 0
-571 -645 -683 751 0
-571 -645 -684 751 0
-571 -645 -685 751 0
-571 -645 -686 751 0
-571 -645 -687 751 0
-571 -645 -688 751 0
-571 -645 -689 751 0
-571 -645 -690 751 0
-571 -645 -691 751 0
-571 -645 -692 751 0
-571 -645 -693 751 0
-571 -645 -694 751 0
-571 -645 -695 751 0
-571 -645 -696 751 0
-571 -645 -697 751 0
-571 -645 -698 751 0
-571 -645 -699 751 0
-571 -646 -674 751 0
-571 -646 -675 751 0
-571 -646 -676 751 0
-571 -646 -677 751 0
-571 -646 -678 751 0
-571 -646 -679 751 0
-571 -646 -680 751 0
-571 -646 -681 751 0
-571 -646 -682 751 0
-571 -646 -683 751 0
-571 -646 -684 751 0
-571 -646 -685 751 0
-571 -646 -686 751 0
-571 -646 -687 751 0
-571 -646 -688 751 0
-571 -646 -689 751 0
-571 -646 -690 751 0
-571 -646 -691 751 0
-571 -646 -692 751 0
-571 -646 -693 751 0
-571 -646 -694 751 0
-571 -646 -695 751 0
-571 -646 -696 751 0
-571 -646 -697 751 0
-571 -646 -698 751 0
-571 -646 -699 751 0
-571 -647 -674 751 0
-571 -647 -675 751 0
-571 -647 -676 751 0
-571 -647 -677 751 0
-571 -647 -678 751 0
-571 -647 -679 751 0
-571 -647 -680 751 0
-571 -647 -681 751 0
-571 -647 -682 751 0
-571 -647 -683 751 0
-571 -647 -684 751 0
-571 -647 -685 751 0
-571 -647 -686 751 0
-571 -647 -687 751 0
-571 -647 -688 751 0
-571 -647 -689 751 0
-571 -647 -690 751 0
-571 -647 -691 751 0
-571 -647 -692 751 0
-571 -647 -693 751 0
-571 -647 -694 751 0
-571 -647 -695 751 0
-571 -647 -696 751 0
-571 -647 -697 751 0
-571 -647 -698 751 0
-571 -647 -699 751 0
-572 -622 -674 731 0
-572 -622 -675 732 0
-572 -622 -676 733 0
-572 -622 -677 734 0
-572 -622 -678 735 0
-572 -622 -679 736 0
-572 -622 -680 737 0
-572 -622 -681 738 0
-572 -622 -682 739 0
-572 -622 -683 740 0
-572 -622 -684 741 0
-572 -622 -685 742 0
-572 -622 -686 743 0
-572 -622 -687 744 0
-572 -622 -688 745 0
-572 -622 -689 746 0
-572 -622 -690 747 0
-572 -622 -691 748 0
-572 -622 -692 749 0
-572 -622 -693 750 0
-572 -622 -694 751 0
-572 -622 -695 751 0
-572 -622 -696 751 0
-572 -622 -697 751 0
-572 -622 -698 751 0
-572 -622 -699 751 0
-572 -623 -674 732 0
-572 -623 -675 733 0
-572 -623 -676 734 0
-572 -623 -677 735 0
-572 -623 -678 736 0
-572 -623 -679 737 0
-572 -623 -680 738 0
-572 -623 -681 739 0
-572 -623 -682 740 0
-572 -623 -683 741 0
-572 -623 -684 742 0
-572 -623 -685 743 0
-572 -623 -686 744 0
-572 -623 -687 745 0
-572 -623 -688 746 0
-572 -623 -689 747 0
-572 -623 -690 748 0
-572 -623 -691 749 0
-572 -623 -692 750 0
-572 -623 -693 751 0
-572 -623 -694 751 0
-572 -623 -695 751 0
-572 -623 -696 751 0
-572 -623 -697 751 0
-572 -623 -698 751 0
-572 -623 -699 751 0
-572 -624 -674 733 0
-572 -624 -675 734 0
-572 -624 -676 735 0
-572 -624 -677 736 0
-572 -624 -678 737 0
-572 -624 -679 738 0
-572 -624 -680 739 0
-572 -624 -681 740 0
-572 -624 -682 741 0
-572 -624 -683 742 0
-572 -624 -684 743 0
-572 -624 -685 744 0
-572 -624 -686 745 0
-572 -624 -687 746 0
-572 -624 -688 747 0
-572 -624 -689 748 0
-572 -624 -690 749 0
-572 -624 -691 750 0
-572 -624 -692 751 0
-572 -624 -693 751 0
-572 -624 -694 751 0
-572 -624 -695 751 0
-572 -624 -696 751 0
-572 -624 -697 751 0
-572 -624 -698 751 0
-572 -624 -699 751 0
-572 -625 -674 734 0
-572 -625 -675 735 0
-572 -625 -676 736 0
-572 -625 -677 737 0
-572 -625 -678 738 0
-572 -625 -679 739 0
-572 -625 -680 740 0
-572 -625 -681 741 0
-572 -625 -682 742 0
-572 -625 -683 743 0
-572 -625 -684 744 0
-572 -625 -685 745 0
-572 -625 -686 746 0
-572 -625 -687 747 0
-572 -625 -688 748 0
-572 -625 -689 749 0
-572 -625 -690 750 0
-572 -625 -691 751 0
-572 -625 -692 751 0
-572 -625 -693 751 0
-572 -625 -694 751 0
-572 -625 -695 751 0
-572 -625 -696 751 0
-572 -625 -697 751 0
-572 -625 -698 751 0
-572 -625 -699 751 0
-572 -626 -674 735 0
-572 -626 -675 736 0
-572 -626 -676 737 0
-572 -626 -677 738 0
-572 -626 -678 739 0
-572 -626 -679 740 0
-572 -626 -680 741 0
-572 -626 -681 742 0
-572 -626 -682 743 0
-572 -626 -683 744 0
-572 -626 -684 745 0
-572 -626 -685 746 0
-572 -626 -686 747 0
-572 -626 -687 748 0
-572 -626 -688 749 0
-572 -626 -689 750 0
-572 -626 -690 751 0
-572 -626 -691 751 0
-572 -626 -692 751 0
-572 -626 -693 751 0
-572 -626 -694 751 0
-572 -626 -695 751 0
-572 -626 -696 751 0
-572 -626 -697 751 0
-572 -626 -698 751 0
-572 -626 -699 751 0
-572 -627 -674 736 0
-572 -627 -675 737 0
-572 -627 -676 738 0
-572 -627 -677 739 0
-572 -627 -678 740 0
-572 -627 -679 741 0
-572 -627 -680 742 0
-572 -627 -681 743 0
-572 -627 -682 744 0
-572 -627 -683 745 0
-572 -627 -684 746 0
-572 -627 -685 747 0
-572 -627 -686 748 0
-572 -627 -687 749 0
-572 -627 -688 750 0
-572 -627 -689 751 0
-572 -627 -690 751 0
-572 -627 -691 751 0
-572 -627 -692 751 0
-572 -627 -693 751 0
-572 -627 -694 751 0
-572 -627 -695 751 0
-572 -627 -696 751 0
-572 -627 -697 751 0
-572 -627 -698 751 0
-572 -627 -699 751 0
-572 -628 -674 737 0
-572 -628 -675 738 0
-572 -628 -676 739 0
-572 -628 -677 740 0
-572 -628 -678 741 0
-572 -628 -679 742 0
-572 -628 -680 743 0
-572 -628 -681 744 0
-572 -628 -682 745 0
-572 -628 -683 746 0
-572 -628 -684 747 0
-572 -628 -685 748 0
-572 -628 -686 749 0
-572 -628 -687 750 0
-572 -628 -688 751 0
-572 -628 -689 751 0
-572 -628 -690 751 0
-572 -628 -691 751 0
-572 -628 -692 751 0
-572 -628 -693 751 0
-572 -628 -694 751 0
-572 -628 -695 751 0
-572 -628 -696 751 0
-572 -628 -697 751 0
-572 -628 -698 751 0
-572 -628 -699 751 0
-572 -629 -674 738 0
-572 -629 -675 739 0
-572 -629 -676 740 0
-572 -629 -677 741 0
-572 -629 -678 742 0
-572 -629 -679 743 0
-572 -629 -680 744 0
-572 -629 -681 745 0
-572 -629 -682 746 0
-572 -629 -683 747 0
-572 -629 -684 748 0
-572 -629 -685 749 0
-572 -629 -686 750 0
-572 -629 -687 751 0
-572 -629 -688 751 0
-572 -629 -689 751 0
-572 -629 -690 751 0
-572 -629 -691 751 0
-572 -629 -692 751 0
-572 -629 -693 751 0
-572 -629 -694 751 0
-572 -629 -695 751 0
-572 -629 -696 751 0
-572 -629 -697 751 0
-572 -629 -698 751 0
-572 -629 -699 751 0
-572 -630 -674 739 0
-572 -630 -675 740 0
-572 -630 -676 741 0
-572 -630 -677 742 0
-572 -630 -678 743 0
-572 -630 -679 744 0
-572 -630 -680 745 0
-572 -630 -681 746 0
-572 -630 -682 747 0
-572 -630 -683 748 0
-572 -630 -684 749 0
-572 -630 -685 750 0
-572 -630 -686 751 0
-572 -630 -687 751 0
-572 -630 -688 751 0
-572 -630 -689 751 0
-572 -630 -690 751 0
-572 -630 -691 751 0
-572 -630 -692 751 0
-572 -630 -693 751 0
-572 -630 -694 751 0
-572 -630 -695 751 0
-572 -630 -696 751 0
-572 -630 -697 751 0
-572 -630 -698 751 0
-572 -630 -699 751 0
-572 -631 -674 740 0
-572 -631 -675 741 0
-572 -631 -676 742 0
-572 -631 -677 743 0
-572 -631 -678 744 0
-572 -631 -679 745 0
-572 -631 -680 746 0
-572 -631 -681 747 0
-572 -631 -682 748 0
-572 -631 -683 749 0
-572 -631 -684 750 0
-572 -631 -685 751 0
-572 -631 -686 751 0
-572 -631 -687 751 0
-572 -631 -688 751 0
-572 -631 -689 751 0
-572 -631 -690 751 0
-572 -631 -691 751 0
-572 -631 -692 751 0
-572 -631 -693 751 0
-572 -631 -694 751 0
-572 -631 -695 751 0
-572 -631 -696 751 0
-572 -631 -697 751 0
-572 -631 -698 751 0
-572 -631 -699 751 0
-572 -632 -674 741 0
-572 -632 -675 742 0
-572 -632 -676 743 0
-572 -632 -677 744 0
-572 -632 -678 745 0
-572 -632 -679 746 0
-572 -632 -680 747 0
-572 -632 -681 748 0
-572 -632 -682 749 0
-572 -632 -683 750 0
-572 -632 -684 751 0
-572 -632 -685 751 0
-572 -632 -686 751 0
-572 -632 -687 751 0
-572 -632 -688 751 0
-572 -632 -689 751 0
-572 -632 -690 751 0
-572 -632 -691 751 0
-572 -632 -692 751 0
-572 -632 -693 751 0
-572 -632 -694 751 0
-572 -632 -695 751 0
-572 -632 -696 751 0
-572 -632 -697 751 0
-572 -632 -698 751 0
-572 -632 -699 751 0
-572 -633 -674 742 0
-572 -633 -675 743 0
-572 -633 -676 744 0
-572 -633 -677 745 0
-572 -633 -678 746 0
-572 -633 -679 747 0
-572 -633 -680 748 0
-572 -633 -681 749 0
-572 -633 -682 750 0
-572 -633 -683 751 0
-572 -633 -684 751 0
-572 -633 -685 751 0
-572 -633 -686 751 0
-572 -633 -687 751 0
-572 -633 -688 751 0
-572 -633 -689 751 0
-572 -633 -690 751 0
-572 -633 -691 751 0
-572 -633 -692 751 0
-572 -633 -693 751 0
-572 -633 -694 751 0
-572 -633 -695 751 0
-572 -633 -696 751 0
-572 -633 -697 751 0
-572 -633 -698 751 0
-572 -633 -699 751 0
-572 -634 -674 743 0
-572 -634 -675 744 0
-572 -634 -676 745 0
-572 -634 -677 746 0
-572 -634 -678 747 0
-572 -634 -679 748 0
-572 -634 -680 749 0
-572 -634 -681 750 0
-572 -634 -682 751 0
-572 -634 -683 751 0
-572 -634 -684 751 0
-572 -634 -685 751 0
-572 -634 -686 751 0
-572 -634 -687 751 0
-572 -634 -688 751 0
-572 -634 -689 751 0
-572 -634 -690 751 0
-572 -634 -691 751 0
-572 -634 -692 751 0
-572 -634 -693 751 0
-572 -634 -694 751 0
-572 -634 -695 751 0
-572 -634 -696 751 0
-572 -634 -697 751 0
-572 -634 -698 751 0
-572 -634 -699 751 0
-572 -635 -674 744 0
-572 -635 -675 745 0
-572 -635 -676 746 0
-572 -635 -677 747 0
-572 -635 -678 748 0
-572 -635 -679 749 0
-572 -635 -680 750 0
-572 -635 -681 751 0
-572 -635 -682 751 0
-572 -635 -683 751 0
-572 -635 -684 751 0
-572 -635 -685 751 0
-572 -635 -686 751 0
-572 -635 -687 751 0
-572 -635 -688 751 0
-572 -635 -689 751 0
-572 -635 -690 751 0
-572 -635 -691 751 0
-572 -635 -692 751 0
-572 -635 -693 751 0
-572 -635 -694 751 0
-572 -635 -695 751 0
-572 -635 -696 751 0
-572 -635 -697 751 0
-572 -635 -698 751 0
-572 -635 -699 751 0
-572 -636 -674 745 0
-572 -636 -675 746 0
-572 -636 -676 747 0
-572 -636 -677 748 0
-572 -636 -678 749 0
-572 -636 -679 750 0
-572 -636 -680 751 0
-572 -636 -681 751 0
-572 -636 -682 751 0
-572 -636 -683 751 0
-572 -636 -684 751 0
-572 -636 -685 751 0
-572 -636 -686 751 0
-572 -636 -687 751 0
-572 -636 -688 751 0
-572 -636 -689 751 0
-572 -636 -690 751 0
-572 -636 -691 751 0
-572 -636 -692 751 0
-572 -636 -693 751 0
-572 -636 -694 751 0
-572 -636 -695 751 0
-572 -636 -696 751 0
-572 -636 -697 751 0
-572 -636 -698 751 0
-572 -636 -699 751 0
-572 -637 -674 746 0
-572 -637 -675 747 0
-572 -637 -676 748 0
-572 -637 -677 749 0
-572 -637 -678 750 0
-572 -637 -679 751 0
-572 -637 -680 751 0
-572 -637 -681 751 0
-572 -637 -682 751 0
-572 -637 -683 751 0
-572 -637 -684 751 0
-572 -637 -685 751 0
-572 -637 -686 751 0
-572 -637 -687 751 0
-572 -637 -688 751 0
-572 -637 -689 751 0
-572 -637 -690 751 0
-572 -637 -691 751 0
-572 -637 -692 751 0
-572 -637 -693 751 0
-572 -637 -694 751 0
-572 -637 -695 751 0
-572 -637 -696 751 0
-572 -637 -697 751 0
-572 -637 -698 751 0
-572 -637 -699 751 0
-572 -638 -674 747 0
-572 -638 -675 748 0
-572 -638 -676 749 0
-572 -638 -677 750 0
-572 -638 -678 751 0
-572 -638 -679 751 0
-572 -638 -680 751 0
-572 -638 -681 751 0
-572 -638 -682 751 0
-572 -638 -683 751 0
-572 -638 -684 751 0
-572 -638 -685 751 0
-572 -638 -686 751 0
-572 -638 -687 751 0
-572 -638 -688 751 0
-572 -638 -689 751 0
-572 -638 -690 751 0
-572 -638 -691 751 0
-572 -638 -692 751 0
-572 -638 -693 751 0
-572 -638 -694 751 0
-572 -638 -695 751 0
-572 -638 -696 751 0
-572 -638 -697 751 0
-572 -638 -698 751 0
-572 -638 -699 751 0
-572 -639 -674 748 0
-572 -639 -675 749 0
-572 -639 -676 750 0
-572 -639 -677 751 0
-572 -639 -678 751 0
-572 -639 -679 751 0
-572 -639 -680 751 0
-572 -639 -681 751 0
-572 -639 -682 751 0
-572 -639 -683 751 0
-572 -639 -684 751 0
-572 -639 -685 751 0
-572 -639 -686 751 0
-572 -639 -687 751 0
-572 -639 -688 751 0
-572 -639 -689 751 0
-572 -639 -690 751 0
-572 -639 -691 751 0
-572 -639 -692 751 0
-572 -639 -693 751 0
-572 -639 -694 751 0
-572 -639 -695 751 0
-572 -639 -696 751 0
-572 -639 -697 751 0
-572 -639 -698 751 0
-572 -639 -699 751 0
-572 -640 -674 749 0
-572 -640 -675 750 0
-572 -640 -676 751 0
-572 -640 -677 751 0
-572 -640 -678 751 0
-572 -640 -679 751 0
-572 -640 -680 751 0
-572 -640 -681 751 0
-572 -640 -682 751 0
-572 -640 -683 751 0
-572 -640 -684 751 0
-572 -640 -685 751 0
-572 -640 -686 751 0
-572 -640 -687 751 0
-572 -640 -688 751 0
-572 -640 -689 751 0
-572 -640 -690 751 0
-572 -640 -691 751 0
-572 -640 -692 751 0
-572 -640 -693 751 0
-572 -640 -694 751 0
-572 -640 -695 751 0
-572 -640 -696 751 0
-572 -640 -697 751 0
-572 -640 -698 751 0
-572 -640 -699 751 0
-572 -641 -674 750 0
-572 -641 -675 751 0
-572 -641 -676 751 0
-572 -641 -677 751 0
-572 -641 -678 751 0
-572 -641 -679 751 0
-572 -641 -680 751 0
-572 -641 -681 751 0
-572 -641 -682 751 0
-572 -641 -683 751 0
-572 -641 -684 751 0
-572 -641 -685 751 0
-572 -641 -686 751 0
-572 -641 -687 751 0
-572 -641 -688 751 0
-572 -641 -689 751 0
-572 -641 -690 751 0
-572 -641 -691 751 0
-572 -641 -692 751 0
-572 -641 -693 751 0
-572 -641 -694 751 0
-572 -641 -695 751 0
-572 -641 -696 751 0
-572 -641 -697 751 0
-572 -641 -698 751 0
-572 -641 -699 751 0
-572 -642 -674 751 0
-572 -642 -675 751 0
-572 -642 -676 751 0
-572 -642 -677 751 0
-572 -642 -678 751 0
-572 -642 -679 751 0
-572 -642 -680 751 0
-572 -642 -681 751 0
-572 -642 -682 751 0
-572 -642 -683 751 0
-572 -642 -684 751 0
-572 -642 -685 751 0
-572 -642 -686 751 0
-572 -642 -687 751 0
-572 -642 -688 751 0
-572 -642 -689 751 0
-572 -642 -690 751 0
-572 -642 -691 751 0
-572 -642 -692 751 0
-572 -642 -693 751 0
-572 -642 -694 751 0
-572 -642 -695 751 0
-572 -642 -696 751 0
-572 -642 -697 751 0
-572 -642 -698 751 0
-572 -642 -699 751 0
-572 -643 -674 751 0
-572 -643 -675 751 0
-572 -643 -676 751 0
-572 -643 -677 751 0
-572 -643 -678 751 0
-572 -643 -679 751 0
-572 -643 -680 751 0
-572 -643 -681 751 0
-572 -643 -682 751 0
-572 -643 -683 751 0
-572 -643 -684 751 0
-572 -643 -685 751 0
-572 -643 -686 751 0
-572 -643 -687 751 0
-572 -643 -688 751 0
-572 -643 -689 751 0
-572 -643 -690 751 0
-572 -643 -691 751 0
-572 -643 -692 751 0
-572 -643 -693 751 0
-572 -643 -694 751 0
-572 -643 -695 751 0
-572 -643 -696 751 0
-572 -643 -697 751 0
-572 -643 -698 751 0
-572 -643 -699 751 0
-572 -644 -674 751 0
-572 -644 -675 751 0
-572 -644 -676 751 0
-572 -644 -677 751 0
-572 -644 -678 751 0
-572 -644 -679 751 0
-572 -644 -680 751 0
-572 -644 -681 751 0
-572 -644 -682 751 0
-572 -644 -683 751 0
-572 -644 -684 751 0
-572 -644 -685 751 0
-572 -644 -686 751 0
-572 -644 -687 751 0
-572 -644 -688 751 0
-572 -644 -689 751 0
-572 -644 -690 751 0
-572 -644 -691 751 0
-572 -644 -692 751 0
-572 -644 -693 751 0
-572 -644 -694 751 0
-572 -644 -695 751 0
-572 -644 -696 751 0
-572 -644 -697 751 0
-572 -644 -698 751 0
-572 -644 -699 751 0
-572 -645 -674 751 0
-572 -645 -675 751 0
-572 -645 -676 751 0
-572 -645 -677 751 0
-572 -645 -678 751 0
-572 -645 -679 751 0
-572 -645 -680 751 0
-572 -645 -681 751 0
-572 -645 -682 751 0
-572 -645 -683 751 0
-572 -645 -684 751 0
-572 -645 -685 751 0
-572 -645 -686 751 0
-572 -645 -687 751 0
-572 -645 -688 751 0
-572 -645 -689 751 0
-572 -645 -690 751 0
-572 -645 -691 751 0
-572 -645 -692 751 0
-572 -645 -693 751 0
-572 -645 -694 751 0
-572 -645 -695 751 0
-572 -645 -696 751 0
-572 -645 -697 751 0
-572 -645 -698 751 0
-572 -645 -699 751 0
-572 -646 -674 751 0
-572 -646 -675 751 0
-572 -646 -676 751 0
-572 -646 -677 751 0
-572 -646 -678 751 0
-572 -646 -679 751 0
-572 -646 -680 751 0
-572 -646 -681 751 0
-572 -646 -682 751 0
-572 -646 -683 751 0
-572 -646 -684 751 0
-572 -646 -685 751 0
-572 -646 -686 751 0
-572 -646 -687 751 0
-572 -646 -688 751 0
-572 -646 -689 751 0
-572 -646 -690 751 0
-572 -646 -691 751 0
-572 -646 -692 751 0
-572 -646 -693 751 0
-572 -646 -694 751 0
-572 -646 -695 751 0
-572 -646 -696 751 0
-572 -646 -697 751 0
-572 -646 -698 751 0
-572 -646 -699 751 0
-572 -647 -674 751 0
-572 -647 -675 751 0
-572 -647 -676 751 0
-572 -647 -677 751 0
-572 -647 -678 751 0
-572 -647 -679 751 0
-572 -647 -680 751 0
-572 -647 -681 751 0
-572 -647 -682 751 0
-572 -647 -683 751 0
-572 -647 -684 751 0
-572 -647 -685 751 0
-572 -647 -686 751 0
-572 -647 -687 751 0
-572 -647 -688 751 0
-572 -647 -689 751 0
-572 -647 -690 751 0
-572 -647 -691 751 0
-572 -647 -692 751 0
-572 -647 -693 751 0
-572 -647 -694 751 0
-572 -647 -695 751 0
-572 -647 -696 751 0
-572 -647 -697 751 0
-572 -647 -698 751 0
-572 -647 -699 751 0
-573 -622 -674 732 0
-573 -622 -675 733 0
-573 -622 -676 734 0
-573 -622 -677 735 0
-573 -622 -678 736 0
-573 -622 -679 737 0
-573 -622 -680 738 0
-573 -622 -681 739 0
-573 -622 -682 740 0
-573 -622 -683 741 0
-573 -622 -684 742 0
-573 -622 -685 743 0
-573 -622 -686 744 0
-573 -622 -687 745 0
-573 -622 -688 746 0
-573 -622 -689 747 0
-573 -622 -690 748 0
-573 -622 -691 749 0
-573 -622 -692 750 0
-573 -622 -693 751 0
-573 -622 -694 751 0
-573 -622 -695 751 0
-573 -622 -696 751 0
-573 -622 -697 751 0
-573 -622 -698 751 0
-573 -622 -699 751 0
-573 -623 -674 733 0
-573 -623 -675 734 0
-573 -623 -676 735 0
-573 -623 -677 736 0
-573 -623 -678 737 0
-573 -623 -679 738 0
-573 -623 -680 739 0
-573 -623 -681 740 0
-573 -623 -682 741 0
-573 -623 -683 742 0
-573 -623 -684 743 0
-573 -623 -685 744 0
-573 -623 -686 745 0
-573 -623 -687 746 0
-573 -623 -688 747 0
-573 -623 -689 748 0
-573 -623 -690 749 0
-573 -623 -691 750 0
-573 -623 -692 751 0
-573 -623 -693 751 0
-573 -623 -694 751 0
-573 -623 -695 751 0
-573 -623 -696 751 0
-573 -623 -697 751 0
-573 -623 -698 751 0
-573 -623 -699 751 0
-573 -624 -674 734 0
-573 -624 -675 735 0
-573 -624 -676 736 0
-573 -624 -677 737 0
-573 -624 -678 738 0
-573 -624 -679 739 0
-573 -624 -680 740 0
-573 -624 -681 741 0
-573 -624 -682 742 0
-573 -624 -683 743 0
-573 -624 -684 744 0
-573 -624 -685 745 0
-573 -624 -686 746 0
-573 -624 -687 747 0
-573 -624 -688 748 0
-573 -624 -689 749 0
-573 -624 -690 750 0
-573 -624 -691 751 0
-573 -624 -692 751 0
-573 -624 -693 751 0
-573 -624 -694 751 0
-573 -624 -695 751 0
-573 -624 -696 751 0
-573 -624 -697 751 0
-573 -624 -698 751 0
-573 -624 -699 751 0
-573 -625 -674 735 0
-573 -625 -675 736 0
-573 -625 -676 737 0
-573 -625 -677 738 0
-573 -625 -678 739 0
-573 -625 -679 740 0
-573 -625 -680 741 0
-573 -625 -681 742 0
-573 -625 -682 743 0
-573 -625 -683 744 0
-573 -625 -684 745 0
-573 -625 -685 746 0
-573 -625 -686 747 0
-573 -625 -687 748 0
-573 -625 -688 749 0
-573 -625 -689 750 0
-573 -625 -690 751 0
-573 -625 -691 751 0
-573 -625 -692 751 0
-573 -625 -693 751 0
-573 -625 -694 751 0
-573 -625 -695 751 0
-573 -625 -696 751 0
-573 -625 -697 751 0
-573 -625 -698 751 0
-573 -625 -699 751 0
-573 -626 -674 736 0
-573 -626 -675 737 0
-573 -626 -676 738 0
-573 -626 -677 739 0
-573 -626 -678 740 0
-573 -626 -679 741 0
-573 -626 -680 742 0
-573 -626 -681 743 0
-573 -626 -682 744 0
-573 -626 -683 745 0
-573 -626 -684 746 0
-573 -626 -685 747 0
-573 -626 -686 748 0
-573 -626 -687 749 0
-573 -626 -688 750 0
-573 -626 -689 751 0
-573 -626 -690 751 0
-573 -626 -691 751 0
-573 -626 -692 751 0
-573 -626 -693 751 0
-573 -626 -694 751 0
-573 -626 -695 751 0
-573 -626 -696 751 0
-573 -626 -697 751 0
-573 -626 -698 751 0
-573 -626 -699 751 0
-573 -627 -674 737 0
-573 -627 -675 738 0
-573 -627 -676 739 0
-573 -627 -677 740 0
-573 -627 -678 741 0
-573 -627 -679 742 0
-573 -627 -680 743 0
-573 -627 -681 744 0
-573 -627 -682 745 0
-573 -627 -683 746 0
-573 -627 -684 747 0
-573 -627 -685 748 0
-573 -627 -686 749 0
-573 -627 -687 750 0
-573 -627 -688 751 0
-573 -627 -689 751 0
-573 -627 -690 751 0
-573 -627 -691 751 0
-573 -627 -692 751 0
-573 -627 -693 751 0
-573 -627 -694 751 0
-573 -627 -695 751 0
-573 -627 -696 751 0
-573 -627 -697 751 0
-573 -627 -698 751 0
-573 -627 -699 751 0
-573 -628 -674 738 0
-573 -628 -675 739 0
-573 -628 -676 740 0
-573 -628 -677 741 0
-573 -628 -678 742 0
-573 -628 -679 743 0
-573 -628 -680 744 0
-573 -628 -681 745 0
-573 -628 -682 746 0
-573 -628 -683 747 0
-573 -628 -684 748 0
-573 -628 -685 749 0
-573 -628 -686 750 0
-573 -628 -687 751 0
-573 -628 -688 751 0
-573 -628 -689 751 0
-573 -628 -690 751 0
-573 -628 -691 751 0
-573 -628 -692 751 0
-573 -628 -693 751 0
-573 -628 -694 751 0
-573 -628 -695 751 0
-573 -628 -696 751 0
-573 -628 -697 751 0
-573 -628 -698 751 0
-573 -628 -699 751 0
-573 -629 -674 739 0
-573 -629 -675 740 0
-573 -629 -676 741 0
-573 -629 -677 742 0
-573 -629 -678 743 0
-573 -629 -679 744 0
-573 -629 -680 745 0
-573 -629 -681 746 0
-573 -629 -682 747 0
-573 -629 -683 748 0
-573 -629 -684 749 0
-573 -629 -685 750 0
-573 -629 -686 751 0
-573 -629 -687 751 0
-573 -629 -688 751 0
-573 -629 -689 751 0
-573 -629 -690 751 0
-573 -629 -691 751 0
-573 -629 -692 751 0
-573 -629 -693 751 0
-573 -629 -694 751 0
-573 -629 -695 751 0
-573 -629 -696 751 0
-573 -629 -697 751 0
-573 -629 -698 751 0
-573 -629 -699 751 0
-573 -630 -674 740 0
-573 -630 -675 741 0
-573 -630 -676 742 0
-573 -630 -677 743 0
-573 -630 -678 744 0
-573 -630 -679 745 0
-573 -630 -680 746 0
-573 -630 -681 747 0
-573 -630 -682 748 0
-573 -630 -683 749 0
-573 -630 -684 750 0
-573 -630 -685 751 0
-573 -630 -686 751 0
-573 -630 -687 751 0
-573 -630 -688 751 0
-573 -630 -689 751 0
-573 -630 -690 751 0
-573 -630 -691 751 0
-573 -630 -692 751 0
-573 -630 -693 751 0
-573 -630 -694 751 0
-573 -630 -695 751 0
-573 -630 -696 751 0
-573 -630 -697 751 0
-573 -630 -698 751 0
-573 -630 -699 751 0
-573 -631 -674 741 0
-573 -631 -675 742 0
-573 -631 -676 743 0
-573 -631 -677 744 0
-573 -631 -678 745 0
-573 -631 -679 746 0
-573 -631 -680 747 0
-573 -631 -681 748 0
-573 -631 -682 749 0
-573 -631 -683 750 0
-573 -631 -684 751 0
-573 -631 -685 751 0
-573 -631 -686 751 0
-573 -631 -687 751 0
-573 -631 -688 751 0
-573 -631 -689 751 0
-573 -631 -690 751 0
-573 -631 -691 751 0
-573 -631 -692 751 0
-573 -631 -693 751 0
-573 -631 -694 751 0
-573 -631 -695 751 0
-573 -631 -696 751 0
-573 -631 -697 751 0
-573 -631 -698 751 0
-573 -631 -699 751 0
-573 -632 -674 742 0
-573 -632 -675 743 0
-573 -632 -676 744 0
-573 -632 -677 745 0
-573 -632 -678 746 0
-573 -632 -679 747 0
-573 -632 -680 748 0
-573 -632 -681 749 0
-573 -632 -682 750 0
-573 -632 -683 751 0
-573 -632 -684 751 0
-573 -632 -685 751 0
-573 -632 -686 751 0
-573 -632 -687 751 0
-573 -632 -688 751 0
-573 -632 -689 751 0
-573 -632 -690 751 0
-573 -632 -691 751 0
-573 -632 -692 751 0
-573 -632 -693 751 0
-573 -632 -694 751 0
-573 -632 -695 751 0
-573 -632 -696 751 0
-573 -632 -697 751 0
-573 -632 -698 751 0
-573 -632 -699 751 0
-573 -633 -674 743 0
-573 -633 -675 744 0
-573 -633 -676 745 0
-573 -633 -677 746 0
-573 -633 -678 747 0
-573 -633 -679 748 0
-573 -633 -680 749 0
-573 -633 -681 750 0
-573 -633 -682 751 0
-573 -633 -683 751 0
-573 -633 -684 751 0
-573 -633 -685 751 0
-573 -633 -686 751 0
-573 -633 -687 751 0
-573 -633 -688 751 0
-573 -633 -689 751 0
-573 -633 -690 751 0
-573 -633 -691 751 0
-573 -633 -692 751 0
-573 -633 -693 751 0
-573 -633 -694 751 0
-573 -633 -695 751 0
-573 -633 -696 751 0
-573 -633 -697 751 0
-573 -633 -698 751 0
-573 -633 -699 751 0
-573 -634 -674 744 0
-573 -634 -675 745 0
-573 -634 -676 746 0
-573 -634 -677 747 0
-573 -634 -678 748 0
-573 -634 -679 749 0
-573 -634 -680 750 0
-573 -634 -681 751 0
-573 -634 -682 751 0
-573 -634 -683 751 0
-573 -634 -684 751 0
-573 -634 -685 751 0
-573 -634 -686 751 0
-573 -634 -687 751 0
-573 -634 -688 751 0
-573 -634 -689 751 0
-573 -634 -690 751 0
-573 -634 -691 751 0
-573 -634 -692 751 0
-573 -634 -693 751 0
-573 -634 -694 751 0
-573 -634 -695 751 0
-573 -634 -696 751 0
-573 -634 -697 751 0
-573 -634 -698 751 0
-573 -634 -699 751 0
-573 -635 -674 745 0
-573 -635 -675 746 0
-573 -635 -676 747 0
-573 -635 -677 748 0
-573 -635 -678 749 0
-573 -635 -679 750 0
-573 -635 -680 751 0
-573 -635 -681 751 0
-573 -635 -682 751 0
-573 -635 -683 751 0
-573 -635 -684 751 0
-573 -635 -685 751 0
-573 -635 -686 751 0
-573 -635 -687 751 0
-573 -635 -688 751 0
-573 -635 -689 751 0
-573 -635 -690 751 0
-573 -635 -691 751 0
-573 -635 -692 751 0
-573 -635 -693 751 0
-573 -635 -694 751 0
-573 -635 -695 751 0
-573 -635 -696 751 0
-573 -635 -697 751 0
-573 -635 -698 751 0
-573 -635 -699 751 0
-573 -636 -674 746 0
-573 -636 -675 747 0
-573 -636 -676 748 0
-573 -636 -677 749 0
-573 -636 -678 750 0
-573 -636 -679 751 0
-573 -636 -680 751 0
-573 -636 -681 751 0
-573 -636 -682 751 0
-573 -636 -683 751 0
-573 -636 -684 751 0
-573 -636 -685 751 0
-573 -636 -686 751 0
-573 -636 -687 751 0
-573 -636 -688 751 0
-573 -636 -689 751 0
-573 -636 -690 751 0
-573 -636 -691 751 0
-573 -636 -692 751 0
-573 -636 -693 751 0
-573 -636 -694 751 0
-573 -636 -695 751 0
-573 -636 -696 751 0
-573 -636 -697 751 0
-573 -636 -698 751 0
-573 -636 -699 751 0
-573 -637 -674 747 0
-573 -637 -675 748 0
-573 -637 -676 749 0
-573 -637 -677 750 0
-573 -637 -678 751 0
-573 -637 -679 751 0
-573 -637 -680 751 0
-573 -637 -681 751 0
-573 -637 -682 751 0
-573 -637 -683 751 0
-573 -637 -684 751 0
-573 -637 -685 751 0
-573 -637 -686 751 0
-573 -637 -687 751 0
-573 -637 -688 751 0
-573 -637 -689 751 0
-573 -637 -690 751 0
-573 -637 -691 751 0
-573 -637 -692 751 0
-573 -637 -693 751 0
-573 -637 -694 751 0
-573 -637 -695 751 0
-573 -637 -696 751 0
-573 -637 -697 751 0
-573 -637 -698 751 0
-573 -637 -699 751 0
-573 -638 -674 748 0
-573 -638 -675 749 0
-573 -638 -676 750 0
-573 -638 -677 751 0
-573 -638 -678 751 0
-573 -638 -679 751 0
-573 -638 -680 751 0
-573 -638 -681 751 0
-573 -638 -682 751 0
-573 -638 -683 751 0
-573 -638 -684 751 0
-573 -638 -685 751 0
-573 -638 -686 751 0
-573 -638 -687 751 0
-573 -638 -688 751 0
-573 -638 -689 751 0
-573 -638 -690 751 0
-573 -638 -691 751 0
-573 -638 -692 751 0
-573 -638 -693 751 0
-573 -638 -694 751 0
-573 -638 -695 751 0
-573 -638 -696 751 0
-573 -638 -697 751 0
-573 -638 -698 751 0
-573 -638 -699 751 0
-573 -639 -674 749 0
-573 -639 -675 750 0
-573 -639 -676 751 0
-573 -639 -677 751 0
-573 -639 -678 751 0
-573 -639 -679 751 0
-573 -639 -680 751 0
-573 -639 -681 751 0
-573 -639 -682 751 0
-573 -639 -683 751 0
-573 -639 -684 751 0
-573 -639 -685 751 0
-573 -639 -686 751 0
-573 -639 -687 751 0
-573 -639 -688 751 0
-573 -639 -689 751 0
-573 -639 -690 751 0
-573 -639 -691 751 0
-573 -639 -692 751 0
-573 -639 -693 751 0
-573 -639 -694 751 0
-573 -639 -695 751 0
-573 -639 -696 751 0
-573 -639 -697 751 0
-573 -639 -698 751 0
-573 -639 -699 751 0
-573 -640 -674 750 0
-573 -640 -675 751 0
-573 -640 -676 751 0
-573 -640 -677 751 0
-573 -640 -678 751 0
-573 -640 -679 751 0
-573 -640 -680 751 0
-573 -640 -681 751 0
-573 -640 -682 751 0
-573 -640 -683 751 0
-573 -640 -684 751 0
-573 -640 -685 751 0
-573 -640 -686 751 0
-573 -640 -687 751 0
-573 -640 -688 751 0
-573 -640 -689 751 0
-573 -640 -690 751 0
-573 -640 -691 751 0
-573 -640 -692 751 0
-573 -640 -693 751 0
-573 -640 -694 751 0
-573 -640 -695 751 0
-573 -640 -696 751 0
-573 -640 -697 751 0
-573 -640 -698 751 0
-573 -640 -699 751 0
-573 -641 -674 751 0
-573 -641 -675 751 0
-573 -641 -676 751 0
-573 -641 -677 751 0
-573 -641 -678 751 0
-573 -641 -679 751 0
-573 -641 -680 751 0
-573 -641 -681 751 0
-573 -641 -682 751 0
-573 -641 -683 751 0
-573 -641 -684 751 0
-573 -641 -685 751 0
-573 -641 -686 751 0
-573 -641 -687 751 0
-573 -641 -688 751 0
-573 -641 -689 751 0
-573 -641 -690 751 0
-573 -641 -691 751 0
-573 -641 -692 751 0
-573 -641 -693 751 0
-573 -641 -694 751 0
-573 -641 -695 751 0
-573 -641 -696 751 0
-573 -641 -697 751 0
-573 -641 -698 751 0
-573 -641 -699 751 0
-573 -642 -674 751 0
-573 -642 -675 751 0
-573 -642 -676 751 0
-573 -642 -677 751 0
-573 -642 -678 751 0
-573 -642 -679 751 0
-573 -642 -680 751 0
-573 -642 -681 751 0
-573 -642 -682 751 0
-573 -642 -683 751 0
-573 -642 -684 751 0
-573 -642 -685 751 0
-573 -642 -686 751 0
-573 -642 -687 751 0
-573 -642 -688 751 0
-573 -642 -689 751 0
-573 -642 -690 751 0
-573 -642 -691 751 0
-573 -642 -692 751 0
-573 -642 -693 751 0
-573 -642 -694 751 0
-573 -642 -695 751 0
-573 -642 -696 751 0
-573 -642 -697 751 0
-573 -642 -698 751 0
-573 -642 -699 751 0
-573 -643 -674 751 0
-573 -643 -675 751 0
-573 -643 -676 751 0
-573 -643 -677 751 0
-573 -643 -678 751 0
-573 -643 -679 751 0
-573 -643 -680 751 0
-573 -643 -681 751 0
-573 -643 -682 751 0
-573 -643 -683 751 0
-573 -643 -684 751 0
-573 -643 -685 751 0
-573 -643 -686 751 0
-573 -643 -687 751 0
-573 -643 -688 751 0
-573 -643 -689 751 0
-573 -643 -690 751 0
-573 -643 -691 751 0
-573 -643 -692 751 0
-573 -643 -693 751 0
-573 -643 -694 751 0
-573 -643 -695 751 0
-573 -643 -696 751 0
-573 -643 -697 751 0
-573 -643 -698 751 0
-573 -643 -699 751 0
-573 -644 -674 751 0
-573 -644 -675 751 0
-573 -644 -676 751 0
-573 -644 -677 751 0
-573 -644 -678 751 0
-573 -644 -679 751 0
-573 -644 -680 751 0
-573 -644 -681 751 0
-573 -644 -682 751 0
-573 -644 -683 751 0
-573 -644 -684 751 0
-573 -644 -685 751 0
-573 -644 -686 751 0
-573 -644 -687 751 0
-573 -644 -688 751 0
-573 -644 -689 751 0
-573 -644 -690 751 0
-573 -644 -691 751 0
-573 -644 -692 751 0
-573 -644 -693 751 0
-573 -644 -694 751 0
-573 -644 -695 751 0
-573 -644 -696 751 0
-573 -644 -697 751 0
-573 -644 -698 751 0
-573 -644 -699 751 0
-573 -645 -674 751 0
-573 -645 -675 751 0
-573 -645 -676 751 0
-573 -645 -677 751 0
-573 -645 -678 751 0
-573 -645 -679 751 0
-573 -645 -680 751 0
-573 -645 -681 751 0
-573 -645 -682 751 0
-573 -645 -683 751 0
-573 -645 -684 751 0
-573 -645 -685 751 0
-573 -645 -686 751 0
-573 -645 -687 751 0
-573 -645 -688 751 0
-573 -645 -689 751 0
-573 -645 -690 751 0
-573 -645 -691 751 0
-573 -645 -692 751 0
-573 -645 -693 751 0
-573 -645 -694 751 0
-573 -645 -695 751 0
-573 -645 -696 751 0
-573 -645 -697 751 0
-573 -645 -698 751 0
-573 -645 -699 751 0
-573 -646 -674 751 0
-573 -646 -675 751 0
-573 -646 -676 751 0
-573 -646 -677 751 0
-573 -646 -678 751 0
-573 -646 -679 751 0
-573 -646 -680 751 0
-573 -646 -681 751 0
-573 -646 -682 751 0
-573 -646 -683 751 0
-573 -646 -684 751 0
-573 -646 -685 751 0
-573 -646 -686 751 0
-573 -646 -687 751 0
-573 -646 -688 751 0
-573 -646 -689 751 0
-573 -646 -690 751 0
-573 -646 -691 751 0
-573 -646 -692 751 0
-573 -646 -693 751 0
-573 -646 -694 751 0
-573 -646 -695 751 0
-573 -646 -696 751 0
-573 -646 -697 751 0
-573 -646 -698 751 0
-573 -646 -699 751 0
-573 -647 -674 751 0
-573 -647 -675 751 0
-573 -647 -676 751 0
-573 -647 -677 751 0
-573 -647 -678 751 0
-573 -647 -679 751 0
-573 -647 -680 751 0
-573 -647 -681 751 0
-573 -647 -682 751 0
-573 -647 -683 751 0
-573 -647 -684 751 0
-573 -647 -685 751 0
-573 -647 -686 751 0
-573 -647 -687 751 0
-573 -647 -688 751 0
-573 -647 -689 751 0
-573 -647 -690 751 0
-573 -647 -691 751 0
-573 -647 -692 751 0
-573 -647 -693 751 0
-573 -647 -694 751 0
-573 -647 -695 751 0
-573 -647 -696 751 0
-573 -647 -697 751 0
-573 -647 -698 751 0
-573 -647 -699 751 0
-574 -622 -674 733 0
-574 -622 -675 734 0
-574 -622 -676 735 0
-574 -622 -677 736 0
-574 -622 -678 737 0
-574 -622 -679 738 0
-574 -622 -680 739 0
-574 -622 -681 740 0
-574 -622 -682 741 0
-574 -622 -683 742 0
-574 -622 -684 743 0
-574 -622 -685 744 0
-574 -622 -686 745 0
-574 -622 -687 746 0
-574 -622 -688 747 0
-574 -622 -689 748 0
-574 -622 -690 749 0
-574 -622 -691 750 0
-574 -622 -692 751 0
-574 -622 -693 751 0
-574 -622 -694 751 0
-574 -622 -695 751 0
-574 -622 -696 751 0
-574 -622 -697 751 0
-574 -622 -698 751 0
-574 -622 -699 751 0
-574 -623 -674 734 0
-574 -623 -675 735 0
-574 -623 -676 736 0
-574 -623 -677 737 0
-574 -623 -678 738 0
-574 -623 -679 739 0
-574 -623 -680 740 0
-574 -623 -681 741 0
-574 -623 -682 742 0
-574 -623 -683 743 0
-574 -623 -684 744 0
-574 -623 -685 745 0
-574 -623 -686 746 0
-574 -623 -687 747 0
-574 -623 -688 748 0
-574 -623 -689 749 0
-574 -623 -690 750 0
-574 -623 -691 751 0
-574 -623 -692 751 0
-574 -623 -693 751 0
-574 -623 -694 751 0
-574 -623 -695 751 0
-574 -623 -696 751 0
-574 -623 -697 751 0
-574 -623 -698 751 0
-574 -623 -699 751 0
-574 -624 -674 735 0
-574 -624 -675 736 0
-574 -624 -676 737 0
-574 -624 -677 738 0
-574 -624 -678 739 0
-574 -624 -679 740 0
-574 -624 -680 741 0
-574 -624 -681 742 0
-574 -624 -682 743 0
-574 -624 -683 744 0
-574 -624 -684 745 0
-574 -624 -685 746 0
-574 -624 -686 747 0
-574 -624 -687 748 0
-574 -624 -688 749 0
-574 -624 -689 750 0
-574 -624 -690 751 0
-574 -624 -691 751 0
-574 -624 -692 751 0
-574 -624 -693 751 0
-574 -624 -694 751 0
-574 -624 -695 751 0
-574 -624 -696 751 0
-574 -624 -697 751 0
-574 -624 -698 751 0
-574 -624 -699 751 0
-574 -625 -674 736 0
-574 -625 -675 737 0
-574 -625 -676 738 0
-574 -625 -677 739 0
-574 -625 -678 740 0
-574 -625 -679 741 0
-574 -625 -680 742 0
-574 -625 -681 743 0
-574 -625 -682 744 0
-574 -625 -683 745 0
-574 -625 -684 746 0
-574 -625 -685 747 0
-574 -625 -686 748 0
-574 -625 -687 749 0
-574 -625 -688 750 0
-574 -625 -689 751 0
-574 -625 -690 751 0
-574 -625 -691 751 0
-574 -625 -692 751 0
-574 -625 -693 751 0
-574 -625 -694 751 0
-574 -625 -695 751 0
-574 -625 -696 751 0
-574 -625 -697 751 0
-574 -625 -698 751 0
-574 -625 -699 751 0
-574 -626 -674 737 0
-574 -626 -675 738 0
-574 -626 -676 739 0
-574 -626 -677 740 0
-574 -626 -678 741 0
-574 -626 -679 742 0
-574 -626 -680 743 0
-574 -626 -681 744 0
-574 -626 -682 745 0
-574 -626 -683 746 0
-574 -626 -684 747 0
-574 -626 -685 748 0
-574 -626 -686 749 0
-574 -626 -687 750 0
-574 -626 -688 751 0
-574 -626 -689 751 0
-574 -626 -690 751 0
-574 -626 -691 751 0
-574 -626 -692 751 0
-574 -626 -693 751 0
-574 -626 -694 751 0
-574 -626 -695 751 0
-574 -626 -696 751 0
-574 -626 -697 751 0
-574 -626 -698 751 0
-574 -626 -699 751 0
-574 -627 -674 738 0
-574 -627 -675 739 0
-574 -627 -676 740 0
-574 -627 -677 741 0
-574 -627 -678 742 0
-574 -627 -679 743 0
-574 -627 -680 744 0
-574 -627 -681 745 0
-574 -627 -682 746 0
-574 -627 -683 747 0
-574 -627 -684 748 0
-574 -627 -685 749 0
-574 -627 -686 750 0
-574 -627 -687 751 0
-574 -627 -688 751 0
-574 -627 -689 751 0
-574 -627 -690 751 0
-574 -627 -691 751 0
-574 -627 -692 751 0
-574 -627 -693 751 0
-574 -627 -694 751 0
-574 -627 -695 751 0
-574 -627 -696 751 0
-574 -627 -697 751 0
-574 -627 -698 751 0
-574 -627 -699 751 0
-574 -628 -674 739 0
-574 -628 -675 740 0
-574 -628 -676 741 0
-574 -628 -677 742 0
-574 -628 -678 743 0
-574 -628 -679 744 0
-574 -628 -680 745 0
-574 -628 -681 746 0
-574 -628 -682 747 0
-574 -628 -683 748 0
-574 -628 -684 749 0
-574 -628 -685 750 0
-574 -628 -686 751 0
-574 -628 -687 751 0
-574 -628 -688 751 0
-574 -628 -689 751 0
-574 -628 -690 751 0
-574 -628 -691 751 0
-574 -628 -692 751 0
-574 -628 -693 751 0
-574 -628 -694 751 0
-574 -628 -695 751 0
-574 -628 -696 751 0
-574 -628 -697 751 0
-574 -628 -698 751 0
-574 -628 -699 751 0
-574 -629 -674 740 0
-574 -629 -675 741 0
-574 -629 -676 742 0
-574 -629 -677 743 0
-574 -629 -678 744 0
-574 -629 -679 745 0
-574 -629 -680 746 0
-574 -629 -681 747 0
-574 -629 -682 748 0
-574 -629 -683 749 0
-574 -629 -684 750 0
-574 -629 -685 751 0
-574 -629 -686 751 0
-574 -629 -687 751 0
-574 -629 -688 751 0
-574 -629 -689 751 0
-574 -629 -690 751 0
-574 -629 -691 751 0
-574 -629 -692 751 0
-574 -629 -693 751 0
-574 -629 -694 751 0
-574 -629 -695 751 0
-574 -629 -696 751 0
-574 -629 -697 751 0
-574 -629 -698 751 0
-574 -629 -699 751 0
-574 -630 -674 741 0
-574 -630 -675 742 0
-574 -630 -676 743 0
-574 -630 -677 744 0
-574 -630 -678 745 0
-574 -630 -679 746 0
-574 -630 -680 747 0
-574 -630 -681 748 0
-574 -630 -682 749 0
-574 -630 -683 750 0
-574 -630 -684 751 0
-574 -630 -685 751 0
-574 -630 -686 751 0
-574 -630 -687 751 0
-574 -630 -688 751 0
-574 -630 -689 751 0
-574 -630 -690 751 0
-574 -630 -691 751 0
-574 -630 -692 751 0
-574 -630 -693 751 0
-574 -630 -694 751 0
-574 -630 -695 751 0
-574 -630 -696 751 0
-574 -630 -697 751 0
-574 -630 -698 751 0
-574 -630 -699 751 0
-574 -631 -674 742 0
-574 -631 -675 743 0
-574 -631 -676 744 0
-574 -631 -677 745 0
-574 -631 -678 746 0
-574 -631 -679 747 0
-574 -631 -680 748 0
-574 -631 -681 749 0
-574 -631 -682 750 0
-574 -631 -683 751 0
-574 -631 -684 751 0
-574 -631 -685 751 0
-574 -631 -686 751 0
-574 -631 -687 751 0
-574 -631 -688 751 0
-574 -631 -689 751 0
-574 -631 -690 751 0
-574 -631 -691 751 0
-574 -631 -692 751 0
-574 -631 -693 751 0
-574 -631 -694 751 0
-574 -631 -695 751 0
-574 -631 -696 751 0
-574 -631 -697 751 0
-574 -631 -698 751 0
-574 -631 -699 751 0
-574 -632 -674 743 0
-574 -632 -675 744 0
-574 -632 -676 745 0
-574 -632 -677 746 0
-574 -632 -678 747 0
-574 -632 -679 748 0
-574 -632 -680 749 0
-574 -632 -681 750 0
-574 -632 -682 751 0
-574 -632 -683 751 0
-574 -632 -684 751 0
-574 -632 -685 751 0
-574 -632 -686 751 0
-574 -632 -687 751 0
-574 -632 -688 751 0
-574 -632 -689 751 0
-574 -632 -690 751 0
-574 -632 -691 751 0
-574 -632 -692 751 0
-574 -632 -693 751 0
-574 -632 -694 751 0
-574 -632 -695 751 0
-574 -632 -696 751 0
-574 -632 -697 751 0
-574 -632 -698 751 0
-574 -632 -699 751 0
-574 -633 -674 744 0
-574 -633 -675 745 0
-574 -633 -676 746 0
-574 -633 -677 747 0
-574 -633 -678 748 0
-574 -633 -679 749 0
-574 -633 -680 750 0
-574 -633 -681 751 0
-574 -633 -682 751 0
-574 -633 -683 751 0
-574 -633 -684 751 0
-574 -633 -685 751 0
-574 -633 -686 751 0
-574 -633 -687 751 0
-574 -633 -688 751 0
-574 -633 -689 751 0
-574 -633 -690 751 0
-574 -633 -691 751 0
-574 -633 -692 751 0
-574 -633 -693 751 0
-574 -633 -694 751 0
-574 -633 -695 751 0
-574 -633 -696 751 0
-574 -633 -697 751 0
-574 -633 -698 751 0
-574 -633 -699 751 0
-574 -634 -674 745 0
-574 -634 -675 746 0
-574 -634 -676 747 0
-574 -634 -677 748 0
-574 -634 -678 749 0
-574 -634 -679 750 0
-574 -634 -680 751 0
-574 -634 -681 751 0
-574 -634 -682 751 0
-574 -634 -683 751 0
-574 -634 -684 751 0
-574 -634 -685 751 0
-574 -634 -686 751 0
-574 -634 -687 751 0
-574 -634 -688 751 0
-574 -634 -689 751 0
-574 -634 -690 751 0
-574 -634 -691 751 0
-574 -634 -692 751 0
-574 -634 -693 751 0
-574 -634 -694 751 0
-574 -634 -695 751 0
-574 -634 -696 751 0
-574 -634 -697 751 0
-574 -634 -698 751 0
-574 -634 -699 751 0
-574 -635 -674 746 0
-574 -635 -675 747 0
-574 -635 -676 748 0
-574 -635 -677 749 0
-574 -635 -678 750 0
-574 -635 -679 751 0
-574 -635 -680 751 0
-574 -635 -681 751 0
-574 -635 -682 751 0
-574 -635 -683 751 0
-574 -635 -684 751 0
-574 -635 -685 751 0
-574 -635 -686 751 0
-574 -635 -687 751 0
-574 -635 -688 751 0
-574 -635 -689 751 0
-574 -635 -690 751 0
-574 -635 -691 751 0
-574 -635 -692 751 0
-574 -635 -693 751 0
-574 -635 -694 751 0
-574 -635 -695 751 0
-574 -635 -696 751 0
-574 -635 -697 751 0
-574 -635 -698 751 0
-574 -635 -699 751 0
-574 -636 -674 747 0
-574 -636 -675 748 0
-574 -636 -676 749 0
-574 -636 -677 750 0
-574 -636 -678 751 0
-574 -636 -679 751 0
-574 -636 -680 751 0
-574 -636 -681 751 0
-574 -636 -682 751 0
-574 -636 -683 751 0
-574 -636 -684 751 0
-574 -636 -685 751 0
-574 -636 -686 751 0
-574 -636 -687 751 0
-574 -636 -688 751 0
-574 -636 -689 751 0
-574 -636 -690 751 0
-574 -636 -691 751 0
-574 -636 -692 751 0
-574 -636 -693 751 0
-574 -636 -694 751 0
-574 -636 -695 751 0
-574 -636 -696 751 0
-574 -636 -697 751 0
-574 -636 -698 751 0
-574 -636 -699 751 0
-574 -637 -674 748 0
-574 -637 -675 749 0
-574 -637 -676 750 0
-574 -637 -677 751 0
-574 -637 -678 751 0
-574 -637 -679 751 0
-574 -637 -680 751 0
-574 -637 -681 751 0
-574 -637 -682 751 0
-574 -637 -683 751 0
-574 -637 -684 751 0
-574 -637 -685 751 0
-574 -637 -686 751 0
-574 -637 -687 751 0
-574 -637 -688 751 0
-574 -637 -689 751 0
-574 -637 -690 751 0
-574 -637 -691 751 0
-574 -637 -692 751 0
-574 -637 -693 751 0
-574 -637 -694 751 0
-574 -637 -695 751 0
-574 -637 -696 751 0
-574 -637 -697 751 0
-574 -637 -698 751 0
-574 -637 -699 751 0
-574 -638 -674 749 0
-574 -638 -675 750 0
-574 -638 -676 751 0
-574 -638 -677 751 0
-574 -638 -678 751 0
-574 -638 -679 751 0
-574 -638 -680 751 0
-574 -638 -681 751 0
-574 -638 -682 751 0
-574 -638 -683 751 0
-574 -638 -684 751 0
-574 -638 -685 751 0
-574 -638 -686 751 0
-574 -638 -687 751 0
-574 -638 -688 751 0
-574 -638 -689 751 0
-574 -638 -690 751 0
-574 -638 -691 751 0
-574 -638 -692 751 0
-574 -638 -693 751 0
-574 -638 -694 751 0
-574 -638 -695 751 0
-574 -638 -696 751 0
-574 -638 -697 751 0
-574 -638 -698 751 0
-574 -638 -699 751 0
-574 -639 -674 750 0
-574 -639 -675 751 0
-574 -639 -676 751 0
-574 -639 -677 751 0
-574 -639 -678 751 0
-574 -639 -679 751 0
-574 -639 -680 751 0
-574 -639 -681 751 0
-574 -639 -682 751 0
-574 -639 -683 751 0
-574 -639 -684 751 0
-574 -639 -685 751 0
-574 -639 -686 751 0
-574 -639 -687 751 0
-574 -639 -688 751 0
-574 -639 -689 751 0
-574 -639 -690 751 0
-574 -639 -691 751 0
-574 -639 -692 751 0
-574 -639 -693 751 0
-574 -639 -694 751 0
-574 -639 -695 751 0
-574 -639 -696 751 0
-574 -639 -697 751 0
-574 -639 -698 751 0
-574 -639 -699 751 0
-574 -640 -674 751 0
-574 -640 -675 751 0
-574 -640 -676 751 0
-574 -640 -677 751 0
-574 -640 -678 751 0
-574 -640 -679 751 0
-574 -640 -680 751 0
-574 -640 -681 751 0
-574 -640 -682 751 0
-574 -640 -683 751 0
-574 -640 -684 751 0
-574 -640 -685 751 0
-574 -640 -686 751 0
-574 -640 -687 751 0
-574 -640 -688 751 0
-574 -640 -689 751 0
-574 -640 -690 751 0
-574 -640 -691 751 0
-574 -640 -692 751 0
-574 -640 -693 751 0
-574 -640 -694 751 0
-574 -640 -695 751 0
-574 -640 -696 751 0
-574 -640 -697 751 0
-574 -640 -698 751 0
-574 -640 -699 751 0
-574 -641 -674 751 0
-574 -641 -675 751 0
-574 -641 -676 751 0
-574 -641 -677 751 0
-574 -641 -678 751 0
-574 -641 -679 751 0
-574 -641 -680 751 0
-574 -641 -681 751 0
-574 -641 -682 751 0
-574 -641 -683 751 0
-574 -641 -684 751 0
-574 -641 -685 751 0
-574 -641 -686 751 0
-574 -641 -687 751 0
-574 -641 -688 751 0
-574 -641 -689 751 0
-574 -641 -690 751 0
-574 -641 -691 751 0
-574 -641 -692 751 0
-574 -641 -693 751 0
-574 -641 -694 751 0
-574 -641 -695 751 0
-574 -641 -696 751 0
-574 -641 -697 751 0
-574 -641 -698 751 0
-574 -641 -699 751 0
-574 -642 -674 751 0
-574 -642 -675 751 0
-574 -642 -676 751 0
-574 -642 -677 751 0
-574 -642 -678 751 0
-574 -642 -679 751 0
-574 -642 -680 751 0
-574 -642 -681 751 0
-574 -642 -682 751 0
-574 -642 -683 751 0
-574 -642 -684 751 0
-574 -642 -685 751 0
-574 -642 -686 751 0
-574 -642 -687 751 0
-574 -642 -688 751 0
-574 -642 -689 751 0
-574 -642 -690 751 0
-574 -642 -691 751 0
-574 -642 -692 751 0
-574 -642 -693 751 0
-574 -642 -694 751 0
-574 -642 -695 751 0
-574 -642 -696 751 0
-574 -642 -697 751 0
-574 -642 -698 751 0
-574 -642 -699 751 0
-574 -643 -674 751 0
-574 -643 -675 751 0
-574 -643 -676 751 0
-574 -643 -677 751 0
-574 -643 -678 751 0
-574 -643 -679 751 0
-574 -643 -680 751 0
-574 -643 -681 751 0
-574 -643 -682 751 0
-574 -643 -683 751 0
-574 -643 -684 751 0
-574 -643 -685 751 0
-574 -643 -686 751 0
-574 -643 -687 751 0
-574 -643 -688 751 0
-574 -643 -689 751 0
-574 -643 -690 751 0
-574 -643 -691 751 0
-574 -643 -692 751 0
-574 -643 -693 751 0
-574 -643 -694 751 0
-574 -643 -695 751 0
-574 -643 -696 751 0
-574 -643 -697 751 0
-574 -643 -698 751 0
-574 -643 -699 751 0
-574 -644 -674 751 0
-574 -644 -675 751 0
-574 -644 -676 751 0
-574 -644 -677 751 0
-574 -644 -678 751 0
-574 -644 -679 751 0
-574 -644 -680 751 0
-574 -644 -681 751 0
-574 -644 -682 751 0
-574 -644 -683 751 0
-574 -644 -684 751 0
-574 -644 -685 751 0
-574 -644 -686 751 0
-574 -644 -687 751 0
-574 -644 -688 751 0
-574 -644 -689 751 0
-574 -644 -690 751 0
-574 -644 -691 751 0
-574 -644 -692 751 0
-574 -644 -693 751 0
-574 -644 -694 751 0
-574 -644 -695 751 0
-574 -644 -696 751 0
-574 -644 -697 751 0
-574 -644 -698 751 0
-574 -644 -699 751 0
-574 -645 -674 751 0
-574 -645 -675 751 0
-574 -645 -676 751 0
-574 -645 -677 751 0
-574 -645 -678 751 0
-574 -645 -679 751 0
-574 -645 -680 751 0
-574 -645 -681 751 0
-574 -645 -682 751 0
-574 -645 -683 751 0
-574 -645 -684 751 0
-574 -645 -685 751 0
-574 -645 -686 751 0
-574 -645 -687 751 0
-574 -645 -688 751 0
-574 -645 -689 751 0
-574 -645 -690 751 0
-574 -645 -691 751 0
-574 -645 -692 751 0
-574 -645 -693 751 0
-574 -645 -694 751 0
-574 -645 -695 751 0
-574 -645 -696 751 0
-574 -645 -697 751 0
-574 -645 -698 751 0
-574 -645 -699 751 0
-574 -646 -674 751 0
-574 -646 -675 751 0
-574 -646 -676 751 0
-574 -646 -677 751 0
-574 -646 -678 751 0
-574 -646 -679 751 0
-574 -646 -680 751 0
-574 -646 -681 751 0
-574 -646 -682 751 0
-574 -646 -683 751 0
-574 -646 -684 751 0
-574 -646 -685 751 0
-574 -646 -686 751 0
-574 -646 -687 751 0
-574 -646 -688 751 0
-574 -646 -689 751 0
-574 -646 -690 751 0
-574 -646 -691 751 0
-574 -646 -692 751 0
-574 -646 -693 751 0
-574 -646 -694 751 0
-574 -646 -695 751 0
-574 -646 -696 751 0
-574 -646 -697 751 0
-574 -646 -698 751 0
-574 -646 -699 751 0
-574 -647 -674 751 0
-574 -647 -675 751 0
-574 -647 -676 751 0
-574 -647 -677 751 0
-574 -647 -678 751 0
-574 -647 -679 751 0
-574 -647 -680 751 0
-574 -647 -681 751 0
-574 -647 -682 751 0
-574 -647 -683 751 0
-574 -647 -684 751 0
-574 -647 -685 751 0
-574 -647 -686 751 0
-574 -647 -687 751 0
-574 -647 -688 751 0
-574 -647 -689 751 0
-574 -647 -690 751 0
-574 -647 -691 751 0
-574 -647 -692 751 0
-574 -647 -693 751 0
-574 -647 -694 751 0
-574 -647 -695 751 0
-574 -647 -696 751 0
-574 -647 -697 751 0
-574 -647 -698 751 0
-574 -647 -699 751 0
-575 -622 -674 734 0
-575 -622 -675 735 0
-575 -622 -676 736 0
-575 -622 -677 737 0
-575 -622 -678 738 0
-575 -622 -679 739 0
-575 -622 -680 740 0
-575 -622 -681 741 0
-575 -622 -682 742 0
-575 -622 -683 743 0
-575 -622 -684 744 0
-575 -622 -685 745 0
-575 -622 -686 746 0
-575 -622 -687 747 0
-575 -622 -688 748 0
-575 -622 -689 749 0
-575 -622 -690 750 0
-575 -622 -691 751 0
-575 -622 -692 751 0
-575 -622 -693 751 0
-575 -622 -694 751 0
-575 -622 -695 751 0
-575 -622 -696 751 0
-575 -622 -697 751 0
-575 -622 -698 751 0
-575 -622 -699 751 0
-575 -623 -674 735 0
-575 -623 -675 736 0
-575 -623 -676 737 0
-575 -623 -677 738 0
-575 -623 -678 739 0
-575 -623 -679 740 0
-575 -623 -680 741 0
-575 -623 -681 742 0
-575 -623 -682 743 0
-575 -623 -683 744 0
-575 -623 -684 745 0
-575 -623 -685 746 0
-575 -623 -686 747 0
-575 -623 -687 748 0
-575 -623 -688 749 0
-575 -623 -689 750 0
-575 -623 -690 751 0
-575 -623 -691 751 0
-575 -623 -692 751 0
-575 -623 -693 751 0
-575 -623 -694 751 0
-575 -623 -695 751 0
-575 -623 -696 751 0
-575 -623 -697 751 0
-575 -623 -698 751 0
-575 -623 -699 751 0
-575 -624 -674 736 0
-575 -624 -675 737 0
-575 -624 -676 738 0
-575 -624 -677 739 0
-575 -624 -678 740 0
-575 -624 -679 741 0
-575 -624 -680 742 0
-575 -624 -681 743 0
-575 -624 -682 744 0
-575 -624 -683 745 0
-575 -624 -684 746 0
-575 -624 -685 747 0
-575 -624 -686 748 0
-575 -624 -687 749 0
-575 -624 -688 750 0
-575 -624 -689 751 0
-575 -624 -690 751 0
-575 -624 -691 751 0
-575 -624 -692 751 0
-575 -624 -693 751 0
-575 -624 -694 751 0
-575 -624 -695 751 0
-575 -624 -696 751 0
-575 -624 -697 751 0
-575 -624 -698 751 0
-575 -624 -699 751 0
-575 -625 -674 737 0
-575 -625 -675 738 0
-575 -625 -676 739 0
-575 -625 -677 740 0
-575 -625 -678 741 0
-575 -625 -679 742 0
-575 -625 -680 743 0
-575 -625 -681 744 0
-575 -625 -682 745 0
-575 -625 -683 746 0
-575 -625 -684 747 0
-575 -625 -685 748 0
-575 -625 -686 749 0
-575 -625 -687 750 0
-575 -625 -688 751 0
-575 -625 -689 751 0
-575 -625 -690 751 0
-575 -625 -691 751 0
-575 -625 -692 751 0
-575 -625 -693 751 0
-575 -625 -694 751 0
-575 -625 -695 751 0
-575 -625 -696 751 0
-575 -625 -697 751 0
-575 -625 -698 751 0
-575 -625 -699 751 0
-575 -626 -674 738 0
-575 -626 -675 739 0
-575 -626 -676 740 0
-575 -626 -677 741 0
-575 -626 -678 742 0
-575 -626 -679 743 0
-575 -626 -680 744 0
-575 -626 -681 745 0
-575 -626 -682 746 0
-575 -626 -683 747 0
-575 -626 -684 748 0
-575 -626 -685 749 0
-575 -626 -686 750 0
-575 -626 -687 751 0
-575 -626 -688 751 0
-575 -626 -689 751 0
-575 -626 -690 751 0
-575 -626 -691 751 0
-575 -626 -692 751 0
-575 -626 -693 751 0
-575 -626 -694 751 0
-575 -626 -695 751 0
-575 -626 -696 751 0
-575 -626 -697 751 0
-575 -626 -698 751 0
-575 -626 -699 751 0
-575 -627 -674 739 0
-575 -627 -675 740 0
-575 -627 -676 741 0
-575 -627 -677 742 0
-575 -627 -678 743 0
-575 -627 -679 744 0
-575 -627 -680 745 0
-575 -627 -681 746 0
-575 -627 -682 747 0
-575 -627 -683 748 0
-575 -627 -684 749 0
-575 -627 -685 750 0
-575 -627 -686 751 0
-575 -627 -687 751 0
-575 -627 -688 751 0
-575 -627 -689 751 0
-575 -627 -690 751 0
-575 -627 -691 751 0
-575 -627 -692 751 0
-575 -627 -693 751 0
-575 -627 -694 751 0
-575 -627 -695 751 0
-575 -627 -696 751 0
-575 -627 -697 751 0
-575 -627 -698 751 0
-575 -627 -699 751 0
-575 -628 -674 740 0
-575 -628 -675 741 0
-575 -628 -676 742 0
-575 -628 -677 743 0
-575 -628 -678 744 0
-575 -628 -679 745 0
-575 -628 -680 746 0
-575 -628 -681 747 0
-575 -628 -682 748 0
-575 -628 -683 749 0
-575 -628 -684 750 0
-575 -628 -685 751 0
-575 -628 -686 751 0
-575 -628 -687 751 0
-575 -628 -688 751 0
-575 -628 -689 751 0
-575 -628 -690 751 0
-575 -628 -691 751 0
-575 -628 -692 751 0
-575 -628 -693 751 0
-575 -628 -694 751 0
-575 -628 -695 751 0
-575 -628 -696 751 0
-575 -628 -697 751 0
-575 -628 -698 751 0
-575 -628 -699 751 0
-575 -629 -674 741 0
-575 -629 -675 742 0
-575 -629 -676 743 0
-575 -629 -677 744 0
-575 -629 -678 745 0
-575 -629 -679 746 0
-575 -629 -680 747 0
-575 -629 -681 748 0
-575 -629 -682 749 0
-575 -629 -683 750 0
-575 -629 -684 751 0
-575 -629 -685 751 0
-575 -629 -686 751 0
-575 -629 -687 751 0
-575 -629 -688 751 0
-575 -629 -689 751 0
-575 -629 -690 751 0
-575 -629 -691 751 0
-575 -629 -692 751 0
-575 -629 -693 751 0
-575 -629 -694 751 0
-575 -629 -695 751 0
-575 -629 -696 751 0
-575 -629 -697 751 0
-575 -629 -698 751 0
-575 -629 -699 751 0
-575 -630 -674 742 0
-575 -630 -675 743 0
-575 -630 -676 744 0
-575 -630 -677 745 0
-575 -630 -678 746 0
-575 -630 -679 747 0
-575 -630 -680 748 0
-575 -630 -681 749 0
-575 -630 -682 750 0
-575 -630 -683 751 0
-575 -630 -684 751 0
-575 -630 -685 751 0
-575 -630 -686 751 0
-575 -630 -687 751 0
-575 -630 -688 751 0
-575 -630 -689 751 0
-575 -630 -690 751 0
-575 -630 -691 751 0
-575 -630 -692 751 0
-575 -630 -693 751 0
-575 -630 -694 751 0
-575 -630 -695 751 0
-575 -630 -696 751 0
-575 -630 -697 751 0
-575 -630 -698 751 0
-575 -630 -699 751 0
-575 -631 -674 743 0
-575 -631 -675 744 0
-575 -631 -676 745 0
-575 -631 -677 746 0
-575 -631 -678 747 0
-575 -631 -679 748 0
-575 -631 -680 749 0
-575 -631 -681 750 0
-575 -631 -682 751 0
-575 -631 -683 751 0
-575 -631 -684 751 0
-575 -631 -685 751 0
-575 -631 -686 751 0
-575 -631 -687 751 0
-575 -631 -688 751 0
-575 -631 -689 751 0
-575 -631 -690 751 0
-575 -631 -691 751 0
-575 -631 -692 751 0
-575 -631 -693 751 0
-575 -631 -694 751 0
-575 -631 -695 751 0
-575 -631 -696 751 0
-575 -631 -697 751 0
-575 -631 -698 751 0
-575 -631 -699 751 0
-575 -632 -674 744 0
-575 -632 -675 745 0
-575 -632 -676 746 0
-575 -632 -677 747 0
-575 -632 -678 748 0
-575 -632 -679 749 0
-575 -632 -680 750 0
-575 -632 -681 751 0
-575 -632 -682 751 0
-575 -632 -683 751 0
-575 -632 -684 751 0
-575 -632 -685 751 0
-575 -632 -686 751 0
-575 -632 -687 751 0
-575 -632 -688 751 0
-575 -632 -689 751 0
-575 -632 -690 751 0
-575 -632 -691 751 0
-575 -632 -692 751 0
-575 -632 -693 751 0
-575 -632 -694 751 0
-575 -632 -695 751 0
-575 -632 -696 751 0
-575 -632 -697 751 0
-575 -632 -698 751 0
-575 -632 -699 751 0
-575 -633 -674 745 0
-575 -633 -675 746 0
-575 -633 -676 747 0
-575 -633 -677 748 0
-575 -633 -678 749 0
-575 -633 -679 750 0
-575 -633 -680 751 0
-575 -633 -681 751 0
-575 -633 -682 751 0
-575 -633 -683 751 0
-575 -633 -684 751 0
-575 -633 -685 751 0
-575 -633 -686 751 0
-575 -633 -687 751 0
-575 -633 -688 751 0
-575 -633 -689 751 0
-575 -633 -690 751 0
-575 -633 -691 751 0
-575 -633 -692 751 0
-575 -633 -693 751 0
-575 -633 -694 751 0
-575 -633 -695 751 0
-575 -633 -696 751 0
-575 -633 -697 751 0
-575 -633 -698 751 0
-575 -633 -699 751 0
-575 -634 -674 746 0
-575 -634 -675 747 0
-575 -634 -676 748 0
-575 -634 -677 749 0
-575 -634 -678 750 0
-575 -634 -679 751 0
-575 -634 -680 751 0
-575 -634 -681 751 0
-575 -634 -682 751 0
-575 -634 -683 751 0
-575 -634 -684 751 0
-575 -634 -685 751 0
-575 -634 -686 751 0
-575 -634 -687 751 0
-575 -634 -688 751 0
-575 -634 -689 751 0
-575 -634 -690 751 0
-575 -634 -691 751 0
-575 -634 -692 751 0
-575 -634 -693 751 0
-575 -634 -694 751 0
-575 -634 -695 751 0
-575 -634 -696 751 0
-575 -634 -697 751 0
-575 -634 -698 751 0
-575 -634 -699 751 0
-575 -635 -674 747 0
-575 -635 -675 748 0
-575 -635 -676 749 0
-575 -635 -677 750 0
-575 -635 -678 751 0
-575 -635 -679 751 0
-575 -635 -680 751 0
-575 -635 -681 751 0
-575 -635 -682 751 0
-575 -635 -683 751 0
-575 -635 -684 751 0
-575 -635 -685 751 0
-575 -635 -686 751 0
-575 -635 -687 751 0
-575 -635 -688 751 0
-575 -635 -689 751 0
-575 -635 -690 751 0
-575 -635 -691 751 0
-575 -635 -692 751 0
-575 -635 -693 751 0
-575 -635 -694 751 0
-575 -635 -695 751 0
-575 -635 -696 751 0
-575 -635 -697 751 0
-575 -635 -698 751 0
-575 -635 -699 751 0
-575 -636 -674 748 0
-575 -636 -675 749 0
-575 -636 -676 750 0
-575 -636 -677 751 0
-575 -636 -678 751 0
-575 -636 -679 751 0
-575 -636 -680 751 0
-575 -636 -681 751 0
-575 -636 -682 751 0
-575 -636 -683 751 0
-575 -636 -684 751 0
-575 -636 -685 751 0
-575 -636 -686 751 0
-575 -636 -687 751 0
-575 -636 -688 751 0
-575 -636 -689 751 0
-575 -636 -690 751 0
-575 -636 -691 751 0
-575 -636 -692 751 0
-575 -636 -693 751 0
-575 -636 -694 751 0
-575 -636 -695 751 0
-575 -636 -696 751 0
-575 -636 -697 751 0
-575 -636 -698 751 0
-575 -636 -699 751 0
-575 -637 -674 749 0
-575 -637 -675 750 0
-575 -637 -676 751 0
-575 -637 -677 751 0
-575 -637 -678 751 0
-575 -637 -679 751 0
-575 -637 -680 751 0
-575 -637 -681 751 0
-575 -637 -682 751 0
-575 -637 -683 751 0
-575 -637 -684 751 0
-575 -637 -685 751 0
-575 -637 -686 751 0
-575 -637 -687 751 0
-575 -637 -688 751 0
-575 -637 -689 751 0
-575 -637 -690 751 0
-575 -637 -691 751 0
-575 -637 -692 751 0
-575 -637 -693 751 0
-575 -637 -694 751 0
-575 -637 -695 751 0
-575 -637 -696 751 0
-575 -637 -697 751 0
-575 -637 -698 751 0
-575 -637 -699 751 0
-575 -638 -674 750 0
-575 -638 -675 751 0
-575 -638 -676 751 0
-575 -638 -677 751 0
-575 -638 -678 751 0
-575 -638 -679 751 0
-575 -638 -680 751 0
-575 -638 -681 751 0
-575 -638 -682 751 0
-575 -638 -683 751 0
-575 -638 -684 751 0
-575 -638 -685 751 0
-575 -638 -686 751 0
-575 -638 -687 751 0
-575 -638 -688 751 0
-575 -638 -689 751 0
-575 -638 -690 751 0
-575 -638 -691 751 0
-575 -638 -692 751 0
-575 -638 -693 751 0
-575 -638 -694 751 0
-575 -638 -695 751 0
-575 -638 -696 751 0
-575 -638 -697 751 0
-575 -638 -698 751 0
-575 -638 -699 751 0
-575 -639 -674 751 0
-575 -639 -675 751 0
-575 -639 -676 751 0
-575 -639 -677 751 0
-575 -639 -678 751 0
-575 -639 -679 751 0
-575 -639 -680 751 0
-575 -639 -681 751 0
-575 -639 -682 751 0
-575 -639 -683 751 0
-575 -639 -684 751 0
-575 -639 -685 751 0
-575 -639 -686 751 0
-575 -639 -687 751 0
-575 -639 -688 751 0
-575 -639 -689 751 0
-575 -639 -690 751 0
-575 -639 -691 751 0
-575 -639 -692 751 0
-575 -639 -693 751 0
-575 -639 -694 751 0
-575 -639 -695 751 0
-575 -639 -696 751 0
-575 -639 -697 751 0
-575 -639 -698 751 0
-575 -639 -699 751 0
-575 -640 -674 751 0
-575 -640 -675 751 0
-575 -640 -676 751 0
-575 -640 -677 751 0
-575 -640 -678 751 0
-575 -640 -679 751 0
-575 -640 -680 751 0
-575 -640 -681 751 0
-575 -640 -682 751 0
-575 -640 -683 751 0
-575 -640 -684 751 0
-575 -640 -685 751 0
-575 -640 -686 751 0
-575 -640 -687 751 0
-575 -640 -688 751 0
-575 -640 -689 751 0
-575 -640 -690 751 0
-575 -640 -691 751 0
-575 -640 -692 751 0
-575 -640 -693 751 0
-575 -640 -694 751 0
-575 -640 -695 751 0
-575 -640 -696 751 0
-575 -640 -697 751 0
-575 -640 -698 751 0
-575 -640 -699 751 0
-575 -641 -674 751 0
-575 -641 -675 751 0
-575 -641 -676 751 0
-575 -641 -677 751 0
-575 -641 -678 751 0
-575 -641 -679 751 0
-575 -641 -680 751 0
-575 -641 -681 751 0
-575 -641 -682 751 0
-575 -641 -683 751 0
-575 -641 -684 751 0
-575 -641 -685 751 0
-575 -641 -686 751 0
-575 -641 -687 751 0
-575 -641 -688 751 0
-575 -641 -689 751 0
-575 -641 -690 751 0
-575 -641 -691 751 0
-575 -641 -692 751 0
-575 -641 -693 751 0
-575 -641 -694 751 0
-575 -641 -695 751 0
-575 -641 -696 751 0
-575 -641 -697 751 0
-575 -641 -698 751 0
-575 -641 -699 751 0
-575 -642 -674 751 0
-575 -642 -675 751 0
-575 -642 -676 751 0
-575 -642 -677 751 0
-575 -642 -678 751 0
-575 -642 -679 751 0
-575 -642 -680 751 0
-575 -642 -681 751 0
-575 -642 -682 751 0
-575 -642 -683 751 0
-575 -642 -684 751 0
-575 -642 -685 751 0
-575 -642 -686 751 0
-575 -642 -687 751 0
-575 -642 -688 751 0
-575 -642 -689 751 0
-575 -642 -690 751 0
-575 -642 -691 751 0
-575 -642 -692 751 0
-575 -642 -693 751 0
-575 -642 -694 751 0
-575 -642 -695 751 0
-575 -642 -696 751 0
-575 -642 -697 751 0
-575 -642 -698 751 0
-575 -642 -699 751 0
-575 -643 -674 751 0
-575 -643 -675 751 0
-575 -643 -676 751 0
-575 -643 -677 751 0
-575 -643 -678 751 0
-575 -643 -679 751 0
-575 -643 -680 751 0
-575 -643 -681 751 0
-575 -643 -682 751 0
-575 -643 -683 751 0
-575 -643 -684 751 0
-575 -643 -685 751 0
-575 -643 -686 751 0
-575 -643 -687 751 0
-575 -643 -688 751 0
-575 -643 -689 751 0
-575 -643 -690 751 0
-575 -643 -691 751 0
-575 -643 -692 751 0
-575 -643 -693 751 0
-575 -643 -694 751 0
-575 -643 -695 751 0
-575 -643 -696 751 0
-575 -643 -697 751 0
-575 -643 -698 751 0
-575 -643 -699 751 0
-575 -644 -674 751 0
-575 -644 -675 751 0
-575 -644 -676 751 0
-575 -644 -677 751 0
-575 -644 -678 751 0
-575 -644 -679 751 0
-575 -644 -680 751 0
-575 -644 -681 751 0
-575 -644 -682 751 0
-575 -644 -683 751 0
-575 -644 -684 751 0
-575 -644 -685 751 0
-575 -644 -686 751 0
-575 -644 -687 751 0
-575 -644 -688 751 0
-575 -644 -689 751 0
-575 -644 -690 751 0
-575 -644 -691 751 0
-575 -644 -692 751 0
-575 -644 -693 751 0
-575 -644 -694 751 0
-575 -644 -695 751 0
-575 -644 -696 751 0
-575 -644 -697 751 0
-575 -644 -698 751 0
-575 -644 -699 751 0
-575 -645 -674 751 0
-575 -645 -675 751 0
-575 -645 -676 751 0
-575 -645 -677 751 0
-575 -645 -678 751 0
-575 -645 -679 751 0
-575 -645 -680 751 0
-575 -645 -681 751 0
-575 -645 -682 751 0
-575 -645 -683 751 0
-575 -645 -684 751 0
-575 -645 -685 751 0
-575 -645 -686 751 0
-575 -645 -687 751 0
-575 -645 -688 751 0
-575 -645 -689 751 0
-575 -645 -690 751 0
-575 -645 -691 751 0
-575 -645 -692 751 0
-575 -645 -693 751 0
-575 -645 -694 751 0
-575 -645 -695 751 0
-575 -645 -696 751 0
-575 -645 -697 751 0
-575 -645 -698 751 0
-575 -645 -699 751 0
-575 -646 -674 751 0
-575 -646 -675 751 0
-575 -646 -676 751 0
-575 -646 -677 751 0
-575 -646 -678 751 0
-575 -646 -679 751 0
-575 -646 -680 751 0
-575 -646 -681 751 0
-575 -646 -682 751 0
-575 -646 -683 751 0
-575 -646 -684 751 0
-575 -646 -685 751 0
-575 -646 -686 751 0
-575 -646 -687 751 0
-575 -646 -688 751 0
-575 -646 -689 751 0
-575 -646 -690 751 0
-575 -646 -691 751 0
-575 -646 -692 751 0
-575 -646 -693 751 0
-575 -646 -694 751 0
-575 -646 -695 751 0
-575 -646 -696 751 0
-575 -646 -697 751 0
-575 -646 -698 751 0
-575 -646 -699 751 0
-575 -647 -674 751 0
-575 -647 -675 751 0
-575 -647 -676 751 0
-575 -647 -677 751 0
-575 -647 -678 751 0
-575 -647 -679 751 0
-575 -647 -680 751 0
-575 -647 -681 751 0
-575 -647 -682 751 0
-575 -647 -683 751 0
-575 -647 -684 751 0
-575 -647 -685 751 0
-575 -647 -686 751 0
-575 -647 -687 751 0
-575 -647 -688 751 0
-575 -647 -689 751 0
-575 -647 -690 751 0
-575 -647 -691 751 0
-575 -647 -692 751 0
-575 -647 -693 751 0
-575 -647 -694 751 0
-575 -647 -695 751 0
-575 -647 -696 751 0
-575 -647 -697 751 0
-575 -647 -698 751 0
-575 -647 -699 751 0
-576 -622 -674 735 0
-576 -622 -675 736 0
-576 -622 -676 737 0
-576 -622 -677 738 0
-576 -622 -678 739 0
-576 -622 -679 740 0
-576 -622 -680 741 0
-576 -622 -681 742 0
-576 -622 -682 743 0
-576 -622 -683 744 0
-576 -622 -684 745 0
-576 -622 -685 746 0
-576 -622 -686 747 0
-576 -622 -687 748 0
-576 -622 -688 749 0
-576 -622 -689 750 0
-576 -622 -690 751 0
-576 -622 -691 751 0
-576 -622 -692 751 0
-576 -622 -693 751 0
-576 -622 -694 751 0
-576 -622 -695 751 0
-576 -622 -696 751 0
-576 -622 -697 751 0
-576 -622 -698 751 0
-576 -622 -699 751 0
-576 -623 -674 736 0
-576 -623 -675 737 0
-576 -623 -676 738 0
-576 -623 -677 739 0
-576 -623 -678 740 0
-576 -623 -679 741 0
-576 -623 -680 742 0
-576 -623 -681 743 0
-576 -623 -682 744 0
-576 -623 -683 745 0
-576 -623 -684 746 0
-576 -623 -685 747 0
-576 -623 -686 748 0
-576 -623 -687 749 0
-576 -623 -688 750 0
-576 -623 -689 751 0
-576 -623 -690 751 0
-576 -623 -691 751 0
-576 -623 -692 751 0
-576 -623 -693 751 0
-576 -623 -694 751 0
-576 -623 -695 751 0
-576 -623 -696 751 0
-576 -623 -697 751 0
-576 -623 -698 751 0
-576 -623 -699 751 0
-576 -624 -674 737 0
-576 -624 -675 738 0
-576 -624 -676 739 0
-576 -624 -677 740 0
-576 -624 -678 741 0
-576 -624 -679 742 0
-576 -624 -680 743 0
-576 -624 -681 744 0
-576 -624 -682 745 0
-576 -624 -683 746 0
-576 -624 -684 747 0
-576 -624 -685 748 0
-576 -624 -686 749 0
-576 -624 -687 750 0
-576 -624 -688 751 0
-576 -624 -689 751 0
-576 -624 -690 751 0
-576 -624 -691 751 0
-576 -624 -692 751 0
-576 -624 -693 751 0
-576 -624 -694 751 0
-576 -624 -695 751 0
-576 -624 -696 751 0
-576 -624 -697 751 0
-576 -624 -698 751 0
-576 -624 -699 751 0
-576 -625 -674 738 0
-576 -625 -675 739 0
-576 -625 -676 740 0
-576 -625 -677 741 0
-576 -625 -678 742 0
-576 -625 -679 743 0
-576 -625 -680 744 0
-576 -625 -681 745 0
-576 -625 -682 746 0
-576 -625 -683 747 0
-576 -625 -684 748 0
-576 -625 -685 749 0
-576 -625 -686 750 0
-576 -625 -687 751 0
-576 -625 -688 751 0
-576 -625 -689 751 0
-576 -625 -690 751 0
-576 -625 -691 751 0
-576 -625 -692 751 0
-576 -625 -693 751 0
-576 -625 -694 751 0
-576 -625 -695 751 0
-576 -625 -696 751 0
-576 -625 -697 751 0
-576 -625 -698 751 0
-576 -625 -699 751 0
-576 -626 -674 739 0
-576 -626 -675 740 0
-576 -626 -676 741 0
-576 -626 -677 742 0
-576 -626 -678 743 0
-576 -626 -679 744 0
-576 -626 -680 745 0
-576 -626 -681 746 0
-576 -626 -682 747 0
-576 -626 -683 748 0
-576 -626 -684 749 0
-576 -626 -685 750 0
-576 -626 -686 751 0
-576 -626 -687 751 0
-576 -626 -688 751 0
-576 -626 -689 751 0
-576 -626 -690 751 0
-576 -626 -691 751 0
-576 -626 -692 751 0
-576 -626 -693 751 0
-576 -626 -694 751 0
-576 -626 -695 751 0
-576 -626 -696 751 0
-576 -626 -697 751 0
-576 -626 -698 751 0
-576 -626 -699 751 0
-576 -627 -674 740 0
-576 -627 -675 741 0
-576 -627 -676 742 0
-576 -627 -677 743 0
-576 -627 -678 744 0
-576 -627 -679 745 0
-576 -627 -680 746 0
-576 -627 -681 747 0
-576 -627 -682 748 0
-576 -627 -683 749 0
-576 -627 -684 750 0
-576 -627 -685 751 0
-576 -627 -686 751 0
-576 -627 -687 751 0
-576 -627 -688 751 0
-576 -627 -689 751 0
-576 -627 -690 751 0
-576 -627 -691 751 0
-576 -627 -692 751 0
-576 -627 -693 751 0
-576 -627 -694 751 0
-576 -627 -695 751 0
-576 -627 -696 751 0
-576 -627 -697 751 0
-576 -627 -698 751 0
-576 -627 -699 751 0
-576 -628 -674 741 0
-576 -628 -675 742 0
-576 -628 -676 743 0
-576 -628 -677 744 0
-576 -628 -678 745 0
-576 -628 -679 746 0
-576 -628 -680 747 0
-576 -628 -681 748 0
-576 -628 -682 749 0
-576 -628 -683 750 0
-576 -628 -684 751 0
-576 -628 -685 751 0
-576 -628 -686 751 0
-576 -628 -687 751 0
-576 -628 -688 751 0
-576 -628 -689 751 0
-576 -628 -690 751 0
-576 -628 -691 751 0
-576 -628 -692 751 0
-576 -628 -693 751 0
-576 -628 -694 751 0
-576 -628 -695 751 0
-576 -628 -696 751 0
-576 -628 -697 751 0
-576 -628 -698 751 0
-576 -628 -699 751 0
-576 -629 -674 742 0
-576 -629 -675 743 0
-576 -629 -676 744 0
-576 -629 -677 745 0
-576 -629 -678 746 0
-576 -629 -679 747 0
-576 -629 -680 748 0
-576 -629 -681 749 0
-576 -629 -682 750 0
-576 -629 -683 751 0
-576 -629 -684 751 0
-576 -629 -685 751 0
-576 -629 -686 751 0
-576 -629 -687 751 0
-576 -629 -688 751 0
-576 -629 -689 751 0
-576 -629 -690 751 0
-576 -629 -691 751 0
-576 -629 -692 751 0
-576 -629 -693 751 0
-576 -629 -694 751 0
-576 -629 -695 751 0
-576 -629 -696 751 0
-576 -629 -697 751 0
-576 -629 -698 751 0
-576 -629 -699 751 0
-576 -630 -674 743 0
-576 -630 -675 744 0
-576 -630 -676 745 0
-576 -630 -677 746 0
-576 -630 -678 747 0
-576 -630 -679 748 0
-576 -630 -680 749 0
-576 -630 -681 750 0
-576 -630 -682 751 0
-576 -630 -683 751 0
-576 -630 -684 751 0
-576 -630 -685 751 0
-576 -630 -686 751 0
-576 -630 -687 751 0
-576 -630 -688 751 0
-576 -630 -689 751 0
-576 -630 -690 751 0
-576 -630 -691 751 0
-576 -630 -692 751 0
-576 -630 -693 751 0
-576 -630 -694 751 0
-576 -630 -695 751 0
-576 -630 -696 751 0
-576 -630 -697 751 0
-576 -630 -698 751 0
-576 -630 -699 751 0
-576 -631 -674 744 0
-576 -631 -675 745 0
-576 -631 -676 746 0
-576 -631 -677 747 0
-576 -631 -678 748 0
-576 -631 -679 749 0
-576 -631 -680 750 0
-576 -631 -681 751 0
-576 -631 -682 751 0
-576 -631 -683 751 0
-576 -631 -684 751 0
-576 -631 -685 751 0
-576 -631 -686 751 0
-576 -631 -687 751 0
-576 -631 -688 751 0
-576 -631 -689 751 0
-576 -631 -690 751 0
-576 -631 -691 751 0
-576 -631 -692 751 0
-576 -631 -693 751 0
-576 -631 -694 751 0
-576 -631 -695 751 0
-576 -631 -696 751 0
-576 -631 -697 751 0
-576 -631 -698 751 0
-576 -631 -699 751 0
-576 -632 -674 745 0
-576 -632 -675 746 0
-576 -632 -676 747 0
-576 -632 -677 748 0
-576 -632 -678 749 0
-576 -632 -679 750 0
-576 -632 -680 751 0
-576 -632 -681 751 0
-576 -632 -682 751 0
-576 -632 -683 751 0
-576 -632 -684 751 0
-576 -632 -685 751 0
-576 -632 -686 751 0
-576 -632 -687 751 0
-576 -632 -688 751 0
-576 -632 -689 751 0
-576 -632 -690 751 0
-576 -632 -691 751 0
-576 -632 -692 751 0
-576 -632 -693 751 0
-576 -632 -694 751 0
-576 -632 -695 751 0
-576 -632 -696 751 0
-576 -632 -697 751 0
-576 -632 -698 751 0
-576 -632 -699 751 0
-576 -633 -674 746 0
-576 -633 -675 747 0
-576 -633 -676 748 0
-576 -633 -677 749 0
-576 -633 -678 750 0
-576 -633 -679 751 0
-576 -633 -680 751 0
-576 -633 -681 751 0
-576 -633 -682 751 0
-576 -633 -683 751 0
-576 -633 -684 751 0
-576 -633 -685 751 0
-576 -633 -686 751 0
-576 -633 -687 751 0
-576 -633 -688 751 0
-576 -633 -689 751 0
-576 -633 -690 751 0
-576 -633 -691 751 0
-576 -633 -692 751 0
-576 -633 -693 751 0
-576 -633 -694 751 0
-576 -633 -695 751 0
-576 -633 -696 751 0
-576 -633 -697 751 0
-576 -633 -698 751 0
-576 -633 -699 751 0
-576 -634 -674 747 0
-576 -634 -675 748 0
-576 -634 -676 749 0
-576 -634 -677 750 0
-576 -634 -678 751 0
-576 -634 -679 751 0
-576 -634 -680 751 0
-576 -634 -681 751 0
-576 -634 -682 751 0
-576 -634 -683 751 0
-576 -634 -684 751 0
-576 -634 -685 751 0
-576 -634 -686 751 0
-576 -634 -687 751 0
-576 -634 -688 751 0
-576 -634 -689 751 0
-576 -634 -690 751 0
-576 -634 -691 751 0
-576 -634 -692 751 0
-576 -634 -693 751 0
-576 -634 -694 751 0
-576 -634 -695 751 0
-576 -634 -696 751 0
-576 -634 -697 751 0
-576 -634 -698 751 0
-576 -634 -699 751 0
-576 -635 -674 748 0
-576 -635 -675 749 0
-576 -635 -676 750 0
-576 -635 -677 751 0
-576 -635 -678 751 0
-576 -635 -679 751 0
-576 -635 -680 751 0
-576 -635 -681 751 0
-576 -635 -682 751 0
-576 -635 -683 751 0
-576 -635 -684 751 0
-576 -635 -685 751 0
-576 -635 -686 751 0
-576 -635 -687 751 0
-576 -635 -688 751 0
-576 -635 -689 751 0
-576 -635 -690 751 0
-576 -635 -691 751 0
-576 -635 -692 751 0
-576 -635 -693 751 0
-576 -635 -694 751 0
-576 -635 -695 751 0
-576 -635 -696 751 0
-576 -635 -697 751 0
-576 -635 -698 751 0
-576 -635 -699 751 0
-576 -636 -674 749 0
-576 -636 -675 750 0
-576 -636 -676 751 0
-576 -636 -677 751 0
-576 -636 -678 751 0
-576 -636 -679 751 0
-576 -636 -680 751 0
-576 -636 -681 751 0
-576 -636 -682 751 0
-576 -636 -683 751 0
-576 -636 -684 751 0
-576 -636 -685 751 0
-576 -636 -686 751 0
-576 -636 -687 751 0
-576 -636 -688 751 0
-576 -636 -689 751 0
-576 -636 -690 751 0
-576 -636 -691 751 0
-576 -636 -692 751 0
-576 -636 -693 751 0
-576 -636 -694 751 0
-576 -636 -695 751 0
-576 -636 -696 751 0
-576 -636 -697 751 0
-576 -636 -698 751 0
-576 -636 -699 751 0
-576 -637 -674 750 0
-576 -637 -675 751 0
-576 -637 -676 751 0
-576 -637 -677 751 0
-576 -637 -678 751 0
-576 -637 -679 751 0
-576 -637 -680 751 0
-576 -637 -681 751 0
-576 -637 -682 751 0
-576 -637 -683 751 0
-576 -637 -684 751 0
-576 -637 -685 751 0
-576 -637 -686 751 0
-576 -637 -687 751 0
-576 -637 -688 751 0
-576 -637 -689 751 0
-576 -637 -690 751 0
-576 -637 -691 751 0
-576 -637 -692 751 0
-576 -637 -693 751 0
-576 -637 -694 751 0
-576 -637 -695 751 0
-576 -637 -696 751 0
-576 -637 -697 751 0
-576 -637 -698 751 0
-576 -637 -699 751 0
-576 -638 -674 751 0
-576 -638 -675 751 0
-576 -638 -676 751 0
-576 -638 -677 751 0
-576 -638 -678 751 0
-576 -638 -679 751 0
-576 -638 -680 751 0
-576 -638 -681 751 0
-576 -638 -682 751 0
-576 -638 -683 751 0
-576 -638 -684 751 0
-576 -638 -685 751 0
-576 -638 -686 751 0
-576 -638 -687 751 0
-576 -638 -688 751 0
-576 -638 -689 751 0
-576 -638 -690 751 0
-576 -638 -691 751 0
-576 -638 -692 751 0
-576 -638 -693 751 0
-576 -638 -694 751 0
-576 -638 -695 751 0
-576 -638 -696 751 0
-576 -638 -697 751 0
-576 -638 -698 751 0
-576 -638 -699 751 0
-576 -639 -674 751 0
-576 -639 -675 751 0
-576 -639 -676 751 0
-576 -639 -677 751 0
-576 -639 -678 751 0
-576 -639 -679 751 0
-576 -639 -680 751 0
-576 -639 -681 751 0
-576 -639 -682 751 0
-576 -639 -683 751 0
-576 -639 -684 751 0
-576 -639 -685 751 0
-576 -639 -686 751 0
-576 -639 -687 751 0
-576 -639 -688 751 0
-576 -639 -689 751 0
-576 -639 -690 751 0
-576 -639 -691 751 0
-576 -639 -692 751 0
-576 -639 -693 751 0
-576 -639 -694 751 0
-576 -639 -695 751 0
-576 -639 -696 751 0
-576 -639 -697 751 0
-576 -639 -698 751 0
-576 -639 -699 751 0
-576 -640 -674 751 0
-576 -640 -675 751 0
-576 -640 -676 751 0
-576 -640 -677 751 0
-576 -640 -678 751 0
-576 -640 -679 751 0
-576 -640 -680 751 0
-576 -640 -681 751 0
-576 -640 -682 751 0
-576 -640 -683 751 0
-576 -640 -684 751 0
-576 -640 -685 751 0
-576 -640 -686 751 0
-576 -640 -687 751 0
-576 -640 -688 751 0
-576 -640 -689 751 0
-576 -640 -690 751 0
-576 -640 -691 751 0
-576 -640 -692 751 0
-576 -640 -693 751 0
-576 -640 -694 751 0
-576 -640 -695 751 0
-576 -640 -696 751 0
-576 -640 -697 751 0
-576 -640 -698 751 0
-576 -640 -699 751 0
-576 -641 -674 751 0
-576 -641 -675 751 0
-576 -641 -676 751 0
-576 -641 -677 751 0
-576 -641 -678 751 0
-576 -641 -679 751 0
-576 -641 -680 751 0
-576 -641 -681 751 0
-576 -641 -682 751 0
-576 -641 -683 751 0
-576 -641 -684 751 0
-576 -641 -685 751 0
-576 -641 -686 751 0
-576 -641 -687 751 0
-576 -641 -688 751 0
-576 -641 -689 751 0
-576 -641 -690 751 0
-576 -641 -691 751 0
-576 -641 -692 751 0
-576 -641 -693 751 0
-576 -641 -694 751 0
-576 -641 -695 751 0
-576 -641 -696 751 0
-576 -641 -697 751 0
-576 -641 -698 751 0
-576 -641 -699 751 0
-576 -642 -674 751 0
-576 -642 -675 751 0
-576 -642 -676 751 0
-576 -642 -677 751 0
-576 -642 -678 751 0
-576 -642 -679 751 0
-576 -642 -680 751 0
-576 -642 -681 751 0
-576 -642 -682 751 0
-576 -642 -683 751 0
-576 -642 -684 751 0
-576 -642 -685 751 0
-576 -642 -686 751 0
-576 -642 -687 751 0
-576 -642 -688 751 0
-576 -642 -689 751 0
-576 -642 -690 751 0
-576 -642 -691 751 0
-576 -642 -692 751 0
-576 -642 -693 751 0
-576 -642 -694 751 0
-576 -642 -695 751 0
-576 -642 -696 751 0
-576 -642 -697 751 0
-576 -642 -698 751 0
-576 -642 -699 751 0
-576 -643 -674 751 0
-576 -643 -675 751 0
-576 -643 -676 751 0
-576 -643 -677 751 0
-576 -643 -678 751 0
-576 -643 -679 751 0
-576 -643 -680 751 0
-576 -643 -681 751 0
-576 -643 -682 751 0
-576 -643 -683 751 0
-576 -643 -684 751 0
-576 -643 -685 751 0
-576 -643 -686 751 0
-576 -643 -687 751 0
-576 -643 -688 751 0
-576 -643 -689 751 0
-576 -643 -690 751 0
-576 -643 -691 751 0
-576 -643 -692 751 0
-576 -643 -693 751 0
-576 -643 -694 751 0
-576 -643 -695 751 0
-576 -643 -696 751 0
-576 -643 -697 751 0
-576 -643 -698 751 0
-576 -643 -699 751 0
-576 -644 -674 751 0
-576 -644 -675 751 0
-576 -644 -676 751 0
-576 -644 -677 751 0
-576 -644 -678 751 0
-576 -644 -679 751 0
-576 -644 -680 751 0
-576 -644 -681 751 0
-576 -644 -682 751 0
-576 -644 -683 751 0
-576 -644 -684 751 0
-576 -644 -685 751 0
-576 -644 -686 751 0
-576 -644 -687 751 0
-576 -644 -688 751 0
-576 -644 -689 751 0
-576 -644 -690 751 0
-576 -644 -691 751 0
-576 -644 -692 751 0
-576 -644 -693 751 0
-576 -644 -694 751 0
-576 -644 -695 751 0
-576 -644 -696 751 0
-576 -644 -697 751 0
-576 -644 -698 751 0
-576 -644 -699 751 0
-576 -645 -674 751 0
-576 -645 -675 751 0
-576 -645 -676 751 0
-576 -645 -677 751 0
-576 -645 -678 751 0
-576 -645 -679 751 0
-576 -645 -680 751 0
-576 -645 -681 751 0
-576 -645 -682 751 0
-576 -645 -683 751 0
-576 -645 -684 751 0
-576 -645 -685 751 0
-576 -645 -686 751 0
-576 -645 -687 751 0
-576 -645 -688 751 0
-576 -645 -689 751 0
-576 -645 -690 751 0
-576 -645 -691 751 0
-576 -645 -692 751 0
-576 -645 -693 751 0
-576 -645 -694 751 0
-576 -645 -695 751 0
-576 -645 -696 751 0
-576 -645 -697 751 0
-576 -645 -698 751 0
-576 -645 -699 751 0
-576 -646 -674 751 0
-576 -646 -675 751 0
-576 -646 -676 751 0
-576 -646 -677 751 0
-576 -646 -678 751 0
-576 -646 -679 751 0
-576 -646 -680 751 0
-576 -646 -681 751 0
-576 -646 -682 751 0
-576 -646 -683 751 0
-576 -646 -684 751 0
-576 -646 -685 751 0
-576 -646 -686 751 0
-576 -646 -687 751 0
-576 -646 -688 751 0
-576 -646 -689 751 0
-576 -646 -690 751 0
-576 -646 -691 751 0
-576 -646 -692 751 0
-576 -646 -693 751 0
-576 -646 -694 751 0
-576 -646 -695 751 0
-576 -646 -696 751 0
-576 -646 -697 751 0
-576 -646 -698 751 0
-576 -646 -699 751 0
-576 -647 -674 751 0
-576 -647 -675 751 0
-576 -647 -676 751 0
-576 -647 -677 751 0
-576 -647 -678 751 0
-576 -647 -679 751 0
-576 -647 -680 751 0
-576 -647 -681 751 0
-576 -647 -682 751 0
-576 -647 -683 751 0
-576 -647 -684 751 0
-576 -647 -685 751 0
-576 -647 -686 751 0
-576 -647 -687 751 0
-576 -647 -688 751 0
-576 -647 -689 751 0
-576 -647 -690 751 0
-576 -647 -691 751 0
-576 -647 -692 751 0
-576 -647 -693 751 0
-576 -647 -694 751 0
-576 -647 -695 751 0
-576 -647 -696 751 0
-576 -647 -697 751 0
-576 -647 -698 751 0
-576 -647 -699 751 0
-577 -622 -674 736 0
-577 -622 -675 737 0
-577 -622 -676 738 0
-577 -622 -677 739 0
-577 -622 -678 740 0
-577 -622 -679 741 0
-577 -622 -680 742 0
-577 -622 -681 743 0
-577 -622 -682 744 0
-577 -622 -683 745 0
-577 -622 -684 746 0
-577 -622 -685 747 0
-577 -622 -686 748 0
-577 -622 -687 749 0
-577 -622 -688 750 0
-577 -622 -689 751 0
-577 -622 -690 751 0
-577 -622 -691 751 0
-577 -622 -692 751 0
-577 -622 -693 751 0
-577 -622 -694 751 0
-577 -622 -695 751 0
-577 -622 -696 751 0
-577 -622 -697 751 0
-577 -622 -698 751 0
-577 -622 -699 751 0
-577 -623 -674 737 0
-577 -623 -675 738 0
-577 -623 -676 739 0
-577 -623 -677 740 0
-577 -623 -678 741 0
-577 -623 -679 742 0
-577 -623 -680 743 0
-577 -623 -681 744 0
-577 -623 -682 745 0
-577 -623 -683 746 0
-577 -623 -684 747 0
-577 -623 -685 748 0
-577 -623 -686 749 0
-577 -623 -687 750 0
-577 -623 -688 751 0
-577 -623 -689 751 0
-577 -623 -690 751 0
-577 -623 -691 751 0
-577 -623 -692 751 0
-577 -623 -693 751 0
-577 -623 -694 751 0
-577 -623 -695 751 0
-577 -623 -696 751 0
-577 -623 -697 751 0
-577 -623 -698 751 0
-577 -623 -699 751 0
-577 -624 -674 738 0
-577 -624 -675 739 0
-577 -624 -676 740 0
-577 -624 -677 741 0
-577 -624 -678 742 0
-577 -624 -679 743 0
-577 -624 -680 744 0
-577 -624 -681 745 0
-577 -624 -682 746 0
-577 -624 -683 747 0
-577 -624 -684 748 0
-577 -624 -685 749 0
-577 -624 -686 750 0
-577 -624 -687 751 0
-577 -624 -688 751 0
-577 -624 -689 751 0
-577 -624 -690 751 0
-577 -624 -691 751 0
-577 -624 -692 751 0
-577 -624 -693 751 0
-577 -624 -694 751 0
-577 -624 -695 751 0
-577 -624 -696 751 0
-577 -624 -697 751 0
-577 -624 -698 751 0
-577 -624 -699 751 0
-577 -625 -674 739 0
-577 -625 -675 740 0
-577 -625 -676 741 0
-577 -625 -677 742 0
-577 -625 -678 743 0
-577 -625 -679 744 0
-577 -625 -680 745 0
-577 -625 -681 746 0
-577 -625 -682 747 0
-577 -625 -683 748 0
-577 -625 -684 749 0
-577 -625 -685 750 0
-577 -625 -686 751 0
-577 -625 -687 751 0
-577 -625 -688 751 0
-577 -625 -689 751 0
-577 -625 -690 751 0
-577 -625 -691 751 0
-577 -625 -692 751 0
-577 -625 -693 751 0
-577 -625 -694 751 0
-577 -625 -695 751 0
-577 -625 -696 751 0
-577 -625 -697 751 0
-577 -625 -698 751 0
-577 -625 -699 751 0
-577 -626 -674 740 0
-577 -626 -675 741 0
-577 -626 -676 742 0
-577 -626 -677 743 0
-577 -626 -678 744 0
-577 -626 -679 745 0
-577 -626 -680 746 0
-577 -626 -681 747 0
-577 -626 -682 748 0
-577 -626 -683 749 0
-577 -626 -684 750 0
-577 -626 -685 751 0
-577 -626 -686 751 0
-577 -626 -687 751 0
-577 -626 -688 751 0
-577 -626 -689 751 0
-577 -626 -690 751 0
-577 -626 -691 751 0
-577 -626 -692 751 0
-577 -626 -693 751 0
-577 -626 -694 751 0
-577 -626 -695 751 0
-577 -626 -696 751 0
-577 -626 -697 751 0
-577 -626 -698 751 0
-577 -626 -699 751 0
-577 -627 -674 741 0
-577 -627 -675 742 0
-577 -627 -676 743 0
-577 -627 -677 744 0
-577 -627 -678 745 0
-577 -627 -679 746 0
-577 -627 -680 747 0
-577 -627 -681 748 0
-577 -627 -682 749 0
-577 -627 -683 750 0
-577 -627 -684 751 0
-577 -627 -685 751 0
-577 -627 -686 751 0
-577 -627 -687 751 0
-577 -627 -688 751 0
-577 -627 -689 751 0
-577 -627 -690 751 0
-577 -627 -691 751 0
-577 -627 -692 751 0
-577 -627 -693 751 0
-577 -627 -694 751 0
-577 -627 -695 751 0
-577 -627 -696 751 0
-577 -627 -697 751 0
-577 -627 -698 751 0
-577 -627 -699 751 0
-577 -628 -674 742 0
-577 -628 -675 743 0
-577 -628 -676 744 0
-577 -628 -677 745 0
-577 -628 -678 746 0
-577 -628 -679 747 0
-577 -628 -680 748 0
-577 -628 -681 749 0
-577 -628 -682 750 0
-577 -628 -683 751 0
-577 -628 -684 751 0
-577 -628 -685 751 0
-577 -628 -686 751 0
-577 -628 -687 751 0
-577 -628 -688 751 0
-577 -628 -689 751 0
-577 -628 -690 751 0
-577 -628 -691 751 0
-577 -628 -692 751 0
-577 -628 -693 751 0
-577 -628 -694 751 0
-577 -628 -695 751 0
-577 -628 -696 751 0
-577 -628 -697 751 0
-577 -628 -698 751 0
-577 -628 -699 751 0
-577 -629 -674 743 0
-577 -629 -675 744 0
-577 -629 -676 745 0
-577 -629 -677 746 0
-577 -629 -678 747 0
-577 -629 -679 748 0
-577 -629 -680 749 0
-577 -629 -681 750 0
-577 -629 -682 751 0
-577 -629 -683 751 0
-577 -629 -684 751 0
-577 -629 -685 751 0
-577 -629 -686 751 0
-577 -629 -687 751 0
-577 -629 -688 751 0
-577 -629 -689 751 0
-577 -629 -690 751 0
-577 -629 -691 751 0
-577 -629 -692 751 0
-577 -629 -693 751 0
-577 -629 -694 751 0
-577 -629 -695 751 0
-577 -629 -696 751 0
-577 -629 -697 751 0
-577 -629 -698 751 0
-577 -629 -699 751 0
-577 -630 -674 744 0
-577 -630 -675 745 0
-577 -630 -676 746 0
-577 -630 -677 747 0
-577 -630 -678 748 0
-577 -630 -679 749 0
-577 -630 -680 750 0
-577 -630 -681 751 0
-577 -630 -682 751 0
-577 -630 -683 751 0
-577 -630 -684 751 0
-577 -630 -685 751 0
-577 -630 -686 751 0
-577 -630 -687 751 0
-577 -630 -688 751 0
-577 -630 -689 751 0
-577 -630 -690 751 0
-577 -630 -691 751 0
-577 -630 -692 751 0
-577 -630 -693 751 0
-577 -630 -694 751 0
-577 -630 -695 751 0
-577 -630 -696 751 0
-577 -630 -697 751 0
-577 -630 -698 751 0
-577 -630 -699 751 0
-577 -631 -674 745 0
-577 -631 -675 746 0
-577 -631 -676 747 0
-577 -631 -677 748 0
-577 -631 -678 749 0
-577 -631 -679 750 0
-577 -631 -680 751 0
-577 -631 -681 751 0
-577 -631 -682 751 0
-577 -631 -683 751 0
-577 -631 -684 751 0
-577 -631 -685 751 0
-577 -631 -686 751 0
-577 -631 -687 751 0
-577 -631 -688 751 0
-577 -631 -689 751 0
-577 -631 -690 751 0
-577 -631 -691 751 0
-577 -631 -692 751 0
-577 -631 -693 751 0
-577 -631 -694 751 0
-577 -631 -695 751 0
-577 -631 -696 751 0
-577 -631 -697 751 0
-577 -631 -698 751 0
-577 -631 -699 751 0
-577 -632 -674 746 0
-577 -632 -675 747 0
-577 -632 -676 748 0
-577 -632 -677 749 0
-577 -632 -678 750 0
-577 -632 -679 751 0
-577 -632 -680 751 0
-577 -632 -681 751 0
-577 -632 -682 751 0
-577 -632 -683 751 0
-577 -632 -684 751 0
-577 -632 -685 751 0
-577 -632 -686 751 0
-577 -632 -687 751 0
-577 -632 -688 751 0
-577 -632 -689 751 0
-577 -632 -690 751 0
-577 -632 -691 751 0
-577 -632 -692 751 0
-577 -632 -693 751 0
-577 -632 -694 751 0
-577 -632 -695 751 0
-577 -632 -696 751 0
-577 -632 -697 751 0
-577 -632 -698 751 0
-577 -632 -699 751 0
-577 -633 -674 747 0
-577 -633 -675 748 0
-577 -633 -676 749 0
-577 -633 -677 750 0
-577 -633 -678 751 0
-577 -633 -679 751 0
-577 -633 -680 751 0
-577 -633 -681 751 0
-577 -633 -682 751 0
-577 -633 -683 751 0
-577 -633 -684 751 0
-577 -633 -685 751 0
-577 -633 -686 751 0
-577 -633 -687 751 0
-577 -633 -688 751 0
-577 -633 -689 751 0
-577 -633 -690 751 0
-577 -633 -691 751 0
-577 -633 -692 751 0
-577 -633 -693 751 0
-577 -633 -694 751 0
-577 -633 -695 751 0
-577 -633 -696 751 0
-577 -633 -697 751 0
-577 -633 -698 751 0
-577 -633 -699 751 0
-577 -634 -674 748 0
-577 -634 -675 749 0
-577 -634 -676 750 0
-577 -634 -677 751 0
-577 -634 -678 751 0
-577 -634 -679 751 0
-577 -634 -680 751 0
-577 -634 -681 751 0
-577 -634 -682 751 0
-577 -634 -683 751 0
-577 -634 -684 751 0
-577 -634 -685 751 0
-577 -634 -686 751 0
-577 -634 -687 751 0
-577 -634 -688 751 0
-577 -634 -689 751 0
-577 -634 -690 751 0
-577 -634 -691 751 0
-577 -634 -692 751 0
-577 -634 -693 751 0
-577 -634 -694 751 0
-577 -634 -695 751 0
-577 -634 -696 751 0
-577 -634 -697 751 0
-577 -634 -698 751 0
-577 -634 -699 751 0
-577 -635 -674 749 0
-577 -635 -675 750 0
-577 -635 -676 751 0
-577 -635 -677 751 0
-577 -635 -678 751 0
-577 -635 -679 751 0
-577 -635 -680 751 0
-577 -635 -681 751 0
-577 -635 -682 751 0
-577 -635 -683 751 0
-577 -635 -684 751 0
-577 -635 -685 751 0
-577 -635 -686 751 0
-577 -635 -687 751 0
-577 -635 -688 751 0
-577 -635 -689 751 0
-577 -635 -690 751 0
-577 -635 -691 751 0
-577 -635 -692 751 0
-577 -635 -693 751 0
-577 -635 -694 751 0
-577 -635 -695 751 0
-577 -635 -696 751 0
-577 -635 -697 751 0
-577 -635 -698 751 0
-577 -635 -699 751 0
-577 -636 -674 750 0
-577 -636 -675 751 0
-577 -636 -676 751 0
-577 -636 -677 751 0
-577 -636 -678 751 0
-577 -636 -679 751 0
-577 -636 -680 751 0
-577 -636 -681 751 0
-577 -636 -682 751 0
-577 -636 -683 751 0
-577 -636 -684 751 0
-577 -636 -685 751 0
-577 -636 -686 751 0
-577 -636 -687 751 0
-577 -636 -688 751 0
-577 -636 -689 751 0
-577 -636 -690 751 0
-577 -636 -691 751 0
-577 -636 -692 751 0
-577 -636 -693 751 0
-577 -636 -694 751 0
-577 -636 -695 751 0
-577 -636 -696 751 0
-577 -636 -697 751 0
-577 -636 -698 751 0
-577 -636 -699 751 0
-577 -637 -674 751 0
-577 -637 -675 751 0
-577 -637 -676 751 0
-577 -637 -677 751 0
-577 -637 -678 751 0
-577 -637 -679 751 0
-577 -637 -680 751 0
-577 -637 -681 751 0
-577 -637 -682 751 0
-577 -637 -683 751 0
-577 -637 -684 751 0
-577 -637 -685 751 0
-577 -637 -686 751 0
-577 -637 -687 751 0
-577 -637 -688 751 0
-577 -637 -689 751 0
-577 -637 -690 751 0
-577 -637 -691 751 0
-577 -637 -692 751 0
-577 -637 -693 751 0
-577 -637 -694 751 0
-577 -637 -695 751 0
-577 -637 -696 751 0
-577 -637 -697 751 0
-577 -637 -698 751 0
-577 -637 -699 751 0
-577 -638 -674 751 0
-577 -638 -675 751 0
-577 -638 -676 751 0
-577 -638 -677 751 0
-577 -638 -678 751 0
-577 -638 -679 751 0
-577 -638 -680 751 0
-577 -638 -681 751 0
-577 -638 -682 751 0
-577 -638 -683 751 0
-577 -638 -684 751 0
-577 -638 -685 751 0
-577 -638 -686 751 0
-577 -638 -687 751 0
-577 -638 -688 751 0
-577 -638 -689 751 0
-577 -638 -690 751 0
-577 -638 -691 751 0
-577 -638 -692 751 0
-577 -638 -693 751 0
-577 -638 -694 751 0
-577 -638 -695 751 0
-577 -638 -696 751 0
-577 -638 -697 751 0
-577 -638 -698 751 0
-577 -638 -699 751 0
-577 -639 -674 751 0
-577 -639 -675 751 0
-577 -639 -676 751 0
-577 -639 -677 751 0
-577 -639 -678 751 0
-577 -639 -679 751 0
-577 -639 -680 751 0
-577 -639 -681 751 0
-577 -639 -682 751 0
-577 -639 -683 751 0
-577 -639 -684 751 0
-577 -639 -685 751 0
-577 -639 -686 751 0
-577 -639 -687 751 0
-577 -639 -688 751 0
-577 -639 -689 751 0
-577 -639 -690 751 0
-577 -639 -691 751 0
-577 -639 -692 751 0
-577 -639 -693 751 0
-577 -639 -694 751 0
-577 -639 -695 751 0
-577 -639 -696 751 0
-577 -639 -697 751 0
-577 -639 -698 751 0
-577 -639 -699 751 0
-577 -640 -674 751 0
-577 -640 -675 751 0
-577 -640 -676 751 0
-577 -640 -677 751 0
-577 -640 -678 751 0
-577 -640 -679 751 0
-577 -640 -680 751 0
-577 -640 -681 751 0
-577 -640 -682 751 0
-577 -640 -683 751 0
-577 -640 -684 751 0
-577 -640 -685 751 0
-577 -640 -686 751 0
-577 -640 -687 751 0
-577 -640 -688 751 0
-577 -640 -689 751 0
-577 -640 -690 751 0
-577 -640 -691 751 0
-577 -640 -692 751 0
-577 -640 -693 751 0
-577 -640 -694 751 0
-577 -640 -695 751 0
-577 -640 -696 751 0
-577 -640 -697 751 0
-577 -640 -698 751 0
-577 -640 -699 751 0
-577 -641 -674 751 0
-577 -641 -675 751 0
-577 -641 -676 751 0
-577 -641 -677 751 0
-577 -641 -678 751 0
-577 -641 -679 751 0
-577 -641 -680 751 0
-577 -641 -681 751 0
-577 -641 -682 751 0
-577 -641 -683 751 0
-577 -641 -684 751 0
-577 -641 -685 751 0
-577 -641 -686 751 0
-577 -641 -687 751 0
-577 -641 -688 751 0
-577 -641 -689 751 0
-577 -641 -690 751 0
-577 -641 -691 751 0
-577 -641 -692 751 0
-577 -641 -693 751 0
-577 -641 -694 751 0
-577 -641 -695 751 0
-577 -641 -696 751 0
-577 -641 -697 751 0
-577 -641 -698 751 0
-577 -641 -699 751 0
-577 -642 -674 751 0
-577 -642 -675 751 0
-577 -642 -676 751 0
-577 -642 -677 751 0
-577 -642 -678 751 0
-577 -642 -679 751 0
-577 -642 -680 751 0
-577 -642 -681 751 0
-577 -642 -682 751 0
-577 -642 -683 751 0
-577 -642 -684 751 0
-577 -642 -685 751 0
-577 -642 -686 751 0
-577 -642 -687 751 0
-577 -642 -688 751 0
-577 -642 -689 751 0
-577 -642 -690 751 0
-577 -642 -691 751 0
-577 -642 -692 751 0
-577 -642 -693 751 0
-577 -642 -694 751 0
-577 -642 -695 751 0
-577 -642 -696 751 0
-577 -642 -697 751 0
-577 -642 -698 751 0
-577 -642 -699 751 0
-577 -643 -674 751 0
-577 -643 -675 751 0
-577 -643 -676 751 0
-577 -643 -677 751 0
-577 -643 -678 751 0
-577 -643 -679 751 0
-577 -643 -680 751 0
-577 -643 -681 751 0
-577 -643 -682 751 0
-577 -643 -683 751 0
-577 -643 -684 751 0
-577 -643 -685 751 0
-577 -643 -686 751 0
-577 -643 -687 751 0
-577 -643 -688 751 0
-577 -643 -689 751 0
-577 -643 -690 751 0
-577 -643 -691 751 0
-577 -643 -692 751 0
-577 -643 -693 751 0
-577 -643 -694 751 0
-577 -643 -695 751 0
-577 -643 -696 751 0
-577 -643 -697 751 0
-577 -643 -698 751 0
-577 -643 -699 751 0
-577 -644 -674 751 0
-577 -644 -675 751 0
-577 -644 -676 751 0
-577 -644 -677 751 0
-577 -644 -678 751 0
-577 -644 -679 751 0
-577 -644 -680 751 0
-577 -644 -681 751 0
-577 -644 -682 751 0
-577 -644 -683 751 0
-577 -644 -684 751 0
-577 -644 -685 751 0
-577 -644 -686 751 0
-577 -644 -687 751 0
-577 -644 -688 751 0
-577 -644 -689 751 0
-577 -644 -690 751 0
-577 -644 -691 751 0
-577 -644 -692 751 0
-577 -644 -693 751 0
-577 -644 -694 751 0
-577 -644 -695 751 0
-577 -644 -696 751 0
-577 -644 -697 751 0
-577 -644 -698 751 0
-577 -644 -699 751 0
-577 -645 -674 751 0
-577 -645 -675 751 0
-577 -645 -676 751 0
-577 -645 -677 751 0
-577 -645 -678 751 0
-577 -645 -679 751 0
-577 -645 -680 751 0
-577 -645 -681 751 0
-577 -645 -682 751 0
-577 -645 -683 751 0
-577 -645 -684 751 0
-577 -645 -685 751 0
-577 -645 -686 751 0
-577 -645 -687 751 0
-577 -645 -688 751 0
-577 -645 -689 751 0
-577 -645 -690 751 0
-577 -645 -691 751 0
-577 -645 -692 751 0
-577 -645 -693 751 0
-577 -645 -694 751 0
-577 -645 -695 751 0
-577 -645 -696 751 0
-577 -645 -697 751 0
-577 -645 -698 751 0
-577 -645 -699 751 0
-577 -646 -674 751 0
-577 -646 -675 751 0
-577 -646 -676 751 0
-577 -646 -677 751 0
-577 -646 -678 751 0
-577 -646 -679 751 0
-577 -646 -680 751 0
-577 -646 -681 751 0
-577 -646 -682 751 0
-577 -646 -683 751 0
-577 -646 -684 751 0
-577 -646 -685 751 0
-577 -646 -686 751 0
-577 -646 -687 751 0
-577 -646 -688 751 0
-577 -646 -689 751 0
-577 -646 -690 751 0
-577 -646 -691 751 0
-577 -646 -692 751 0
-577 -646 -693 751 0
-577 -646 -694 751 0
-577 -646 -695 751 0
-577 -646 -696 751 0
-577 -646 -697 751 0
-577 -646 -698 751 0
-577 -646 -699 751 0
-577 -647 -674 751 0
-577 -647 -675 751 0
-577 -647 -676 751 0
-577 -647 -677 751 0
-577 -647 -678 751 0
-577 -647 -679 751 0
-577 -647 -680 751 0
-577 -647 -681 751 0
-577 -647 -682 751 0
-577 -647 -683 751 0
-577 -647 -684 751 0
-577 -647 -685 751 0
-577 -647 -686 751 0
-577 -647 -687 751 0
-577 -647 -688 751 0
-577 -647 -689 751 0
-577 -647 -690 751 0
-577 -647 -691 751 0
-577 -647 -692 751 0
-577 -647 -693 751 0
-577 -647 -694 751 0
-577 -647 -695 751 0
-577 -647 -696 751 0
-577 -647 -697 751 0
-577 -647 -698 751 0
-577 -647 -699 751 0
-578 -622 -674 737 0
-578 -622 -675 738 0
-578 -622 -676 739 0
-578 -622 -677 740 0
-578 -622 -678 741 0
-578 -622 -679 742 0
-578 -622 -680 743 0
-578 -622 -681 744 0
-578 -622 -682 745 0
-578 -622 -683 746 0
-578 -622 -684 747 0
-578 -622 -685 748 0
-578 -622 -686 749 0
-578 -622 -687 750 0
-578 -622 -688 751 0
-578 -622 -689 751 0
-578 -622 -690 751 0
-578 -622 -691 751 0
-578 -622 -692 751 0
-578 -622 -693 751 0
-578 -622 -694 751 0
-578 -622 -695 751 0
-578 -622 -696 751 0
-578 -622 -697 751 0
-578 -622 -698 751 0
-578 -622 -699 751 0
-578 -623 -674 738 0
-578 -623 -675 739 0
-578 -623 -676 740 0
-578 -623 -677 741 0
-578 -623 -678 742 0
-578 -623 -679 743 0
-578 -623 -680 744 0
-578 -623 -681 745 0
-578 -623 -682 746 0
-578 -623 -683 747 0
-578 -623 -684 748 0
-578 -623 -685 749 0
-578 -623 -686 750 0
-578 -623 -687 751 0
-578 -623 -688 751 0
-578 -623 -689 751 0
-578 -623 -690 751 0
-578 -623 -691 751 0
-578 -623 -692 751 0
-578 -623 -693 751 0
-578 -623 -694 751 0
-578 -623 -695 751 0
-578 -623 -696 751 0
-578 -623 -697 751 0
-578 -623 -698 751 0
-578 -623 -699 751 0
-578 -624 -674 739 0
-578 -624 -675 740 0
-578 -624 -676 741 0
-578 -624 -677 742 0
-578 -624 -678 743 0
-578 -624 -679 744 0
-578 -624 -680 745 0
-578 -624 -681 746 0
-578 -624 -682 747 0
-578 -624 -683 748 0
-578 -624 -684 749 0
-578 -624 -685 750 0
-578 -624 -686 751 0
-578 -624 -687 751 0
-578 -624 -688 751 0
-578 -624 -689 751 0
-578 -624 -690 751 0
-578 -624 -691 751 0
-578 -624 -692 751 0
-578 -624 -693 751 0
-578 -624 -694 751 0
-578 -624 -695 751 0
-578 -624 -696 751 0
-578 -624 -697 751 0
-578 -624 -698 751 0
-578 -624 -699 751 0
-578 -625 -674 740 0
-578 -625 -675 741 0
-578 -625 -676 742 0
-578 -625 -677 743 0
-578 -625 -678 744 0
-578 -625 -679 745 0
-578 -625 -680 746 0
-578 -625 -681 747 0
-578 -625 -682 748 0
-578 -625 -683 749 0
-578 -625 -684 750 0
-578 -625 -685 751 0
-578 -625 -686 751 0
-578 -625 -687 751 0
-578 -625 -688 751 0
-578 -625 -689 751 0
-578 -625 -690 751 0
-578 -625 -691 751 0
-578 -625 -692 751 0
-578 -625 -693 751 0
-578 -625 -694 751 0
-578 -625 -695 751 0
-578 -625 -696 751 0
-578 -625 -697 751 0
-578 -625 -698 751 0
-578 -625 -699 751 0
-578 -626 -674 741 0
-578 -626 -675 742 0
-578 -626 -676 743 0
-578 -626 -677 744 0
-578 -626 -678 745 0
-578 -626 -679 746 0
-578 -626 -680 747 0
-578 -626 -681 748 0
-578 -626 -682 749 0
-578 -626 -683 750 0
-578 -626 -684 751 0
-578 -626 -685 751 0
-578 -626 -686 751 0
-578 -626 -687 751 0
-578 -626 -688 751 0
-578 -626 -689 751 0
-578 -626 -690 751 0
-578 -626 -691 751 0
-578 -626 -692 751 0
-578 -626 -693 751 0
-578 -626 -694 751 0
-578 -626 -695 751 0
-578 -626 -696 751 0
-578 -626 -697 751 0
-578 -626 -698 751 0
-578 -626 -699 751 0
-578 -627 -674 742 0
-578 -627 -675 743 0
-578 -627 -676 744 0
-578 -627 -677 745 0
-578 -627 -678 746 0
-578 -627 -679 747 0
-578 -627 -680 748 0
-578 -627 -681 749 0
-578 -627 -682 750 0
-578 -627 -683 751 0
-578 -627 -684 751 0
-578 -627 -685 751 0
-578 -627 -686 751 0
-578 -627 -687 751 0
-578 -627 -688 751 0
-578 -627 -689 751 0
-578 -627 -690 751 0
-578 -627 -691 751 0
-578 -627 -692 751 0
-578 -627 -693 751 0
-578 -627 -694 751 0
-578 -627 -695 751 0
-578 -627 -696 751 0
-578 -627 -697 751 0
-578 -627 -698 751 0
-578 -627 -699 751 0
-578 -628 -674 743 0
-578 -628 -675 744 0
-578 -628 -676 745 0
-578 -628 -677 746 0
-578 -628 -678 747 0
-578 -628 -679 748 0
-578 -628 -680 749 0
-578 -628 -681 750 0
-578 -628 -682 751 0
-578 -628 -683 751 0
-578 -628 -684 751 0
-578 -628 -685 751 0
-578 -628 -686 751 0
-578 -628 -687 751 0
-578 -628 -688 751 0
-578 -628 -689 751 0
-578 -628 -690 751 0
-578 -628 -691 751 0
-578 -628 -692 751 0
-578 -628 -693 751 0
-578 -628 -694 751 0
-578 -628 -695 751 0
-578 -628 -696 751 0
-578 -628 -697 751 0
-578 -628 -698 751 0
-578 -628 -699 751 0
-578 -629 -674 744 0
-578 -629 -675 745 0
-578 -629 -676 746 0
-578 -629 -677 747 0
-578 -629 -678 748 0
-578 -629 -679 749 0
-578 -629 -680 750 0
-578 -629 -681 751 0
-578 -629 -682 751 0
-578 -629 -683 751 0
-578 -629 -684 751 0
-578 -629 -685 751 0
-578 -629 -686 751 0
-578 -629 -687 751 0
-578 -629 -688 751 0
-578 -629 -689 751 0
-578 -629 -690 751 0
-578 -629 -691 751 0
-578 -629 -692 751 0
-578 -629 -693 751 0
-578 -629 -694 751 0
-578 -629 -695 751 0
-578 -629 -696 751 0
-578 -629 -697 751 0
-578 -629 -698 751 0
-578 -629 -699 751 0
-578 -630 -674 745 0
-578 -630 -675 746 0
-578 -630 -676 747 0
-578 -630 -677 748 0
-578 -630 -678 749 0
-578 -630 -679 750 0
-578 -630 -680 751 0
-578 -630 -681 751 0
-578 -630 -682 751 0
-578 -630 -683 751 0
-578 -630 -684 751 0
-578 -630 -685 751 0
-578 -630 -686 751 0
-578 -630 -687 751 0
-578 -630 -688 751 0
-578 -630 -689 751 0
-578 -630 -690 751 0
-578 -630 -691 751 0
-578 -630 -692 751 0
-578 -630 -693 751 0
-578 -630 -694 751 0
-578 -630 -695 751 0
-578 -630 -696 751 0
-578 -630 -697 751 0
-578 -630 -698 751 0
-578 -630 -699 751 0
-578 -631 -674 746 0
-578 -631 -675 747 0
-578 -631 -676 748 0
-578 -631 -677 749 0
-578 -631 -678 750 0
-578 -631 -679 751 0
-578 -631 -680 751 0
-578 -631 -681 751 0
-578 -631 -682 751 0
-578 -631 -683 751 0
-578 -631 -684 751 0
-578 -631 -685 751 0
-578 -631 -686 751 0
-578 -631 -687 751 0
-578 -631 -688 751 0
-578 -631 -689 751 0
-578 -631 -690 751 0
-578 -631 -691 751 0
-578 -631 -692 751 0
-578 -631 -693 751 0
-578 -631 -694 751 0
-578 -631 -695 751 0
-578 -631 -696 751 0
-578 -631 -697 751 0
-578 -631 -698 751 0
-578 -631 -699 751 0
-578 -632 -674 747 0
-578 -632 -675 748 0
-578 -632 -676 749 0
-578 -632 -677 750 0
-578 -632 -678 751 0
-578 -632 -679 751 0
-578 -632 -680 751 0
-578 -632 -681 751 0
-578 -632 -682 751 0
-578 -632 -683 751 0
-578 -632 -684 751 0
-578 -632 -685 751 0
-578 -632 -686 751 0
-578 -632 -687 751 0
-578 -632 -688 751 0
-578 -632 -689 751 0
-578 -632 -690 751 0
-578 -632 -691 751 0
-578 -632 -692 751 0
-578 -632 -693 751 0
-578 -632 -694 751 0
-578 -632 -695 751 0
-578 -632 -696 751 0
-578 -632 -697 751 0
-578 -632 -698 751 0
-578 -632 -699 751 0
-578 -633 -674 748 0
-578 -633 -675 749 0
-578 -633 -676 750 0
-578 -633 -677 751 0
-578 -633 -678 751 0
-578 -633 -679 751 0
-578 -633 -680 751 0
-578 -633 -681 751 0
-578 -633 -682 751 0
-578 -633 -683 751 0
-578 -633 -684 751 0
-578 -633 -685 751 0
-578 -633 -686 751 0
-578 -633 -687 751 0
-578 -633 -688 751 0
-578 -633 -689 751 0
-578 -633 -690 751 0
-578 -633 -691 751 0
-578 -633 -692 751 0
-578 -633 -693 751 0
-578 -633 -694 751 0
-578 -633 -695 751 0
-578 -633 -696 751 0
-578 -633 -697 751 0
-578 -633 -698 751 0
-578 -633 -699 751 0
-578 -634 -674 749 0
-578 -634 -675 750 0
-578 -634 -676 751 0
-578 -634 -677 751 0
-578 -634 -678 751 0
-578 -634 -679 751 0
-578 -634 -680 751 0
-578 -634 -681 751 0
-578 -634 -682 751 0
-578 -634 -683 751 0
-578 -634 -684 751 0
-578 -634 -685 751 0
-578 -634 -686 751 0
-578 -634 -687 751 0
-578 -634 -688 751 0
-578 -634 -689 751 0
-578 -634 -690 751 0
-578 -634 -691 751 0
-578 -634 -692 751 0
-578 -634 -693 751 0
-578 -634 -694 751 0
-578 -634 -695 751 0
-578 -634 -696 751 0
-578 -634 -697 751 0
-578 -634 -698 751 0
-578 -634 -699 751 0
-578 -635 -674 750 0
-578 -635 -675 751 0
-578 -635 -676 751 0
-578 -635 -677 751 0
-578 -635 -678 751 0
-578 -635 -679 751 0
-578 -635 -680 751 0
-578 -635 -681 751 0
-578 -635 -682 751 0
-578 -635 -683 751 0
-578 -635 -684 751 0
-578 -635 -685 751 0
-578 -635 -686 751 0
-578 -635 -687 751 0
-578 -635 -688 751 0
-578 -635 -689 751 0
-578 -635 -690 751 0
-578 -635 -691 751 0
-578 -635 -692 751 0
-578 -635 -693 751 0
-578 -635 -694 751 0
-578 -635 -695 751 0
-578 -635 -696 751 0
-578 -635 -697 751 0
-578 -635 -698 751 0
-578 -635 -699 751 0
-578 -636 -674 751 0
-578 -636 -675 751 0
-578 -636 -676 751 0
-578 -636 -677 751 0
-578 -636 -678 751 0
-578 -636 -679 751 0
-578 -636 -680 751 0
-578 -636 -681 751 0
-578 -636 -682 751 0
-578 -636 -683 751 0
-578 -636 -684 751 0
-578 -636 -685 751 0
-578 -636 -686 751 0
-578 -636 -687 751 0
-578 -636 -688 751 0
-578 -636 -689 751 0
-578 -636 -690 751 0
-578 -636 -691 751 0
-578 -636 -692 751 0
-578 -636 -693 751 0
-578 -636 -694 751 0
-578 -636 -695 751 0
-578 -636 -696 751 0
-578 -636 -697 751 0
-578 -636 -698 751 0
-578 -636 -699 751 0
-578 -637 -674 751 0
-578 -637 -675 751 0
-578 -637 -676 751 0
-578 -637 -677 751 0
-578 -637 -678 751 0
-578 -637 -679 751 0
-578 -637 -680 751 0
-578 -637 -681 751 0
-578 -637 -682 751 0
-578 -637 -683 751 0
-578 -637 -684 751 0
-578 -637 -685 751 0
-578 -637 -686 751 0
-578 -637 -687 751 0
-578 -637 -688 751 0
-578 -637 -689 751 0
-578 -637 -690 751 0
-578 -637 -691 751 0
-578 -637 -692 751 0
-578 -637 -693 751 0
-578 -637 -694 751 0
-578 -637 -695 751 0
-578 -637 -696 751 0
-578 -637 -697 751 0
-578 -637 -698 751 0
-578 -637 -699 751 0
-578 -638 -674 751 0
-578 -638 -675 751 0
-578 -638 -676 751 0
-578 -638 -677 751 0
-578 -638 -678 751 0
-578 -638 -679 751 0
-578 -638 -680 751 0
-578 -638 -681 751 0
-578 -638 -682 751 0
-578 -638 -683 751 0
-578 -638 -684 751 0
-578 -638 -685 751 0
-578 -638 -686 751 0
-578 -638 -687 751 0
-578 -638 -688 751 0
-578 -638 -689 751 0
-578 -638 -690 751 0
-578 -638 -691 751 0
-578 -638 -692 751 0
-578 -638 -693 751 0
-578 -638 -694 751 0
-578 -638 -695 751 0
-578 -638 -696 751 0
-578 -638 -697 751 0
-578 -638 -698 751 0
-578 -638 -699 751 0
-578 -639 -674 751 0
-578 -639 -675 751 0
-578 -639 -676 751 0
-578 -639 -677 751 0
-578 -639 -678 751 0
-578 -639 -679 751 0
-578 -639 -680 751 0
-578 -639 -681 751 0
-578 -639 -682 751 0
-578 -639 -683 751 0
-578 -639 -684 751 0
-578 -639 -685 751 0
-578 -639 -686 751 0
-578 -639 -687 751 0
-578 -639 -688 751 0
-578 -639 -689 751 0
-578 -639 -690 751 0
-578 -639 -691 751 0
-578 -639 -692 751 0
-578 -639 -693 751 0
-578 -639 -694 751 0
-578 -639 -695 751 0
-578 -639 -696 751 0
-578 -639 -697 751 0
-578 -639 -698 751 0
-578 -639 -699 751 0
-578 -640 -674 751 0
-578 -640 -675 751 0
-578 -640 -676 751 0
-578 -640 -677 751 0
-578 -640 -678 751 0
-578 -640 -679 751 0
-578 -640 -680 751 0
-578 -640 -681 751 0
-578 -640 -682 751 0
-578 -640 -683 751 0
-578 -640 -684 751 0
-578 -640 -685 751 0
-578 -640 -686 751 0
-578 -640 -687 751 0
-578 -640 -688 751 0
-578 -640 -689 751 0
-578 -640 -690 751 0
-578 -640 -691 751 0
-578 -640 -692 751 0
-578 -640 -693 751 0
-578 -640 -694 751 0
-578 -640 -695 751 0
-578 -640 -696 751 0
-578 -640 -697 751 0
-578 -640 -698 751 0
-578 -640 -699 751 0
-578 -641 -674 751 0
-578 -641 -675 751 0
-578 -641 -676 751 0
-578 -641 -677 751 0
-578 -641 -678 751 0
-578 -641 -679 751 0
-578 -641 -680 751 0
-578 -641 -681 751 0
-578 -641 -682 751 0
-578 -641 -683 751 0
-578 -641 -684 751 0
-578 -641 -685 751 0
-578 -641 -686 751 0
-578 -641 -687 751 0
-578 -641 -688 751 0
-578 -641 -689 751 0
-578 -641 -690 751 0
-578 -641 -691 751 0
-578 -641 -692 751 0
-578 -641 -693 751 0
-578 -641 -694 751 0
-578 -641 -695 751 0
-578 -641 -696 751 0
-578 -641 -697 751 0
-578 -641 -698 751 0
-578 -641 -699 751 0
-578 -642 -674 751 0
-578 -642 -675 751 0
-578 -642 -676 751 0
-578 -642 -677 751 0
-578 -642 -678 751 0
-578 -642 -679 751 0
-578 -642 -680 751 0
-578 -642 -681 751 0
-578 -642 -682 751 0
-578 -642 -683 751 0
-578 -642 -684 751 0
-578 -642 -685 751 0
-578 -642 -686 751 0
-578 -642 -687 751 0
-578 -642 -688 751 0
-578 -642 -689 751 0
-578 -642 -690 751 0
-578 -642 -691 751 0
-578 -642 -692 751 0
-578 -642 -693 751 0
-578 -642 -694 751 0
-578 -642 -695 751 0
-578 -642 -696 751 0
-578 -642 -697 751 0
-578 -642 -698 751 0
-578 -642 -699 751 0
-578 -643 -674 751 0
-578 -643 -675 751 0
-578 -643 -676 751 0
-578 -643 -677 751 0
-578 -643 -678 751 0
-578 -643 -679 751 0
-578 -643 -680 751 0
-578 -643 -681 751 0
-578 -643 -682 751 0
-578 -643 -683 751 0
-578 -643 -684 751 0
-578 -643 -685 751 0
-578 -643 -686 751 0
-578 -643 -687 751 0
-578 -643 -688 751 0
-578 -643 -689 751 0
-578 -643 -690 751 0
-578 -643 -691 751 0
-578 -643 -692 751 0
-578 -643 -693 751 0
-578 -643 -694 751 0
-578 -643 -695 751 0
-578 -643 -696 751 0
-578 -643 -697 751 0
-578 -643 -698 751 0
-578 -643 -699 751 0
-578 -644 -674 751 0
-578 -644 -675 751 0
-578 -644 -676 751 0
-578 -644 -677 751 0
-578 -644 -678 751 0
-578 -644 -679 751 0
-578 -644 -680 751 0
-578 -644 -681 751 0
-578 -644 -682 751 0
-578 -644 -683 751 0
-578 -644 -684 751 0
-578 -644 -685 751 0
-578 -644 -686 751 0
-578 -644 -687 751 0
-578 -644 -688 751 0
-578 -644 -689 751 0
-578 -644 -690 751 0
-578 -644 -691 751 0
-578 -644 -692 751 0
-578 -644 -693 751 0
-578 -644 -694 751 0
-578 -644 -695 751 0
-578 -644 -696 751 0
-578 -644 -697 751 0
-578 -644 -698 751 0
-578 -644 -699 751 0
-578 -645 -674 751 0
-578 -645 -675 751 0
-578 -645 -676 751 0
-578 -645 -677 751 0
-578 -645 -678 751 0
-578 -645 -679 751 0
-578 -645 -680 751 0
-578 -645 -681 751 0
-578 -645 -682 751 0
-578 -645 -683 751 0
-578 -645 -684 751 0
-578 -645 -685 751 0
-578 -645 -686 751 0
-578 -645 -687 751 0
-578 -645 -688 751 0
-578 -645 -689 751 0
-578 -645 -690 751 0
-578 -645 -691 751 0
-578 -645 -692 751 0
-578 -645 -693 751 0
-578 -645 -694 751 0
-578 -645 -695 751 0
-578 -645 -696 751 0
-578 -645 -697 751 0
-578 -645 -698 751 0
-578 -645 -699 751 0
-578 -646 -674 751 0
-578 -646 -675 751 0
-578 -646 -676 751 0
-578 -646 -677 751 0
-578 -646 -678 751 0
-578 -646 -679 751 0
-578 -646 -680 751 0
-578 -646 -681 751 0
-578 -646 -682 751 0
-578 -646 -683 751 0
-578 -646 -684 751 0
-578 -646 -685 751 0
-578 -646 -686 751 0
-578 -646 -687 751 0
-578 -646 -688 751 0
-578 -646 -689 751 0
-578 -646 -690 751 0
-578 -646 -691 751 0
-578 -646 -692 751 0
-578 -646 -693 751 0
-578 -646 -694 751 0
-578 -646 -695 751 0
-578 -646 -696 751 0
-578 -646 -697 751 0
-578 -646 -698 751 0
-578 -646 -699 751 0
-578 -647 -674 751 0
-578 -647 -675 751 0
-578 -647 -676 751 0
-578 -647 -677 751 0
-578 -647 -678 751 0
-578 -647 -679 751 0
-578 -647 -680 751 0
-578 -647 -681 751 0
-578 -647 -682 751 0
-578 -647 -683 751 0
-578 -647 -684 751 0
-578 -647 -685 751 0
-578 -647 -686 751 0
-578 -647 -687 751 0
-578 -647 -688 751 0
-578 -647 -689 751 0
-578 -647 -690 751 0
-578 -647 -691 751 0
-578 -647 -692 751 0
-578 -647 -693 751 0
-578 -647 -694 751 0
-578 -647 -695 751 0
-578 -647 -696 751 0
-578 -647 -697 751 0
-578 -647 -698 751 0
-578 -647 -699 751 0
-579 -622 -674 738 0
-579 -622 -675 739 0
-579 -622 -676 740 0
-579 -622 -677 741 0
-579 -622 -678 742 0
-579 -622 -679 743 0
-579 -622 -680 744 0
-579 -622 -681 745 0
-579 -622 -682 746 0
-579 -622 -683 747 0
-579 -622 -684 748 0
-579 -622 -685 749 0
-579 -622 -686 750 0
-579 -622 -687 751 0
-579 -622 -688 751 0
-579 -622 -689 751 0
-579 -622 -690 751 0
-579 -622 -691 751 0
-579 -622 -692 751 0
-579 -622 -693 751 0
-579 -622 -694 751 0
-579 -622 -695 751 0
-579 -622 -696 751 0
-579 -622 -697 751 0
-579 -622 -698 751 0
-579 -622 -699 751 0
-579 -623 -674 739 0
-579 -623 -675 740 0
-579 -623 -676 741 0
-579 -623 -677 742 0
-579 -623 -678 743 0
-579 -623 -679 744 0
-579 -623 -680 745 0
-579 -623 -681 746 0
-579 -623 -682 747 0
-579 -623 -683 748 0
-579 -623 -684 749 0
-579 -623 -685 750 0
-579 -623 -686 751 0
-579 -623 -687 751 0
-579 -623 -688 751 0
-579 -623 -689 751 0
-579 -623 -690 751 0
-579 -623 -691 751 0
-579 -623 -692 751 0
-579 -623 -693 751 0
-579 -623 -694 751 0
-579 -623 -695 751 0
-579 -623 -696 751 0
-579 -623 -697 751 0
-579 -623 -698 751 0
-579 -623 -699 751 0
-579 -624 -674 740 0
-579 -624 -675 741 0
-579 -624 -676 742 0
-579 -624 -677 743 0
-579 -624 -678 744 0
-579 -624 -679 745 0
-579 -624 -680 746 0
-579 -624 -681 747 0
-579 -624 -682 748 0
-579 -624 -683 749 0
-579 -624 -684 750 0
-579 -624 -685 751 0
-579 -624 -686 751 0
-579 -624 -687 751 0
-579 -624 -688 751 0
-579 -624 -689 751 0
-579 -624 -690 751 0
-579 -624 -691 751 0
-579 -624 -692 751 0
-579 -624 -693 751 0
-579 -624 -694 751 0
-579 -624 -695 751 0
-579 -624 -696 751 0
-579 -624 -697 751 0
-579 -624 -698 751 0
-579 -624 -699 751 0
-579 -625 -674 741 0
-579 -625 -675 742 0
-579 -625 -676 743 0
-579 -625 -677 744 0
-579 -625 -678 745 0
-579 -625 -679 746 0
-579 -625 -680 747 0
-579 -625 -681 748 0
-579 -625 -682 749 0
-579 -625 -683 750 0
-579 -625 -684 751 0
-579 -625 -685 751 0
-579 -625 -686 751 0
-579 -625 -687 751 0
-579 -625 -688 751 0
-579 -625 -689 751 0
-579 -625 -690 751 0
-579 -625 -691 751 0
-579 -625 -692 751 0
-579 -625 -693 751 0
-579 -625 -694 751 0
-579 -625 -695 751 0
-579 -625 -696 751 0
-579 -625 -697 751 0
-579 -625 -698 751 0
-579 -625 -699 751 0
-579 -626 -674 742 0
-579 -626 -675 743 0
-579 -626 -676 744 0
-579 -626 -677 745 0
-579 -626 -678 746 0
-579 -626 -679 747 0
-579 -626 -680 748 0
-579 -626 -681 749 0
-579 -626 -682 750 0
-579 -626 -683 751 0
-579 -626 -684 751 0
-579 -626 -685 751 0
-579 -626 -686 751 0
-579 -626 -687 751 0
-579 -626 -688 751 0
-579 -626 -689 751 0
-579 -626 -690 751 0
-579 -626 -691 751 0
-579 -626 -692 751 0
-579 -626 -693 751 0
-579 -626 -694 751 0
-579 -626 -695 751 0
-579 -626 -696 751 0
-579 -626 -697 751 0
-579 -626 -698 751 0
-579 -626 -699 751 0
-579 -627 -674 743 0
-579 -627 -675 744 0
-579 -627 -676 745 0
-579 -627 -677 746 0
-579 -627 -678 747 0
-579 -627 -679 748 0
-579 -627 -680 749 0
-579 -627 -681 750 0
-579 -627 -682 751 0
-579 -627 -683 751 0
-579 -627 -684 751 0
-579 -627 -685 751 0
-579 -627 -686 751 0
-579 -627 -687 751 0
-579 -627 -688 751 0
-579 -627 -689 751 0
-579 -627 -690 751 0
-579 -627 -691 751 0
-579 -627 -692 751 0
-579 -627 -693 751 0
-579 -627 -694 751 0
-579 -627 -695 751 0
-579 -627 -696 751 0
-579 -627 -697 751 0
-579 -627 -698 751 0
-579 -627 -699 751 0
-579 -628 -674 744 0
-579 -628 -675 745 0
-579 -628 -676 746 0
-579 -628 -677 747 0
-579 -628 -678 748 0
-579 -628 -679 749 0
-579 -628 -680 750 0
-579 -628 -681 751 0
-579 -628 -682 751 0
-579 -628 -683 751 0
-579 -628 -684 751 0
-579 -628 -685 751 0
-579 -628 -686 751 0
-579 -628 -687 751 0
-579 -628 -688 751 0
-579 -628 -689 751 0
-579 -628 -690 751 0
-579 -628 -691 751 0
-579 -628 -692 751 0
-579 -628 -693 751 0
-579 -628 -694 751 0
-579 -628 -695 751 0
-579 -628 -696 751 0
-579 -628 -697 751 0
-579 -628 -698 751 0
-579 -628 -699 751 0
-579 -629 -674 745 0
-579 -629 -675 746 0
-579 -629 -676 747 0
-579 -629 -677 748 0
-579 -629 -678 749 0
-579 -629 -679 750 0
-579 -629 -680 751 0
-579 -629 -681 751 0
-579 -629 -682 751 0
-579 -629 -683 751 0
-579 -629 -684 751 0
-579 -629 -685 751 0
-579 -629 -686 751 0
-579 -629 -687 751 0
-579 -629 -688 751 0
-579 -629 -689 751 0
-579 -629 -690 751 0
-579 -629 -691 751 0
-579 -629 -692 751 0
-579 -629 -693 751 0
-579 -629 -694 751 0
-579 -629 -695 751 0
-579 -629 -696 751 0
-579 -629 -697 751 0
-579 -629 -698 751 0
-579 -629 -699 751 0
-579 -630 -674 746 0
-579 -630 -675 747 0
-579 -630 -676 748 0
-579 -630 -677 749 0
-579 -630 -678 750 0
-579 -630 -679 751 0
-579 -630 -680 751 0
-579 -630 -681 751 0
-579 -630 -682 751 0
-579 -630 -683 751 0
-579 -630 -684 751 0
-579 -630 -685 751 0
-579 -630 -686 751 0
-579 -630 -687 751 0
-579 -630 -688 751 0
-579 -630 -689 751 0
-579 -630 -690 751 0
-579 -630 -691 751 0
-579 -630 -692 751 0
-579 -630 -693 751 0
-579 -630 -694 751 0
-579 -630 -695 751 0
-579 -630 -696 751 0
-579 -630 -697 751 0
-579 -630 -698 751 0
-579 -630 -699 751 0
-579 -631 -674 747 0
-579 -631 -675 748 0
-579 -631 -676 749 0
-579 -631 -677 750 0
-579 -631 -678 751 0
-579 -631 -679 751 0
-579 -631 -680 751 0
-579 -631 -681 751 0
-579 -631 -682 751 0
-579 -631 -683 751 0
-579 -631 -684 751 0
-579 -631 -685 751 0
-579 -631 -686 751 0
-579 -631 -687 751 0
-579 -631 -688 751 0
-579 -631 -689 751 0
-579 -631 -690 751 0
-579 -631 -691 751 0
-579 -631 -692 751 0
-579 -631 -693 751 0
-579 -631 -694 751 0
-579 -631 -695 751 0
-579 -631 -696 751 0
-579 -631 -697 751 0
-579 -631 -698 751 0
-579 -631 -699 751 0
-579 -632 -674 748 0
-579 -632 -675 749 0
-579 -632 -676 750 0
-579 -632 -677 751 0
-579 -632 -678 751 0
-579 -632 -679 751 0
-579 -632 -680 751 0
-579 -632 -681 751 0
-579 -632 -682 751 0
-579 -632 -683 751 0
-579 -632 -684 751 0
-579 -632 -685 751 0
-579 -632 -686 751 0
-579 -632 -687 751 0
-579 -632 -688 751 0
-579 -632 -689 751 0
-579 -632 -690 751 0
-579 -632 -691 751 0
-579 -632 -692 751 0
-579 -632 -693 751 0
-579 -632 -694 751 0
-579 -632 -695 751 0
-579 -632 -696 751 0
-579 -632 -697 751 0
-579 -632 -698 751 0
-579 -632 -699 751 0
-579 -633 -674 749 0
-579 -633 -675 750 0
-579 -633 -676 751 0
-579 -633 -677 751 0
-579 -633 -678 751 0
-579 -633 -679 751 0
-579 -633 -680 751 0
-579 -633 -681 751 0
-579 -633 -682 751 0
-579 -633 -683 751 0
-579 -633 -684 751 0
-579 -633 -685 751 0
-579 -633 -686 751 0
-579 -633 -687 751 0
-579 -633 -688 751 0
-579 -633 -689 751 0
-579 -633 -690 751 0
-579 -633 -691 751 0
-579 -633 -692 751 0
-579 -633 -693 751 0
-579 -633 -694 751 0
-579 -633 -695 751 0
-579 -633 -696 751 0
-579 -633 -697 751 0
-579 -633 -698 751 0
-579 -633 -699 751 0
-579 -634 -674 750 0
-579 -634 -675 751 0
-579 -634 -676 751 0
-579 -634 -677 751 0
-579 -634 -678 751 0
-579 -634 -679 751 0
-579 -634 -680 751 0
-579 -634 -681 751 0
-579 -634 -682 751 0
-579 -634 -683 751 0
-579 -634 -684 751 0
-579 -634 -685 751 0
-579 -634 -686 751 0
-579 -634 -687 751 0
-579 -634 -688 751 0
-579 -634 -689 751 0
-579 -634 -690 751 0
-579 -634 -691 751 0
-579 -634 -692 751 0
-579 -634 -693 751 0
-579 -634 -694 751 0
-579 -634 -695 751 0
-579 -634 -696 751 0
-579 -634 -697 751 0
-579 -634 -698 751 0
-579 -634 -699 751 0
-579 -635 -674 751 0
-579 -635 -675 751 0
-579 -635 -676 751 0
-579 -635 -677 751 0
-579 -635 -678 751 0
-579 -635 -679 751 0
-579 -635 -680 751 0
-579 -635 -681 751 0
-579 -635 -682 751 0
-579 -635 -683 751 0
-579 -635 -684 751 0
-579 -635 -685 751 0
-579 -635 -686 751 0
-579 -635 -687 751 0
-579 -635 -688 751 0
-579 -635 -689 751 0
-579 -635 -690 751 0
-579 -635 -691 751 0
-579 -635 -692 751 0
-579 -635 -693 751 0
-579 -635 -694 751 0
-579 -635 -695 751 0
-579 -635 -696 751 0
-579 -635 -697 751 0
-579 -635 -698 751 0
-579 -635 -699 751 0
-579 -636 -674 751 0
-579 -636 -675 751 0
-579 -636 -676 751 0
-579 -636 -677 751 0
-579 -636 -678 751 0
-579 -636 -679 751 0
-579 -636 -680 751 0
-579 -636 -681 751 0
-579 -636 -682 751 0
-579 -636 -683 751 0
-579 -636 -684 751 0
-579 -636 -685 751 0
-579 -636 -686 751 0
-579 -636 -687 751 0
-579 -636 -688 751 0
-579 -636 -689 751 0
-579 -636 -690 751 0
-579 -636 -691 751 0
-579 -636 -692 751 0
-579 -636 -693 751 0
-579 -636 -694 751 0
-579 -636 -695 751 0
-579 -636 -696 751 0
-579 -636 -697 751 0
-579 -636 -698 751 0
-579 -636 -699 751 0
-579 -637 -674 751 0
-579 -637 -675 751 0
-579 -637 -676 751 0
-579 -637 -677 751 0
-579 -637 -678 751 0
-579 -637 -679 751 0
-579 -637 -680 751 0
-579 -637 -681 751 0
-579 -637 -682 751 0
-579 -637 -683 751 0
-579 -637 -684 751 0
-579 -637 -685 751 0
-579 -637 -686 751 0
-579 -637 -687 751 0
-579 -637 -688 751 0
-579 -637 -689 751 0
-579 -637 -690 751 0
-579 -637 -691 751 0
-579 -637 -692 751 0
-579 -637 -693 751 0
-579 -637 -694 751 0
-579 -637 -695 751 0
-579 -637 -696 751 0
-579 -637 -697 751 0
-579 -637 -698 751 0
-579 -637 -699 751 0
-579 -638 -674 751 0
-579 -638 -675 751 0
-579 -638 -676 751 0
-579 -638 -677 751 0
-579 -638 -678 751 0
-579 -638 -679 751 0
-579 -638 -680 751 0
-579 -638 -681 751 0
-579 -638 -682 751 0
-579 -638 -683 751 0
-579 -638 -684 751 0
-579 -638 -685 751 0
-579 -638 -686 751 0
-579 -638 -687 751 0
-579 -638 -688 751 0
-579 -638 -689 751 0
-579 -638 -690 751 0
-579 -638 -691 751 0
-579 -638 -692 751 0
-579 -638 -693 751 0
-579 -638 -694 751 0
-579 -638 -695 751 0
-579 -638 -696 751 0
-579 -638 -697 751 0
-579 -638 -698 751 0
-579 -638 -699 751 0
-579 -639 -674 751 0
-579 -639 -675 751 0
-579 -639 -676 751 0
-579 -639 -677 751 0
-579 -639 -678 751 0
-579 -639 -679 751 0
-579 -639 -680 751 0
-579 -639 -681 751 0
-579 -639 -682 751 0
-579 -639 -683 751 0
-579 -639 -684 751 0
-579 -639 -685 751 0
-579 -639 -686 751 0
-579 -639 -687 751 0
-579 -639 -688 751 0
-579 -639 -689 751 0
-579 -639 -690 751 0
-579 -639 -691 751 0
-579 -639 -692 751 0
-579 -639 -693 751 0
-579 -639 -694 751 0
-579 -639 -695 751 0
-579 -639 -696 751 0
-579 -639 -697 751 0
-579 -639 -698 751 0
-579 -639 -699 751 0
-579 -640 -674 751 0
-579 -640 -675 751 0
-579 -640 -676 751 0
-579 -640 -677 751 0
-579 -640 -678 751 0
-579 -640 -679 751 0
-579 -640 -680 751 0
-579 -640 -681 751 0
-579 -640 -682 751 0
-579 -640 -683 751 0
-579 -640 -684 751 0
-579 -640 -685 751 0
-579 -640 -686 751 0
-579 -640 -687 751 0
-579 -640 -688 751 0
-579 -640 -689 751 0
-579 -640 -690 751 0
-579 -640 -691 751 0
-579 -640 -692 751 0
-579 -640 -693 751 0
-579 -640 -694 751 0
-579 -640 -695 751 0
-579 -640 -696 751 0
-579 -640 -697 751 0
-579 -640 -698 751 0
-579 -640 -699 751 0
-579 -641 -674 751 0
-579 -641 -675 751 0
-579 -641 -676 751 0
-579 -641 -677 751 0
-579 -641 -678 751 0
-579 -641 -679 751 0
-579 -641 -680 751 0
-579 -641 -681 751 0
-579 -641 -682 751 0
-579 -641 -683 751 0
-579 -641 -684 751 0
-579 -641 -685 751 0
-579 -641 -686 751 0
-579 -641 -687 751 0
-579 -641 -688 751 0
-579 -641 -689 751 0
-579 -641 -690 751 0
-579 -641 -691 751 0
-579 -641 -692 751 0
-579 -641 -693 751 0
-579 -641 -694 751 0
-579 -641 -695 751 0
-579 -641 -696 751 0
-579 -641 -697 751 0
-579 -641 -698 751 0
-579 -641 -699 751 0
-579 -642 -674 751 0
-579 -642 -675 751 0
-579 -642 -676 751 0
-579 -642 -677 751 0
-579 -642 -678 751 0
-579 -642 -679 751 0
-579 -642 -680 751 0
-579 -642 -681 751 0
-579 -642 -682 751 0
-579 -642 -683 751 0
-579 -642 -684 751 0
-579 -642 -685 751 0
-579 -642 -686 751 0
-579 -642 -687 751 0
-579 -642 -688 751 0
-579 -642 -689 751 0
-579 -642 -690 751 0
-579 -642 -691 751 0
-579 -642 -692 751 0
-579 -642 -693 751 0
-579 -642 -694 751 0
-579 -642 -695 751 0
-579 -642 -696 751 0
-579 -642 -697 751 0
-579 -642 -698 751 0
-579 -642 -699 751 0
-579 -643 -674 751 0
-579 -643 -675 751 0
-579 -643 -676 751 0
-579 -643 -677 751 0
-579 -643 -678 751 0
-579 -643 -679 751 0
-579 -643 -680 751 0
-579 -643 -681 751 0
-579 -643 -682 751 0
-579 -643 -683 751 0
-579 -643 -684 751 0
-579 -643 -685 751 0
-579 -643 -686 751 0
-579 -643 -687 751 0
-579 -643 -688 751 0
-579 -643 -689 751 0
-579 -643 -690 751 0
-579 -643 -691 751 0
-579 -643 -692 751 0
-579 -643 -693 751 0
-579 -643 -694 751 0
-579 -643 -695 751 0
-579 -643 -696 751 0
-579 -643 -697 751 0
-579 -643 -698 751 0
-579 -643 -699 751 0
-579 -644 -674 751 0
-579 -644 -675 751 0
-579 -644 -676 751 0
-579 -644 -677 751 0
-579 -644 -678 751 0
-579 -644 -679 751 0
-579 -644 -680 751 0
-579 -644 -681 751 0
-579 -644 -682 751 0
-579 -644 -683 751 0
-579 -644 -684 751 0
-579 -644 -685 751 0
-579 -644 -686 751 0
-579 -644 -687 751 0
-579 -644 -688 751 0
-579 -644 -689 751 0
-579 -644 -690 751 0
-579 -644 -691 751 0
-579 -644 -692 751 0
-579 -644 -693 751 0
-579 -644 -694 751 0
-579 -644 -695 751 0
-579 -644 -696 751 0
-579 -644 -697 751 0
-579 -644 -698 751 0
-579 -644 -699 751 0
-579 -645 -674 751 0
-579 -645 -675 751 0
-579 -645 -676 751 0
-579 -645 -677 751 0
-579 -645 -678 751 0
-579 -645 -679 751 0
-579 -645 -680 751 0
-579 -645 -681 751 0
-579 -645 -682 751 0
-579 -645 -683 751 0
-579 -645 -684 751 0
-579 -645 -685 751 0
-579 -645 -686 751 0
-579 -645 -687 751 0
-579 -645 -688 751 0
-579 -645 -689 751 0
-579 -645 -690 751 0
-579 -645 -691 751 0
-579 -645 -692 751 0
-579 -645 -693 751 0
-579 -645 -694 751 0
-579 -645 -695 751 0
-579 -645 -696 751 0
-579 -645 -697 751 0
-579 -645 -698 751 0
-579 -645 -699 751 0
-579 -646 -674 751 0
-579 -646 -675 751 0
-579 -646 -676 751 0
-579 -646 -677 751 0
-579 -646 -678 751 0
-579 -646 -679 751 0
-579 -646 -680 751 0
-579 -646 -681 751 0
-579 -646 -682 751 0
-579 -646 -683 751 0
-579 -646 -684 751 0
-579 -646 -685 751 0
-579 -646 -686 751 0
-579 -646 -687 751 0
-579 -646 -688 751 0
-579 -646 -689 751 0
-579 -646 -690 751 0
-579 -646 -691 751 0
-579 -646 -692 751 0
-579 -646 -693 751 0
-579 -646 -694 751 0
-579 -646 -695 751 0
-579 -646 -696 751 0
-579 -646 -697 751 0
-579 -646 -698 751 0
-579 -646 -699 751 0
-579 -647 -674 751 0
-579 -647 -675 751 0
-579 -647 -676 751 0
-579 -647 -677 751 0
-579 -647 -678 751 0
-579 -647 -679 751 0
-579 -647 -680 751 0
-579 -647 -681 751 0
-579 -647 -682 751 0
-579 -647 -683 751 0
-579 -647 -684 751 0
-579 -647 -685 751 0
-579 -647 -686 751 0
-579 -647 -687 751 0
-579 -647 -688 751 0
-579 -647 -689 751 0
-579 -647 -690 751 0
-579 -647 -691 751 0
-579 -647 -692 751 0
-579 -647 -693 751 0
-579 -647 -694 751 0
-579 -647 -695 751 0
-579 -647 -696 751 0
-579 -647 -697 751 0
-579 -647 -698 751 0
-579 -647 -699 751 0
-580 -622 -674 739 0
-580 -622 -675 740 0
-580 -622 -676 741 0
-580 -622 -677 742 0
-580 -622 -678 743 0
-580 -622 -679 744 0
-580 -622 -680 745 0
-580 -622 -681 746 0
-580 -622 -682 747 0
-580 -622 -683 748 0
-580 -622 -684 749 0
-580 -622 -685 750 0
-580 -622 -686 751 0
-580 -622 -687 751 0
-580 -622 -688 751 0
-580 -622 -689 751 0
-580 -622 -690 751 0
-580 -622 -691 751 0
-580 -622 -692 751 0
-580 -622 -693 751 0
-580 -622 -694 751 0
-580 -622 -695 751 0
-580 -622 -696 751 0
-580 -622 -697 751 0
-580 -622 -698 751 0
-580 -622 -699 751 0
-580 -623 -674 740 0
-580 -623 -675 741 0
-580 -623 -676 742 0
-580 -623 -677 743 0
-580 -623 -678 744 0
-580 -623 -679 745 0
-580 -623 -680 746 0
-580 -623 -681 747 0
-580 -623 -682 748 0
-580 -623 -683 749 0
-580 -623 -684 750 0
-580 -623 -685 751 0
-580 -623 -686 751 0
-580 -623 -687 751 0
-580 -623 -688 751 0
-580 -623 -689 751 0
-580 -623 -690 751 0
-580 -623 -691 751 0
-580 -623 -692 751 0
-580 -623 -693 751 0
-580 -623 -694 751 0
-580 -623 -695 751 0
-580 -623 -696 751 0
-580 -623 -697 751 0
-580 -623 -698 751 0
-580 -623 -699 751 0
-580 -624 -674 741 0
-580 -624 -675 742 0
-580 -624 -676 743 0
-580 -624 -677 744 0
-580 -624 -678 745 0
-580 -624 -679 746 0
-580 -624 -680 747 0
-580 -624 -681 748 0
-580 -624 -682 749 0
-580 -624 -683 750 0
-580 -624 -684 751 0
-580 -624 -685 751 0
-580 -624 -686 751 0
-580 -624 -687 751 0
-580 -624 -688 751 0
-580 -624 -689 751 0
-580 -624 -690 751 0
-580 -624 -691 751 0
-580 -624 -692 751 0
-580 -624 -693 751 0
-580 -624 -694 751 0
-580 -624 -695 751 0
-580 -624 -696 751 0
-580 -624 -697 751 0
-580 -624 -698 751 0
-580 -624 -699 751 0
-580 -625 -674 742 0
-580 -625 -675 743 0
-580 -625 -676 744 0
-580 -625 -677 745 0
-580 -625 -678 746 0
-580 -625 -679 747 0
-580 -625 -680 748 0
-580 -625 -681 749 0
-580 -625 -682 750 0
-580 -625 -683 751 0
-580 -625 -684 751 0
-580 -625 -685 751 0
-580 -625 -686 751 0
-580 -625 -687 751 0
-580 -625 -688 751 0
-580 -625 -689 751 0
-580 -625 -690 751 0
-580 -625 -691 751 0
-580 -625 -692 751 0
-580 -625 -693 751 0
-580 -625 -694 751 0
-580 -625 -695 751 0
-580 -625 -696 751 0
-580 -625 -697 751 0
-580 -625 -698 751 0
-580 -625 -699 751 0
-580 -626 -674 743 0
-580 -626 -675 744 0
-580 -626 -676 745 0
-580 -626 -677 746 0
-580 -626 -678 747 0
-580 -626 -679 748 0
-580 -626 -680 749 0
-580 -626 -681 750 0
-580 -626 -682 751 0
-580 -626 -683 751 0
-580 -626 -684 751 0
-580 -626 -685 751 0
-580 -626 -686 751 0
-580 -626 -687 751 0
-580 -626 -688 751 0
-580 -626 -689 751 0
-580 -626 -690 751 0
-580 -626 -691 751 0
-580 -626 -692 751 0
-580 -626 -693 751 0
-580 -626 -694 751 0
-580 -626 -695 751 0
-580 -626 -696 751 0
-580 -626 -697 751 0
-580 -626 -698 751 0
-580 -626 -699 751 0
-580 -627 -674 744 0
-580 -627 -675 745 0
-580 -627 -676 746 0
-580 -627 -677 747 0
-580 -627 -678 748 0
-580 -627 -679 749 0
-580 -627 -680 750 0
-580 -627 -681 751 0
-580 -627 -682 751 0
-580 -627 -683 751 0
-580 -627 -684 751 0
-580 -627 -685 751 0
-580 -627 -686 751 0
-580 -627 -687 751 0
-580 -627 -688 751 0
-580 -627 -689 751 0
-580 -627 -690 751 0
-580 -627 -691 751 0
-580 -627 -692 751 0
-580 -627 -693 751 0
-580 -627 -694 751 0
-580 -627 -695 751 0
-580 -627 -696 751 0
-580 -627 -697 751 0
-580 -627 -698 751 0
-580 -627 -699 751 0
-580 -628 -674 745 0
-580 -628 -675 746 0
-580 -628 -676 747 0
-580 -628 -677 748 0
-580 -628 -678 749 0
-580 -628 -679 750 0
-580 -628 -680 751 0
-580 -628 -681 751 0
-580 -628 -682 751 0
-580 -628 -683 751 0
-580 -628 -684 751 0
-580 -628 -685 751 0
-580 -628 -686 751 0
-580 -628 -687 751 0
-580 -628 -688 751 0
-580 -628 -689 751 0
-580 -628 -690 751 0
-580 -628 -691 751 0
-580 -628 -692 751 0
-580 -628 -693 751 0
-580 -628 -694 751 0
-580 -628 -695 751 0
-580 -628 -696 751 0
-580 -628 -697 751 0
-580 -628 -698 751 0
-580 -628 -699 751 0
-580 -629 -674 746 0
-580 -629 -675 747 0
-580 -629 -676 748 0
-580 -629 -677 749 0
-580 -629 -678 750 0
-580 -629 -679 751 0
-580 -629 -680 751 0
-580 -629 -681 751 0
-580 -629 -682 751 0
-580 -629 -683 751 0
-580 -629 -684 751 0
-580 -629 -685 751 0
-580 -629 -686 751 0
-580 -629 -687 751 0
-580 -629 -688 751 0
-580 -629 -689 751 0
-580 -629 -690 751 0
-580 -629 -691 751 0
-580 -629 -692 751 0
-580 -629 -693 751 0
-580 -629 -694 751 0
-580 -629 -695 751 0
-580 -629 -696 751 0
-580 -629 -697 751 0
-580 -629 -698 751 0
-580 -629 -699 751 0
-580 -630 -674 747 0
-580 -630 -675 748 0
-580 -630 -676 749 0
-580 -630 -677 750 0
-580 -630 -678 751 0
-580 -630 -679 751 0
-580 -630 -680 751 0
-580 -630 -681 751 0
-580 -630 -682 751 0
-580 -630 -683 751 0
-580 -630 -684 751 0
-580 -630 -685 751 0
-580 -630 -686 751 0
-580 -630 -687 751 0
-580 -630 -688 751 0
-580 -630 -689 751 0
-580 -630 -690 751 0
-580 -630 -691 751 0
-580 -630 -692 751 0
-580 -630 -693 751 0
-580 -630 -694 751 0
-580 -630 -695 751 0
-580 -630 -696 751 0
-580 -630 -697 751 0
-580 -630 -698 751 0
-580 -630 -699 751 0
-580 -631 -674 748 0
-580 -631 -675 749 0
-580 -631 -676 750 0
-580 -631 -677 751 0
-580 -631 -678 751 0
-580 -631 -679 751 0
-580 -631 -680 751 0
-580 -631 -681 751 0
-580 -631 -682 751 0
-580 -631 -683 751 0
-580 -631 -684 751 0
-580 -631 -685 751 0
-580 -631 -686 751 0
-580 -631 -687 751 0
-580 -631 -688 751 0
-580 -631 -689 751 0
-580 -631 -690 751 0
-580 -631 -691 751 0
-580 -631 -692 751 0
-580 -631 -693 751 0
-580 -631 -694 751 0
-580 -631 -695 751 0
-580 -631 -696 751 0
-580 -631 -697 751 0
-580 -631 -698 751 0
-580 -631 -699 751 0
-580 -632 -674 749 0
-580 -632 -675 750 0
-580 -632 -676 751 0
-580 -632 -677 751 0
-580 -632 -678 751 0
-580 -632 -679 751 0
-580 -632 -680 751 0
-580 -632 -681 751 0
-580 -632 -682 751 0
-580 -632 -683 751 0
-580 -632 -684 751 0
-580 -632 -685 751 0
-580 -632 -686 751 0
-580 -632 -687 751 0
-580 -632 -688 751 0
-580 -632 -689 751 0
-580 -632 -690 751 0
-580 -632 -691 751 0
-580 -632 -692 751 0
-580 -632 -693 751 0
-580 -632 -694 751 0
-580 -632 -695 751 0
-580 -632 -696 751 0
-580 -632 -697 751 0
-580 -632 -698 751 0
-580 -632 -699 751 0
-580 -633 -674 750 0
-580 -633 -675 751 0
-580 -633 -676 751 0
-580 -633 -677 751 0
-580 -633 -678 751 0
-580 -633 -679 751 0
-580 -633 -680 751 0
-580 -633 -681 751 0
-580 -633 -682 751 0
-580 -633 -683 751 0
-580 -633 -684 751 0
-580 -633 -685 751 0
-580 -633 -686 751 0
-580 -633 -687 751 0
-580 -633 -688 751 0
-580 -633 -689 751 0
-580 -633 -690 751 0
-580 -633 -691 751 0
-580 -633 -692 751 0
-580 -633 -693 751 0
-580 -633 -694 751 0
-580 -633 -695 751 0
-580 -633 -696 751 0
-580 -633 -697 751 0
-580 -633 -698 751 0
-580 -633 -699 751 0
-580 -634 -674 751 0
-580 -634 -675 751 0
-580 -634 -676 751 0
-580 -634 -677 751 0
-580 -634 -678 751 0
-580 -634 -679 751 0
-580 -634 -680 751 0
-580 -634 -681 751 0
-580 -634 -682 751 0
-580 -634 -683 751 0
-580 -634 -684 751 0
-580 -634 -685 751 0
-580 -634 -686 751 0
-580 -634 -687 751 0
-580 -634 -688 751 0
-580 -634 -689 751 0
-580 -634 -690 751 0
-580 -634 -691 751 0
-580 -634 -692 751 0
-580 -634 -693 751 0
-580 -634 -694 751 0
-580 -634 -695 751 0
-580 -634 -696 751 0
-580 -634 -697 751 0
-580 -634 -698 751 0
-580 -634 -699 751 0
-580 -635 -674 751 0
-580 -635 -675 751 0
-580 -635 -676 751 0
-580 -635 -677 751 0
-580 -635 -678 751 0
-580 -635 -679 751 0
-580 -635 -680 751 0
-580 -635 -681 751 0
-580 -635 -682 751 0
-580 -635 -683 751 0
-580 -635 -684 751 0
-580 -635 -685 751 0
-580 -635 -686 751 0
-580 -635 -687 751 0
-580 -635 -688 751 0
-580 -635 -689 751 0
-580 -635 -690 751 0
-580 -635 -691 751 0
-580 -635 -692 751 0
-580 -635 -693 751 0
-580 -635 -694 751 0
-580 -635 -695 751 0
-580 -635 -696 751 0
-580 -635 -697 751 0
-580 -635 -698 751 0
-580 -635 -699 751 0
-580 -636 -674 751 0
-580 -636 -675 751 0
-580 -636 -676 751 0
-580 -636 -677 751 0
-580 -636 -678 751 0
-580 -636 -679 751 0
-580 -636 -680 751 0
-580 -636 -681 751 0
-580 -636 -682 751 0
-580 -636 -683 751 0
-580 -636 -684 751 0
-580 -636 -685 751 0
-580 -636 -686 751 0
-580 -636 -687 751 0
-580 -636 -688 751 0
-580 -636 -689 751 0
-580 -636 -690 751 0
-580 -636 -691 751 0
-580 -636 -692 751 0
-580 -636 -693 751 0
-580 -636 -694 751 0
-580 -636 -695 751 0
-580 -636 -696 751 0
-580 -636 -697 751 0
-580 -636 -698 751 0
-580 -636 -699 751 0
-580 -637 -674 751 0
-580 -637 -675 751 0
-580 -637 -676 751 0
-580 -637 -677 751 0
-580 -637 -678 751 0
-580 -637 -679 751 0
-580 -637 -680 751 0
-580 -637 -681 751 0
-580 -637 -682 751 0
-580 -637 -683 751 0
-580 -637 -684 751 0
-580 -637 -685 751 0
-580 -637 -686 751 0
-580 -637 -687 751 0
-580 -637 -688 751 0
-580 -637 -689 751 0
-580 -637 -690 751 0
-580 -637 -691 751 0
-580 -637 -692 751 0
-580 -637 -693 751 0
-580 -637 -694 751 0
-580 -637 -695 751 0
-580 -637 -696 751 0
-580 -637 -697 751 0
-580 -637 -698 751 0
-580 -637 -699 751 0
-580 -638 -674 751 0
-580 -638 -675 751 0
-580 -638 -676 751 0
-580 -638 -677 751 0
-580 -638 -678 751 0
-580 -638 -679 751 0
-580 -638 -680 751 0
-580 -638 -681 751 0
-580 -638 -682 751 0
-580 -638 -683 751 0
-580 -638 -684 751 0
-580 -638 -685 751 0
-580 -638 -686 751 0
-580 -638 -687 751 0
-580 -638 -688 751 0
-580 -638 -689 751 0
-580 -638 -690 751 0
-580 -638 -691 751 0
-580 -638 -692 751 0
-580 -638 -693 751 0
-580 -638 -694 751 0
-580 -638 -695 751 0
-580 -638 -696 751 0
-580 -638 -697 751 0
-580 -638 -698 751 0
-580 -638 -699 751 0
-580 -639 -674 751 0
-580 -639 -675 751 0
-580 -639 -676 751 0
-580 -639 -677 751 0
-580 -639 -678 751 0
-580 -639 -679 751 0
-580 -639 -680 751 0
-580 -639 -681 751 0
-580 -639 -682 751 0
-580 -639 -683 751 0
-580 -639 -684 751 0
-580 -639 -685 751 0
-580 -639 -686 751 0
-580 -639 -687 751 0
-580 -639 -688 751 0
-580 -639 -689 751 0
-580 -639 -690 751 0
-580 -639 -691 751 0
-580 -639 -692 751 0
-580 -639 -693 751 0
-580 -639 -694 751 0
-580 -639 -695 751 0
-580 -639 -696 751 0
-580 -639 -697 751 0
-580 -639 -698 751 0
-580 -639 -699 751 0
-580 -640 -674 751 0
-580 -640 -675 751 0
-580 -640 -676 751 0
-580 -640 -677 751 0
-580 -640 -678 751 0
-580 -640 -679 751 0
-580 -640 -680 751 0
-580 -640 -681 751 0
-580 -640 -682 751 0
-580 -640 -683 751 0
-580 -640 -684 751 0
-580 -640 -685 751 0
-580 -640 -686 751 0
-580 -640 -687 751 0
-580 -640 -688 751 0
-580 -640 -689 751 0
-580 -640 -690 751 0
-580 -640 -691 751 0
-580 -640 -692 751 0
-580 -640 -693 751 0
-580 -640 -694 751 0
-580 -640 -695 751 0
-580 -640 -696 751 0
-580 -640 -697 751 0
-580 -640 -698 751 0
-580 -640 -699 751 0
-580 -641 -674 751 0
-580 -641 -675 751 0
-580 -641 -676 751 0
-580 -641 -677 751 0
-580 -641 -678 751 0
-580 -641 -679 751 0
-580 -641 -680 751 0
-580 -641 -681 751 0
-580 -641 -682 751 0
-580 -641 -683 751 0
-580 -641 -684 751 0
-580 -641 -685 751 0
-580 -641 -686 751 0
-580 -641 -687 751 0
-580 -641 -688 751 0
-580 -641 -689 751 0
-580 -641 -690 751 0
-580 -641 -691 751 0
-580 -641 -692 751 0
-580 -641 -693 751 0
-580 -641 -694 751 0
-580 -641 -695 751 0
-580 -641 -696 751 0
-580 -641 -697 751 0
-580 -641 -698 751 0
-580 -641 -699 751 0
-580 -642 -674 751 0
-580 -642 -675 751 0
-580 -642 -676 751 0
-580 -642 -677 751 0
-580 -642 -678 751 0
-580 -642 -679 751 0
-580 -642 -680 751 0
-580 -642 -681 751 0
-580 -642 -682 751 0
-580 -642 -683 751 0
-580 -642 -684 751 0
-580 -642 -685 751 0
-580 -642 -686 751 0
-580 -642 -687 751 0
-580 -642 -688 751 0
-580 -642 -689 751 0
-580 -642 -690 751 0
-580 -642 -691 751 0
-580 -642 -692 751 0
-580 -642 -693 751 0
-580 -642 -694 751 0
-580 -642 -695 751 0
-580 -642 -696 751 0
-580 -642 -697 751 0
-580 -642 -698 751 0
-580 -642 -699 751 0
-580 -643 -674 751 0
-580 -643 -675 751 0
-580 -643 -676 751 0
-580 -643 -677 751 0
-580 -643 -678 751 0
-580 -643 -679 751 0
-580 -643 -680 751 0
-580 -643 -681 751 0
-580 -643 -682 751 0
-580 -643 -683 751 0
-580 -643 -684 751 0
-580 -643 -685 751 0
-580 -643 -686 751 0
-580 -643 -687 751 0
-580 -643 -688 751 0
-580 -643 -689 751 0
-580 -643 -690 751 0
-580 -643 -691 751 0
-580 -643 -692 751 0
-580 -643 -693 751 0
-580 -643 -694 751 0
-580 -643 -695 751 0
-580 -643 -696 751 0
-580 -643 -697 751 0
-580 -643 -698 751 0
-580 -643 -699 751 0
-580 -644 -674 751 0
-580 -644 -675 751 0
-580 -644 -676 751 0
-580 -644 -677 751 0
-580 -644 -678 751 0
-580 -644 -679 751 0
-580 -644 -680 751 0
-580 -644 -681 751 0
-580 -644 -682 751 0
-580 -644 -683 751 0
-580 -644 -684 751 0
-580 -644 -685 751 0
-580 -644 -686 751 0
-580 -644 -687 751 0
-580 -644 -688 751 0
-580 -644 -689 751 0
-580 -644 -690 751 0
-580 -644 -691 751 0
-580 -644 -692 751 0
-580 -644 -693 751 0
-580 -644 -694 751 0
-580 -644 -695 751 0
-580 -644 -696 751 0
-580 -644 -697 751 0
-580 -644 -698 751 0
-580 -644 -699 751 0
-580 -645 -674 751 0
-580 -645 -675 751 0
-580 -645 -676 751 0
-580 -645 -677 751 0
-580 -645 -678 751 0
-580 -645 -679 751 0
-580 -645 -680 751 0
-580 -645 -681 751 0
-580 -645 -682 751 0
-580 -645 -683 751 0
-580 -645 -684 751 0
-580 -645 -685 751 0
-580 -645 -686 751 0
-580 -645 -687 751 0
-580 -645 -688 751 0
-580 -645 -689 751 0
-580 -645 -690 751 0
-580 -645 -691 751 0
-580 -645 -692 751 0
-580 -645 -693 751 0
-580 -645 -694 751 0
-580 -645 -695 751 0
-580 -645 -696 751 0
-580 -645 -697 751 0
-580 -645 -698 751 0
-580 -645 -699 751 0
-580 -646 -674 751 0
-580 -646 -675 751 0
-580 -646 -676 751 0
-580 -646 -677 751 0
-580 -646 -678 751 0
-580 -646 -679 751 0
-580 -646 -680 751 0
-580 -646 -681 751 0
-580 -646 -682 751 0
-580 -646 -683 751 0
-580 -646 -684 751 0
-580 -646 -685 751 0
-580 -646 -686 751 0
-580 -646 -687 751 0
-580 -646 -688 751 0
-580 -646 -689 751 0
-580 -646 -690 751 0
-580 -646 -691 751 0
-580 -646 -692 751 0
-580 -646 -693 751 0
-580 -646 -694 751 0
-580 -646 -695 751 0
-580 -646 -696 751 0
-580 -646 -697 751 0
-580 -646 -698 751 0
-580 -646 -699 751 0
-580 -647 -674 751 0
-580 -647 -675 751 0
-580 -647 -676 751 0
-580 -647 -677 751 0
-580 -647 -678 751 0
-580 -647 -679 751 0
-580 -647 -680 751 0
-580 -647 -681 751 0
-580 -647 -682 751 0
-580 -647 -683 751 0
-580 -647 -684 751 0
-580 -647 -685 751 0
-580 -647 -686 751 0
-580 -647 -687 751 0
-580 -647 -688 751 0
-580 -647 -689 751 0
-580 -647 -690 751 0
-580 -647 -691 751 0
-580 -647 -692 751 0
-580 -647 -693 751 0
-580 -647 -694 751 0
-580 -647 -695 751 0
-580 -647 -696 751 0
-580 -647 -697 751 0
-580 -647 -698 751 0
-580 -647 -699 751 0
-581 -622 -674 740 0
-581 -622 -675 741 0
-581 -622 -676 742 0
-581 -622 -677 743 0
-581 -622 -678 744 0
-581 -622 -679 745 0
-581 -622 -680 746 0
-581 -622 -681 747 0
-581 -622 -682 748 0
-581 -622 -683 749 0
-581 -622 -684 750 0
-581 -622 -685 751 0
-581 -622 -686 751 0
-581 -622 -687 751 0
-581 -622 -688 751 0
-581 -622 -689 751 0
-581 -622 -690 751 0
-581 -622 -691 751 0
-581 -622 -692 751 0
-581 -622 -693 751 0
-581 -622 -694 751 0
-581 -622 -695 751 0
-581 -622 -696 751 0
-581 -622 -697 751 0
-581 -622 -698 751 0
-581 -622 -699 751 0
-581 -623 -674 741 0
-581 -623 -675 742 0
-581 -623 -676 743 0
-581 -623 -677 744 0
-581 -623 -678 745 0
-581 -623 -679 746 0
-581 -623 -680 747 0
-581 -623 -681 748 0
-581 -623 -682 749 0
-581 -623 -683 750 0
-581 -623 -684 751 0
-581 -623 -685 751 0
-581 -623 -686 751 0
-581 -623 -687 751 0
-581 -623 -688 751 0
-581 -623 -689 751 0
-581 -623 -690 751 0
-581 -623 -691 751 0
-581 -623 -692 751 0
-581 -623 -693 751 0
-581 -623 -694 751 0
-581 -623 -695 751 0
-581 -623 -696 751 0
-581 -623 -697 751 0
-581 -623 -698 751 0
-581 -623 -699 751 0
-581 -624 -674 742 0
-581 -624 -675 743 0
-581 -624 -676 744 0
-581 -624 -677 745 0
-581 -624 -678 746 0
-581 -624 -679 747 0
-581 -624 -680 748 0
-581 -624 -681 749 0
-581 -624 -682 750 0
-581 -624 -683 751 0
-581 -624 -684 751 0
-581 -624 -685 751 0
-581 -624 -686 751 0
-581 -624 -687 751 0
-581 -624 -688 751 0
-581 -624 -689 751 0
-581 -624 -690 751 0
-581 -624 -691 751 0
-581 -624 -692 751 0
-581 -624 -693 751 0
-581 -624 -694 751 0
-581 -624 -695 751 0
-581 -624 -696 751 0
-581 -624 -697 751 0
-581 -624 -698 751 0
-581 -624 -699 751 0
-581 -625 -674 743 0
-581 -625 -675 744 0
-581 -625 -676 745 0
-581 -625 -677 746 0
-581 -625 -678 747 0
-581 -625 -679 748 0
-581 -625 -680 749 0
-581 -625 -681 750 0
-581 -625 -682 751 0
-581 -625 -683 751 0
-581 -625 -684 751 0
-581 -625 -685 751 0
-581 -625 -686 751 0
-581 -625 -687 751 0
-581 -625 -688 751 0
-581 -625 -689 751 0
-581 -625 -690 751 0
-581 -625 -691 751 0
-581 -625 -692 751 0
-581 -625 -693 751 0
-581 -625 -694 751 0
-581 -625 -695 751 0
-581 -625 -696 751 0
-581 -625 -697 751 0
-581 -625 -698 751 0
-581 -625 -699 751 0
-581 -626 -674 744 0
-581 -626 -675 745 0
-581 -626 -676 746 0
-581 -626 -677 747 0
-581 -626 -678 748 0
-581 -626 -679 749 0
-581 -626 -680 750 0
-581 -626 -681 751 0
-581 -626 -682 751 0
-581 -626 -683 751 0
-581 -626 -684 751 0
-581 -626 -685 751 0
-581 -626 -686 751 0
-581 -626 -687 751 0
-581 -626 -688 751 0
-581 -626 -689 751 0
-581 -626 -690 751 0
-581 -626 -691 751 0
-581 -626 -692 751 0
-581 -626 -693 751 0
-581 -626 -694 751 0
-581 -626 -695 751 0
-581 -626 -696 751 0
-581 -626 -697 751 0
-581 -626 -698 751 0
-581 -626 -699 751 0
-581 -627 -674 745 0
-581 -627 -675 746 0
-581 -627 -676 747 0
-581 -627 -677 748 0
-581 -627 -678 749 0
-581 -627 -679 750 0
-581 -627 -680 751 0
-581 -627 -681 751 0
-581 -627 -682 751 0
-581 -627 -683 751 0
-581 -627 -684 751 0
-581 -627 -685 751 0
-581 -627 -686 751 0
-581 -627 -687 751 0
-581 -627 -688 751 0
-581 -627 -689 751 0
-581 -627 -690 751 0
-581 -627 -691 751 0
-581 -627 -692 751 0
-581 -627 -693 751 0
-581 -627 -694 751 0
-581 -627 -695 751 0
-581 -627 -696 751 0
-581 -627 -697 751 0
-581 -627 -698 751 0
-581 -627 -699 751 0
-581 -628 -674 746 0
-581 -628 -675 747 0
-581 -628 -676 748 0
-581 -628 -677 749 0
-581 -628 -678 750 0
-581 -628 -679 751 0
-581 -628 -680 751 0
-581 -628 -681 751 0
-581 -628 -682 751 0
-581 -628 -683 751 0
-581 -628 -684 751 0
-581 -628 -685 751 0
-581 -628 -686 751 0
-581 -628 -687 751 0
-581 -628 -688 751 0
-581 -628 -689 751 0
-581 -628 -690 751 0
-581 -628 -691 751 0
-581 -628 -692 751 0
-581 -628 -693 751 0
-581 -628 -694 751 0
-581 -628 -695 751 0
-581 -628 -696 751 0
-581 -628 -697 751 0
-581 -628 -698 751 0
-581 -628 -699 751 0
-581 -629 -674 747 0
-581 -629 -675 748 0
-581 -629 -676 749 0
-581 -629 -677 750 0
-581 -629 -678 751 0
-581 -629 -679 751 0
-581 -629 -680 751 0
-581 -629 -681 751 0
-581 -629 -682 751 0
-581 -629 -683 751 0
-581 -629 -684 751 0
-581 -629 -685 751 0
-581 -629 -686 751 0
-581 -629 -687 751 0
-581 -629 -688 751 0
-581 -629 -689 751 0
-581 -629 -690 751 0
-581 -629 -691 751 0
-581 -629 -692 751 0
-581 -629 -693 751 0
-581 -629 -694 751 0
-581 -629 -695 751 0
-581 -629 -696 751 0
-581 -629 -697 751 0
-581 -629 -698 751 0
-581 -629 -699 751 0
-581 -630 -674 748 0
-581 -630 -675 749 0
-581 -630 -676 750 0
-581 -630 -677 751 0
-581 -630 -678 751 0
-581 -630 -679 751 0
-581 -630 -680 751 0
-581 -630 -681 751 0
-581 -630 -682 751 0
-581 -630 -683 751 0
-581 -630 -684 751 0
-581 -630 -685 751 0
-581 -630 -686 751 0
-581 -630 -687 751 0
-581 -630 -688 751 0
-581 -630 -689 751 0
-581 -630 -690 751 0
-581 -630 -691 751 0
-581 -630 -692 751 0
-581 -630 -693 751 0
-581 -630 -694 751 0
-581 -630 -695 751 0
-581 -630 -696 751 0
-581 -630 -697 751 0
-581 -630 -698 751 0
-581 -630 -699 751 0
-581 -631 -674 749 0
-581 -631 -675 750 0
-581 -631 -676 751 0
-581 -631 -677 751 0
-581 -631 -678 751 0
-581 -631 -679 751 0
-581 -631 -680 751 0
-581 -631 -681 751 0
-581 -631 -682 751 0
-581 -631 -683 751 0
-581 -631 -684 751 0
-581 -631 -685 751 0
-581 -631 -686 751 0
-581 -631 -687 751 0
-581 -631 -688 751 0
-581 -631 -689 751 0
-581 -631 -690 751 0
-581 -631 -691 751 0
-581 -631 -692 751 0
-581 -631 -693 751 0
-581 -631 -694 751 0
-581 -631 -695 751 0
-581 -631 -696 751 0
-581 -631 -697 751 0
-581 -631 -698 751 0
-581 -631 -699 751 0
-581 -632 -674 750 0
-581 -632 -675 751 0
-581 -632 -676 751 0
-581 -632 -677 751 0
-581 -632 -678 751 0
-581 -632 -679 751 0
-581 -632 -680 751 0
-581 -632 -681 751 0
-581 -632 -682 751 0
-581 -632 -683 751 0
-581 -632 -684 751 0
-581 -632 -685 751 0
-581 -632 -686 751 0
-581 -632 -687 751 0
-581 -632 -688 751 0
-581 -632 -689 751 0
-581 -632 -690 751 0
-581 -632 -691 751 0
-581 -632 -692 751 0
-581 -632 -693 751 0
-581 -632 -694 751 0
-581 -632 -695 751 0
-581 -632 -696 751 0
-581 -632 -697 751 0
-581 -632 -698 751 0
-581 -632 -699 751 0
-581 -633 -674 751 0
-581 -633 -675 751 0
-581 -633 -676 751 0
-581 -633 -677 751 0
-581 -633 -678 751 0
-581 -633 -679 751 0
-581 -633 -680 751 0
-581 -633 -681 751 0
-581 -633 -682 751 0
-581 -633 -683 751 0
-581 -633 -684 751 0
-581 -633 -685 751 0
-581 -633 -686 751 0
-581 -633 -687 751 0
-581 -633 -688 751 0
-581 -633 -689 751 0
-581 -633 -690 751 0
-581 -633 -691 751 0
-581 -633 -692 751 0
-581 -633 -693 751 0
-581 -633 -694 751 0
-581 -633 -695 751 0
-581 -633 -696 751 0
-581 -633 -697 751 0
-581 -633 -698 751 0
-581 -633 -699 751 0
-581 -634 -674 751 0
-581 -634 -675 751 0
-581 -634 -676 751 0
-581 -634 -677 751 0
-581 -634 -678 751 0
-581 -634 -679 751 0
-581 -634 -680 751 0
-581 -634 -681 751 0
-581 -634 -682 751 0
-581 -634 -683 751 0
-581 -634 -684 751 0
-581 -634 -685 751 0
-581 -634 -686 751 0
-581 -634 -687 751 0
-581 -634 -688 751 0
-581 -634 -689 751 0
-581 -634 -690 751 0
-581 -634 -691 751 0
-581 -634 -692 751 0
-581 -634 -693 751 0
-581 -634 -694 751 0
-581 -634 -695 751 0
-581 -634 -696 751 0
-581 -634 -697 751 0
-581 -634 -698 751 0
-581 -634 -699 751 0
-581 -635 -674 751 0
-581 -635 -675 751 0
-581 -635 -676 751 0
-581 -635 -677 751 0
-581 -635 -678 751 0
-581 -635 -679 751 0
-581 -635 -680 751 0
-581 -635 -681 751 0
-581 -635 -682 751 0
-581 -635 -683 751 0
-581 -635 -684 751 0
-581 -635 -685 751 0
-581 -635 -686 751 0
-581 -635 -687 751 0
-581 -635 -688 751 0
-581 -635 -689 751 0
-581 -635 -690 751 0
-581 -635 -691 751 0
-581 -635 -692 751 0
-581 -635 -693 751 0
-581 -635 -694 751 0
-581 -635 -695 751 0
-581 -635 -696 751 0
-581 -635 -697 751 0
-581 -635 -698 751 0
-581 -635 -699 751 0
-581 -636 -674 751 0
-581 -636 -675 751 0
-581 -636 -676 751 0
-581 -636 -677 751 0
-581 -636 -678 751 0
-581 -636 -679 751 0
-581 -636 -680 751 0
-581 -636 -681 751 0
-581 -636 -682 751 0
-581 -636 -683 751 0
-581 -636 -684 751 0
-581 -636 -685 751 0
-581 -636 -686 751 0
-581 -636 -687 751 0
-581 -636 -688 751 0
-581 -636 -689 751 0
-581 -636 -690 751 0
-581 -636 -691 751 0
-581 -636 -692 751 0
-581 -636 -693 751 0
-581 -636 -694 751 0
-581 -636 -695 751 0
-581 -636 -696 751 0
-581 -636 -697 751 0
-581 -636 -698 751 0
-581 -636 -699 751 0
-581 -637 -674 751 0
-581 -637 -675 751 0
-581 -637 -676 751 0
-581 -637 -677 751 0
-581 -637 -678 751 0
-581 -637 -679 751 0
-581 -637 -680 751 0
-581 -637 -681 751 0
-581 -637 -682 751 0
-581 -637 -683 751 0
-581 -637 -684 751 0
-581 -637 -685 751 0
-581 -637 -686 751 0
-581 -637 -687 751 0
-581 -637 -688 751 0
-581 -637 -689 751 0
-581 -637 -690 751 0
-581 -637 -691 751 0
-581 -637 -692 751 0
-581 -637 -693 751 0
-581 -637 -694 751 0
-581 -637 -695 751 0
-581 -637 -696 751 0
-581 -637 -697 751 0
-581 -637 -698 751 0
-581 -637 -699 751 0
-581 -638 -674 751 0
-581 -638 -675 751 0
-581 -638 -676 751 0
-581 -638 -677 751 0
-581 -638 -678 751 0
-581 -638 -679 751 0
-581 -638 -680 751 0
-581 -638 -681 751 0
-581 -638 -682 751 0
-581 -638 -683 751 0
-581 -638 -684 751 0
-581 -638 -685 751 0
-581 -638 -686 751 0
-581 -638 -687 751 0
-581 -638 -688 751 0
-581 -638 -689 751 0
-581 -638 -690 751 0
-581 -638 -691 751 0
-581 -638 -692 751 0
-581 -638 -693 751 0
-581 -638 -694 751 0
-581 -638 -695 751 0
-581 -638 -696 751 0
-581 -638 -697 751 0
-581 -638 -698 751 0
-581 -638 -699 751 0
-581 -639 -674 751 0
-581 -639 -675 751 0
-581 -639 -676 751 0
-581 -639 -677 751 0
-581 -639 -678 751 0
-581 -639 -679 751 0
-581 -639 -680 751 0
-581 -639 -681 751 0
-581 -639 -682 751 0
-581 -639 -683 751 0
-581 -639 -684 751 0
-581 -639 -685 751 0
-581 -639 -686 751 0
-581 -639 -687 751 0
-581 -639 -688 751 0
-581 -639 -689 751 0
-581 -639 -690 751 0
-581 -639 -691 751 0
-581 -639 -692 751 0
-581 -639 -693 751 0
-581 -639 -694 751 0
-581 -639 -695 751 0
-581 -639 -696 751 0
-581 -639 -697 751 0
-581 -639 -698 751 0
-581 -639 -699 751 0
-581 -640 -674 751 0
-581 -640 -675 751 0
-581 -640 -676 751 0
-581 -640 -677 751 0
-581 -640 -678 751 0
-581 -640 -679 751 0
-581 -640 -680 751 0
-581 -640 -681 751 0
-581 -640 -682 751 0
-581 -640 -683 751 0
-581 -640 -684 751 0
-581 -640 -685 751 0
-581 -640 -686 751 0
-581 -640 -687 751 0
-581 -640 -688 751 0
-581 -640 -689 751 0
-581 -640 -690 751 0
-581 -640 -691 751 0
-581 -640 -692 751 0
-581 -640 -693 751 0
-581 -640 -694 751 0
-581 -640 -695 751 0
-581 -640 -696 751 0
-581 -640 -697 751 0
-581 -640 -698 751 0
-581 -640 -699 751 0
-581 -641 -674 751 0
-581 -641 -675 751 0
-581 -641 -676 751 0
-581 -641 -677 751 0
-581 -641 -678 751 0
-581 -641 -679 751 0
-581 -641 -680 751 0
-581 -641 -681 751 0
-581 -641 -682 751 0
-581 -641 -683 751 0
-581 -641 -684 751 0
-581 -641 -685 751 0
-581 -641 -686 751 0
-581 -641 -687 751 0
-581 -641 -688 751 0
-581 -641 -689 751 0
-581 -641 -690 751 0
-581 -641 -691 751 0
-581 -641 -692 751 0
-581 -641 -693 751 0
-581 -641 -694 751 0
-581 -641 -695 751 0
-581 -641 -696 751 0
-581 -641 -697 751 0
-581 -641 -698 751 0
-581 -641 -699 751 0
-581 -642 -674 751 0
-581 -642 -675 751 0
-581 -642 -676 751 0
-581 -642 -677 751 0
-581 -642 -678 751 0
-581 -642 -679 751 0
-581 -642 -680 751 0
-581 -642 -681 751 0
-581 -642 -682 751 0
-581 -642 -683 751 0
-581 -642 -684 751 0
-581 -642 -685 751 0
-581 -642 -686 751 0
-581 -642 -687 751 0
-581 -642 -688 751 0
-581 -642 -689 751 0
-581 -642 -690 751 0
-581 -642 -691 751 0
-581 -642 -692 751 0
-581 -642 -693 751 0
-581 -642 -694 751 0
-581 -642 -695 751 0
-581 -642 -696 751 0
-581 -642 -697 751 0
-581 -642 -698 751 0
-581 -642 -699 751 0
-581 -643 -674 751 0
-581 -643 -675 751 0
-581 -643 -676 751 0
-581 -643 -677 751 0
-581 -643 -678 751 0
-581 -643 -679 751 0
-581 -643 -680 751 0
-581 -643 -681 751 0
-581 -643 -682 751 0
-581 -643 -683 751 0
-581 -643 -684 751 0
-581 -643 -685 751 0
-581 -643 -686 751 0
-581 -643 -687 751 0
-581 -643 -688 751 0
-581 -643 -689 751 0
-581 -643 -690 751 0
-581 -643 -691 751 0
-581 -643 -692 751 0
-581 -643 -693 751 0
-581 -643 -694 751 0
-581 -643 -695 751 0
-581 -643 -696 751 0
-581 -643 -697 751 0
-581 -643 -698 751 0
-581 -643 -699 751 0
-581 -644 -674 751 0
-581 -644 -675 751 0
-581 -644 -676 751 0
-581 -644 -677 751 0
-581 -644 -678 751 0
-581 -644 -679 751 0
-581 -644 -680 751 0
-581 -644 -681 751 0
-581 -644 -682 751 0
-581 -644 -683 751 0
-581 -644 -684 751 0
-581 -644 -685 751 0
-581 -644 -686 751 0
-581 -644 -687 751 0
-581 -644 -688 751 0
-581 -644 -689 751 0
-581 -644 -690 751 0
-581 -644 -691 751 0
-581 -644 -692 751 0
-581 -644 -693 751 0
-581 -644 -694 751 0
-581 -644 -695 751 0
-581 -644 -696 751 0
-581 -644 -697 751 0
-581 -644 -698 751 0
-581 -644 -699 751 0
-581 -645 -674 751 0
-581 -645 -675 751 0
-581 -645 -676 751 0
-581 -645 -677 751 0
-581 -645 -678 751 0
-581 -645 -679 751 0
-581 -645 -680 751 0
-581 -645 -681 751 0
-581 -645 -682 751 0
-581 -645 -683 751 0
-581 -645 -684 751 0
-581 -645 -685 751 0
-581 -645 -686 751 0
-581 -645 -687 751 0
-581 -645 -688 751 0
-581 -645 -689 751 0
-581 -645 -690 751 0
-581 -645 -691 751 0
-581 -645 -692 751 0
-581 -645 -693 751 0
-581 -645 -694 751 0
-581 -645 -695 751 0
-581 -645 -696 751 0
-581 -645 -697 751 0
-581 -645 -698 751 0
-581 -645 -699 751 0
-581 -646 -674 751 0
-581 -646 -675 751 0
-581 -646 -676 751 0
-581 -646 -677 751 0
-581 -646 -678 751 0
-581 -646 -679 751 0
-581 -646 -680 751 0
-581 -646 -681 751 0
-581 -646 -682 751 0
-581 -646 -683 751 0
-581 -646 -684 751 0
-581 -646 -685 751 0
-581 -646 -686 751 0
-581 -646 -687 751 0
-581 -646 -688 751 0
-581 -646 -689 751 0
-581 -646 -690 751 0
-581 -646 -691 751 0
-581 -646 -692 751 0
-581 -646 -693 751 0
-581 -646 -694 751 0
-581 -646 -695 751 0
-581 -646 -696 751 0
-581 -646 -697 751 0
-581 -646 -698 751 0
-581 -646 -699 751 0
-581 -647 -674 751 0
-581 -647 -675 751 0
-581 -647 -676 751 0
-581 -647 -677 751 0
-581 -647 -678 751 0
-581 -647 -679 751 0
-581 -647 -680 751 0
-581 -647 -681 751 0
-581 -647 -682 751 0
-581 -647 -683 751 0
-581 -647 -684 751 0
-581 -647 -685 751 0
-581 -647 -686 751 0
-581 -647 -687 751 0
-581 -647 -688 751 0
-581 -647 -689 751 0
-581 -647 -690 751 0
-581 -647 -691 751 0
-581 -647 -692 751 0
-581 -647 -693 751 0
-581 -647 -694 751 0
-581 -647 -695 751 0
-581 -647 -696 751 0
-581 -647 -697 751 0
-581 -647 -698 751 0
-581 -647 -699 751 0
-582 -622 -674 741 0
-582 -622 -675 742 0
-582 -622 -676 743 0
-582 -622 -677 744 0
-582 -622 -678 745 0
-582 -622 -679 746 0
-582 -622 -680 747 0
-582 -622 -681 748 0
-582 -622 -682 749 0
-582 -622 -683 750 0
-582 -622 -684 751 0
-582 -622 -685 751 0
-582 -622 -686 751 0
-582 -622 -687 751 0
-582 -622 -688 751 0
-582 -622 -689 751 0
-582 -622 -690 751 0
-582 -622 -691 751 0
-582 -622 -692 751 0
-582 -622 -693 751 0
-582 -622 -694 751 0
-582 -622 -695 751 0
-582 -622 -696 751 0
-582 -622 -697 751 0
-582 -622 -698 751 0
-582 -622 -699 751 0
-582 -623 -674 742 0
-582 -623 -675 743 0
-582 -623 -676 744 0
-582 -623 -677 745 0
-582 -623 -678 746 0
-582 -623 -679 747 0
-582 -623 -680 748 0
-582 -623 -681 749 0
-582 -623 -682 750 0
-582 -623 -683 751 0
-582 -623 -684 751 0
-582 -623 -685 751 0
-582 -623 -686 751 0
-582 -623 -687 751 0
-582 -623 -688 751 0
-582 -623 -689 751 0
-582 -623 -690 751 0
-582 -623 -691 751 0
-582 -623 -692 751 0
-582 -623 -693 751 0
-582 -623 -694 751 0
-582 -623 -695 751 0
-582 -623 -696 751 0
-582 -623 -697 751 0
-582 -623 -698 751 0
-582 -623 -699 751 0
-582 -624 -674 743 0
-582 -624 -675 744 0
-582 -624 -676 745 0
-582 -624 -677 746 0
-582 -624 -678 747 0
-582 -624 -679 748 0
-582 -624 -680 749 0
-582 -624 -681 750 0
-582 -624 -682 751 0
-582 -624 -683 751 0
-582 -624 -684 751 0
-582 -624 -685 751 0
-582 -624 -686 751 0
-582 -624 -687 751 0
-582 -624 -688 751 0
-582 -624 -689 751 0
-582 -624 -690 751 0
-582 -624 -691 751 0
-582 -624 -692 751 0
-582 -624 -693 751 0
-582 -624 -694 751 0
-582 -624 -695 751 0
-582 -624 -696 751 0
-582 -624 -697 751 0
-582 -624 -698 751 0
-582 -624 -699 751 0
-582 -625 -674 744 0
-582 -625 -675 745 0
-582 -625 -676 746 0
-582 -625 -677 747 0
-582 -625 -678 748 0
-582 -625 -679 749 0
-582 -625 -680 750 0
-582 -625 -681 751 0
-582 -625 -682 751 0
-582 -625 -683 751 0
-582 -625 -684 751 0
-582 -625 -685 751 0
-582 -625 -686 751 0
-582 -625 -687 751 0
-582 -625 -688 751 0
-582 -625 -689 751 0
-582 -625 -690 751 0
-582 -625 -691 751 0
-582 -625 -692 751 0
-582 -625 -693 751 0
-582 -625 -694 751 0
-582 -625 -695 751 0
-582 -625 -696 751 0
-582 -625 -697 751 0
-582 -625 -698 751 0
-582 -625 -699 751 0
-582 -626 -674 745 0
-582 -626 -675 746 0
-582 -626 -676 747 0
-582 -626 -677 748 0
-582 -626 -678 749 0
-582 -626 -679 750 0
-582 -626 -680 751 0
-582 -626 -681 751 0
-582 -626 -682 751 0
-582 -626 -683 751 0
-582 -626 -684 751 0
-582 -626 -685 751 0
-582 -626 -686 751 0
-582 -626 -687 751 0
-582 -626 -688 751 0
-582 -626 -689 751 0
-582 -626 -690 751 0
-582 -626 -691 751 0
-582 -626 -692 751 0
-582 -626 -693 751 0
-582 -626 -694 751 0
-582 -626 -695 751 0
-582 -626 -696 751 0
-582 -626 -697 751 0
-582 -626 -698 751 0
-582 -626 -699 751 0
-582 -627 -674 746 0
-582 -627 -675 747 0
-582 -627 -676 748 0
-582 -627 -677 749 0
-582 -627 -678 750 0
-582 -627 -679 751 0
-582 -627 -680 751 0
-582 -627 -681 751 0
-582 -627 -682 751 0
-582 -627 -683 751 0
-582 -627 -684 751 0
-582 -627 -685 751 0
-582 -627 -686 751 0
-582 -627 -687 751 0
-582 -627 -688 751 0
-582 -627 -689 751 0
-582 -627 -690 751 0
-582 -627 -691 751 0
-582 -627 -692 751 0
-582 -627 -693 751 0
-582 -627 -694 751 0
-582 -627 -695 751 0
-582 -627 -696 751 0
-582 -627 -697 751 0
-582 -627 -698 751 0
-582 -627 -699 751 0
-582 -628 -674 747 0
-582 -628 -675 748 0
-582 -628 -676 749 0
-582 -628 -677 750 0
-582 -628 -678 751 0
-582 -628 -679 751 0
-582 -628 -680 751 0
-582 -628 -681 751 0
-582 -628 -682 751 0
-582 -628 -683 751 0
-582 -628 -684 751 0
-582 -628 -685 751 0
-582 -628 -686 751 0
-582 -628 -687 751 0
-582 -628 -688 751 0
-582 -628 -689 751 0
-582 -628 -690 751 0
-582 -628 -691 751 0
-582 -628 -692 751 0
-582 -628 -693 751 0
-582 -628 -694 751 0
-582 -628 -695 751 0
-582 -628 -696 751 0
-582 -628 -697 751 0
-582 -628 -698 751 0
-582 -628 -699 751 0
-582 -629 -674 748 0
-582 -629 -675 749 0
-582 -629 -676 750 0
-582 -629 -677 751 0
-582 -629 -678 751 0
-582 -629 -679 751 0
-582 -629 -680 751 0
-582 -629 -681 751 0
-582 -629 -682 751 0
-582 -629 -683 751 0
-582 -629 -684 751 0
-582 -629 -685 751 0
-582 -629 -686 751 0
-582 -629 -687 751 0
-582 -629 -688 751 0
-582 -629 -689 751 0
-582 -629 -690 751 0
-582 -629 -691 751 0
-582 -629 -692 751 0
-582 -629 -693 751 0
-582 -629 -694 751 0
-582 -629 -695 751 0
-582 -629 -696 751 0
-582 -629 -697 751 0
-582 -629 -698 751 0
-582 -629 -699 751 0
-582 -630 -674 749 0
-582 -630 -675 750 0
-582 -630 -676 751 0
-582 -630 -677 751 0
-582 -630 -678 751 0
-582 -630 -679 751 0
-582 -630 -680 751 0
-582 -630 -681 751 0
-582 -630 -682 751 0
-582 -630 -683 751 0
-582 -630 -684 751 0
-582 -630 -685 751 0
-582 -630 -686 751 0
-582 -630 -687 751 0
-582 -630 -688 751 0
-582 -630 -689 751 0
-582 -630 -690 751 0
-582 -630 -691 751 0
-582 -630 -692 751 0
-582 -630 -693 751 0
-582 -630 -694 751 0
-582 -630 -695 751 0
-582 -630 -696 751 0
-582 -630 -697 751 0
-582 -630 -698 751 0
-582 -630 -699 751 0
-582 -631 -674 750 0
-582 -631 -675 751 0
-582 -631 -676 751 0
-582 -631 -677 751 0
-582 -631 -678 751 0
-582 -631 -679 751 0
-582 -631 -680 751 0
-582 -631 -681 751 0
-582 -631 -682 751 0
-582 -631 -683 751 0
-582 -631 -684 751 0
-582 -631 -685 751 0
-582 -631 -686 751 0
-582 -631 -687 751 0
-582 -631 -688 751 0
-582 -631 -689 751 0
-582 -631 -690 751 0
-582 -631 -691 751 0
-582 -631 -692 751 0
-582 -631 -693 751 0
-582 -631 -694 751 0
-582 -631 -695 751 0
-582 -631 -696 751 0
-582 -631 -697 751 0
-582 -631 -698 751 0
-582 -631 -699 751 0
-582 -632 -674 751 0
-582 -632 -675 751 0
-582 -632 -676 751 0
-582 -632 -677 751 0
-582 -632 -678 751 0
-582 -632 -679 751 0
-582 -632 -680 751 0
-582 -632 -681 751 0
-582 -632 -682 751 0
-582 -632 -683 751 0
-582 -632 -684 751 0
-582 -632 -685 751 0
-582 -632 -686 751 0
-582 -632 -687 751 0
-582 -632 -688 751 0
-582 -632 -689 751 0
-582 -632 -690 751 0
-582 -632 -691 751 0
-582 -632 -692 751 0
-582 -632 -693 751 0
-582 -632 -694 751 0
-582 -632 -695 751 0
-582 -632 -696 751 0
-582 -632 -697 751 0
-582 -632 -698 751 0
-582 -632 -699 751 0
-582 -633 -674 751 0
-582 -633 -675 751 0
-582 -633 -676 751 0
-582 -633 -677 751 0
-582 -633 -678 751 0
-582 -633 -679 751 0
-582 -633 -680 751 0
-582 -633 -681 751 0
-582 -633 -682 751 0
-582 -633 -683 751 0
-582 -633 -684 751 0
-582 -633 -685 751 0
-582 -633 -686 751 0
-582 -633 -687 751 0
-582 -633 -688 751 0
-582 -633 -689 751 0
-582 -633 -690 751 0
-582 -633 -691 751 0
-582 -633 -692 751 0
-582 -633 -693 751 0
-582 -633 -694 751 0
-582 -633 -695 751 0
-582 -633 -696 751 0
-582 -633 -697 751 0
-582 -633 -698 751 0
-582 -633 -699 751 0
-582 -634 -674 751 0
-582 -634 -675 751 0
-582 -634 -676 751 0
-582 -634 -677 751 0
-582 -634 -678 751 0
-582 -634 -679 751 0
-582 -634 -680 751 0
-582 -634 -681 751 0
-582 -634 -682 751 0
-582 -634 -683 751 0
-582 -634 -684 751 0
-582 -634 -685 751 0
-582 -634 -686 751 0
-582 -634 -687 751 0
-582 -634 -688 751 0
-582 -634 -689 751 0
-582 -634 -690 751 0
-582 -634 -691 751 0
-582 -634 -692 751 0
-582 -634 -693 751 0
-582 -634 -694 751 0
-582 -634 -695 751 0
-582 -634 -696 751 0
-582 -634 -697 751 0
-582 -634 -698 751 0
-582 -634 -699 751 0
-582 -635 -674 751 0
-582 -635 -675 751 0
-582 -635 -676 751 0
-582 -635 -677 751 0
-582 -635 -678 751 0
-582 -635 -679 751 0
-582 -635 -680 751 0
-582 -635 -681 751 0
-582 -635 -682 751 0
-582 -635 -683 751 0
-582 -635 -684 751 0
-582 -635 -685 751 0
-582 -635 -686 751 0
-582 -635 -687 751 0
-582 -635 -688 751 0
-582 -635 -689 751 0
-582 -635 -690 751 0
-582 -635 -691 751 0
-582 -635 -692 751 0
-582 -635 -693 751 0
-582 -635 -694 751 0
-582 -635 -695 751 0
-582 -635 -696 751 0
-582 -635 -697 751 0
-582 -635 -698 751 0
-582 -635 -699 751 0
-582 -636 -674 751 0
-582 -636 -675 751 0
-582 -636 -676 751 0
-582 -636 -677 751 0
-582 -636 -678 751 0
-582 -636 -679 751 0
-582 -636 -680 751 0
-582 -636 -681 751 0
-582 -636 -682 751 0
-582 -636 -683 751 0
-582 -636 -684 751 0
-582 -636 -685 751 0
-582 -636 -686 751 0
-582 -636 -687 751 0
-582 -636 -688 751 0
-582 -636 -689 751 0
-582 -636 -690 751 0
-582 -636 -691 751 0
-582 -636 -692 751 0
-582 -636 -693 751 0
-582 -636 -694 751 0
-582 -636 -695 751 0
-582 -636 -696 751 0
-582 -636 -697 751 0
-582 -636 -698 751 0
-582 -636 -699 751 0
-582 -637 -674 751 0
-582 -637 -675 751 0
-582 -637 -676 751 0
-582 -637 -677 751 0
-582 -637 -678 751 0
-582 -637 -679 751 0
-582 -637 -680 751 0
-582 -637 -681 751 0
-582 -637 -682 751 0
-582 -637 -683 751 0
-582 -637 -684 751 0
-582 -637 -685 751 0
-582 -637 -686 751 0
-582 -637 -687 751 0
-582 -637 -688 751 0
-582 -637 -689 751 0
-582 -637 -690 751 0
-582 -637 -691 751 0
-582 -637 -692 751 0
-582 -637 -693 751 0
-582 -637 -694 751 0
-582 -637 -695 751 0
-582 -637 -696 751 0
-582 -637 -697 751 0
-582 -637 -698 751 0
-582 -637 -699 751 0
-582 -638 -674 751 0
-582 -638 -675 751 0
-582 -638 -676 751 0
-582 -638 -677 751 0
-582 -638 -678 751 0
-582 -638 -679 751 0
-582 -638 -680 751 0
-582 -638 -681 751 0
-582 -638 -682 751 0
-582 -638 -683 751 0
-582 -638 -684 751 0
-582 -638 -685 751 0
-582 -638 -686 751 0
-582 -638 -687 751 0
-582 -638 -688 751 0
-582 -638 -689 751 0
-582 -638 -690 751 0
-582 -638 -691 751 0
-582 -638 -692 751 0
-582 -638 -693 751 0
-582 -638 -694 751 0
-582 -638 -695 751 0
-582 -638 -696 751 0
-582 -638 -697 751 0
-582 -638 -698 751 0
-582 -638 -699 751 0
-582 -639 -674 751 0
-582 -639 -675 751 0
-582 -639 -676 751 0
-582 -639 -677 751 0
-582 -639 -678 751 0
-582 -639 -679 751 0
-582 -639 -680 751 0
-582 -639 -681 751 0
-582 -639 -682 751 0
-582 -639 -683 751 0
-582 -639 -684 751 0
-582 -639 -685 751 0
-582 -639 -686 751 0
-582 -639 -687 751 0
-582 -639 -688 751 0
-582 -639 -689 751 0
-582 -639 -690 751 0
-582 -639 -691 751 0
-582 -639 -692 751 0
-582 -639 -693 751 0
-582 -639 -694 751 0
-582 -639 -695 751 0
-582 -639 -696 751 0
-582 -639 -697 751 0
-582 -639 -698 751 0
-582 -639 -699 751 0
-582 -640 -674 751 0
-582 -640 -675 751 0
-582 -640 -676 751 0
-582 -640 -677 751 0
-582 -640 -678 751 0
-582 -640 -679 751 0
-582 -640 -680 751 0
-582 -640 -681 751 0
-582 -640 -682 751 0
-582 -640 -683 751 0
-582 -640 -684 751 0
-582 -640 -685 751 0
-582 -640 -686 751 0
-582 -640 -687 751 0
-582 -640 -688 751 0
-582 -640 -689 751 0
-582 -640 -690 751 0
-582 -640 -691 751 0
-582 -640 -692 751 0
-582 -640 -693 751 0
-582 -640 -694 751 0
-582 -640 -695 751 0
-582 -640 -696 751 0
-582 -640 -697 751 0
-582 -640 -698 751 0
-582 -640 -699 751 0
-582 -641 -674 751 0
-582 -641 -675 751 0
-582 -641 -676 751 0
-582 -641 -677 751 0
-582 -641 -678 751 0
-582 -641 -679 751 0
-582 -641 -680 751 0
-582 -641 -681 751 0
-582 -641 -682 751 0
-582 -641 -683 751 0
-582 -641 -684 751 0
-582 -641 -685 751 0
-582 -641 -686 751 0
-582 -641 -687 751 0
-582 -641 -688 751 0
-582 -641 -689 751 0
-582 -641 -690 751 0
-582 -641 -691 751 0
-582 -641 -692 751 0
-582 -641 -693 751 0
-582 -641 -694 751 0
-582 -641 -695 751 0
-582 -641 -696 751 0
-582 -641 -697 751 0
-582 -641 -698 751 0
-582 -641 -699 751 0
-582 -642 -674 751 0
-582 -642 -675 751 0
-582 -642 -676 751 0
-582 -642 -677 751 0
-582 -642 -678 751 0
-582 -642 -679 751 0
-582 -642 -680 751 0
-582 -642 -681 751 0
-582 -642 -682 751 0
-582 -642 -683 751 0
-582 -642 -684 751 0
-582 -642 -685 751 0
-582 -642 -686 751 0
-582 -642 -687 751 0
-582 -642 -688 751 0
-582 -642 -689 751 0
-582 -642 -690 751 0
-582 -642 -691 751 0
-582 -642 -692 751 0
-582 -642 -693 751 0
-582 -642 -694 751 0
-582 -642 -695 751 0
-582 -642 -696 751 0
-582 -642 -697 751 0
-582 -642 -698 751 0
-582 -642 -699 751 0
-582 -643 -674 751 0
-582 -643 -675 751 0
-582 -643 -676 751 0
-582 -643 -677 751 0
-582 -643 -678 751 0
-582 -643 -679 751 0
-582 -643 -680 751 0
-582 -643 -681 751 0
-582 -643 -682 751 0
-582 -643 -683 751 0
-582 -643 -684 751 0
-582 -643 -685 751 0
-582 -643 -686 751 0
-582 -643 -687 751 0
-582 -643 -688 751 0
-582 -643 -689 751 0
-582 -643 -690 751 0
-582 -643 -691 751 0
-582 -643 -692 751 0
-582 -643 -693 751 0
-582 -643 -694 751 0
-582 -643 -695 751 0
-582 -643 -696 751 0
-582 -643 -697 751 0
-582 -643 -698 751 0
-582 -643 -699 751 0
-582 -644 -674 751 0
-582 -644 -675 751 0
-582 -644 -676 751 0
-582 -644 -677 751 0
-582 -644 -678 751 0
-582 -644 -679 751 0
-582 -644 -680 751 0
-582 -644 -681 751 0
-582 -644 -682 751 0
-582 -644 -683 751 0
-582 -644 -684 751 0
-582 -644 -685 751 0
-582 -644 -686 751 0
-582 -644 -687 751 0
-582 -644 -688 751 0
-582 -644 -689 751 0
-582 -644 -690 751 0
-582 -644 -691 751 0
-582 -644 -692 751 0
-582 -644 -693 751 0
-582 -644 -694 751 0
-582 -644 -695 751 0
-582 -644 -696 751 0
-582 -644 -697 751 0
-582 -644 -698 751 0
-582 -644 -699 751 0
-582 -645 -674 751 0
-582 -645 -675 751 0
-582 -645 -676 751 0
-582 -645 -677 751 0
-582 -645 -678 751 0
-582 -645 -679 751 0
-582 -645 -680 751 0
-582 -645 -681 751 0
-582 -645 -682 751 0
-582 -645 -683 751 0
-582 -645 -684 751 0
-582 -645 -685 751 0
-582 -645 -686 751 0
-582 -645 -687 751 0
-582 -645 -688 751 0
-582 -645 -689 751 0
-582 -645 -690 751 0
-582 -645 -691 751 0
-582 -645 -692 751 0
-582 -645 -693 751 0
-582 -645 -694 751 0
-582 -645 -695 751 0
-582 -645 -696 751 0
-582 -645 -697 751 0
-582 -645 -698 751 0
-582 -645 -699 751 0
-582 -646 -674 751 0
-582 -646 -675 751 0
-582 -646 -676 751 0
-582 -646 -677 751 0
-582 -646 -678 751 0
-582 -646 -679 751 0
-582 -646 -680 751 0
-582 -646 -681 751 0
-582 -646 -682 751 0
-582 -646 -683 751 0
-582 -646 -684 751 0
-582 -646 -685 751 0
-582 -646 -686 751 0
-582 -646 -687 751 0
-582 -646 -688 751 0
-582 -646 -689 751 0
-582 -646 -690 751 0
-582 -646 -691 751 0
-582 -646 -692 751 0
-582 -646 -693 751 0
-582 -646 -694 751 0
-582 -646 -695 751 0
-582 -646 -696 751 0
-582 -646 -697 751 0
-582 -646 -698 751 0
-582 -646 -699 751 0
-582 -647 -674 751 0
-582 -647 -675 751 0
-582 -647 -676 751 0
-582 -647 -677 751 0
-582 -647 -678 751 0
-582 -647 -679 751 0
-582 -647 -680 751 0
-582 -647 -681 751 0
-582 -647 -682 751 0
-582 -647 -683 751 0
-582 -647 -684 751 0
-582 -647 -685 751 0
-582 -647 -686 751 0
-582 -647 -687 751 0
-582 -647 -688 751 0
-582 -647 -689 751 0
-582 -647 -690 751 0
-582 -647 -691 751 0
-582 -647 -692 751 0
-582 -647 -693 751 0
-582 -647 -694 751 0
-582 -647 -695 751 0
-582 -647 -696 751 0
-582 -647 -697 751 0
-582 -647 -698 751 0
-582 -647 -699 751 0
-583 -622 -674 742 0
-583 -622 -675 743 0
-583 -622 -676 744 0
-583 -622 -677 745 0
-583 -622 -678 746 0
-583 -622 -679 747 0
-583 -622 -680 748 0
-583 -622 -681 749 0
-583 -622 -682 750 0
-583 -622 -683 751 0
-583 -622 -684 751 0
-583 -622 -685 751 0
-583 -622 -686 751 0
-583 -622 -687 751 0
-583 -622 -688 751 0
-583 -622 -689 751 0
-583 -622 -690 751 0
-583 -622 -691 751 0
-583 -622 -692 751 0
-583 -622 -693 751 0
-583 -622 -694 751 0
-583 -622 -695 751 0
-583 -622 -696 751 0
-583 -622 -697 751 0
-583 -622 -698 751 0
-583 -622 -699 751 0
-583 -623 -674 743 0
-583 -623 -675 744 0
-583 -623 -676 745 0
-583 -623 -677 746 0
-583 -623 -678 747 0
-583 -623 -679 748 0
-583 -623 -680 749 0
-583 -623 -681 750 0
-583 -623 -682 751 0
-583 -623 -683 751 0
-583 -623 -684 751 0
-583 -623 -685 751 0
-583 -623 -686 751 0
-583 -623 -687 751 0
-583 -623 -688 751 0
-583 -623 -689 751 0
-583 -623 -690 751 0
-583 -623 -691 751 0
-583 -623 -692 751 0
-583 -623 -693 751 0
-583 -623 -694 751 0
-583 -623 -695 751 0
-583 -623 -696 751 0
-583 -623 -697 751 0
-583 -623 -698 751 0
-583 -623 -699 751 0
-583 -624 -674 744 0
-583 -624 -675 745 0
-583 -624 -676 746 0
-583 -624 -677 747 0
-583 -624 -678 748 0
-583 -624 -679 749 0
-583 -624 -680 750 0
-583 -624 -681 751 0
-583 -624 -682 751 0
-583 -624 -683 751 0
-583 -624 -684 751 0
-583 -624 -685 751 0
-583 -624 -686 751 0
-583 -624 -687 751 0
-583 -624 -688 751 0
-583 -624 -689 751 0
-583 -624 -690 751 0
-583 -624 -691 751 0
-583 -624 -692 751 0
-583 -624 -693 751 0
-583 -624 -694 751 0
-583 -624 -695 751 0
-583 -624 -696 751 0
-583 -624 -697 751 0
-583 -624 -698 751 0
-583 -624 -699 751 0
-583 -625 -674 745 0
-583 -625 -675 746 0
-583 -625 -676 747 0
-583 -625 -677 748 0
-583 -625 -678 749 0
-583 -625 -679 750 0
-583 -625 -680 751 0
-583 -625 -681 751 0
-583 -625 -682 751 0
-583 -625 -683 751 0
-583 -625 -684 751 0
-583 -625 -685 751 0
-583 -625 -686 751 0
-583 -625 -687 751 0
-583 -625 -688 751 0
-583 -625 -689 751 0
-583 -625 -690 751 0
-583 -625 -691 751 0
-583 -625 -692 751 0
-583 -625 -693 751 0
-583 -625 -694 751 0
-583 -625 -695 751 0
-583 -625 -696 751 0
-583 -625 -697 751 0
-583 -625 -698 751 0
-583 -625 -699 751 0
-583 -626 -674 746 0
-583 -626 -675 747 0
-583 -626 -676 748 0
-583 -626 -677 749 0
-583 -626 -678 750 0
-583 -626 -679 751 0
-583 -626 -680 751 0
-583 -626 -681 751 0
-583 -626 -682 751 0
-583 -626 -683 751 0
-583 -626 -684 751 0
-583 -626 -685 751 0
-583 -626 -686 751 0
-583 -626 -687 751 0
-583 -626 -688 751 0
-583 -626 -689 751 0
-583 -626 -690 751 0
-583 -626 -691 751 0
-583 -626 -692 751 0
-583 -626 -693 751 0
-583 -626 -694 751 0
-583 -626 -695 751 0
-583 -626 -696 751 0
-583 -626 -697 751 0
-583 -626 -698 751 0
-583 -626 -699 751 0
-583 -627 -674 747 0
-583 -627 -675 748 0
-583 -627 -676 749 0
-583 -627 -677 750 0
-583 -627 -678 751 0
-583 -627 -679 751 0
-583 -627 -680 751 0
-583 -627 -681 751 0
-583 -627 -682 751 0
-583 -627 -683 751 0
-583 -627 -684 751 0
-583 -627 -685 751 0
-583 -627 -686 751 0
-583 -627 -687 751 0
-583 -627 -688 751 0
-583 -627 -689 751 0
-583 -627 -690 751 0
-583 -627 -691 751 0
-583 -627 -692 751 0
-583 -627 -693 751 0
-583 -627 -694 751 0
-583 -627 -695 751 0
-583 -627 -696 751 0
-583 -627 -697 751 0
-583 -627 -698 751 0
-583 -627 -699 751 0
-583 -628 -674 748 0
-583 -628 -675 749 0
-583 -628 -676 750 0
-583 -628 -677 751 0
-583 -628 -678 751 0
-583 -628 -679 751 0
-583 -628 -680 751 0
-583 -628 -681 751 0
-583 -628 -682 751 0
-583 -628 -683 751 0
-583 -628 -684 751 0
-583 -628 -685 751 0
-583 -628 -686 751 0
-583 -628 -687 751 0
-583 -628 -688 751 0
-583 -628 -689 751 0
-583 -628 -690 751 0
-583 -628 -691 751 0
-583 -628 -692 751 0
-583 -628 -693 751 0
-583 -628 -694 751 0
-583 -628 -695 751 0
-583 -628 -696 751 0
-583 -628 -697 751 0
-583 -628 -698 751 0
-583 -628 -699 751 0
-583 -629 -674 749 0
-583 -629 -675 750 0
-583 -629 -676 751 0
-583 -629 -677 751 0
-583 -629 -678 751 0
-583 -629 -679 751 0
-583 -629 -680 751 0
-583 -629 -681 751 0
-583 -629 -682 751 0
-583 -629 -683 751 0
-583 -629 -684 751 0
-583 -629 -685 751 0
-583 -629 -686 751 0
-583 -629 -687 751 0
-583 -629 -688 751 0
-583 -629 -689 751 0
-583 -629 -690 751 0
-583 -629 -691 751 0
-583 -629 -692 751 0
-583 -629 -693 751 0
-583 -629 -694 751 0
-583 -629 -695 751 0
-583 -629 -696 751 0
-583 -629 -697 751 0
-583 -629 -698 751 0
-583 -629 -699 751 0
-583 -630 -674 750 0
-583 -630 -675 751 0
-583 -630 -676 751 0
-583 -630 -677 751 0
-583 -630 -678 751 0
-583 -630 -679 751 0
-583 -630 -680 751 0
-583 -630 -681 751 0
-583 -630 -682 751 0
-583 -630 -683 751 0
-583 -630 -684 751 0
-583 -630 -685 751 0
-583 -630 -686 751 0
-583 -630 -687 751 0
-583 -630 -688 751 0
-583 -630 -689 751 0
-583 -630 -690 751 0
-583 -630 -691 751 0
-583 -630 -692 751 0
-583 -630 -693 751 0
-583 -630 -694 751 0
-583 -630 -695 751 0
-583 -630 -696 751 0
-583 -630 -697 751 0
-583 -630 -698 751 0
-583 -630 -699 751 0
-583 -631 -674 751 0
-583 -631 -675 751 0
-583 -631 -676 751 0
-583 -631 -677 751 0
-583 -631 -678 751 0
-583 -631 -679 751 0
-583 -631 -680 751 0
-583 -631 -681 751 0
-583 -631 -682 751 0
-583 -631 -683 751 0
-583 -631 -684 751 0
-583 -631 -685 751 0
-583 -631 -686 751 0
-583 -631 -687 751 0
-583 -631 -688 751 0
-583 -631 -689 751 0
-583 -631 -690 751 0
-583 -631 -691 751 0
-583 -631 -692 751 0
-583 -631 -693 751 0
-583 -631 -694 751 0
-583 -631 -695 751 0
-583 -631 -696 751 0
-583 -631 -697 751 0
-583 -631 -698 751 0
-583 -631 -699 751 0
-583 -632 -674 751 0
-583 -632 -675 751 0
-583 -632 -676 751 0
-583 -632 -677 751 0
-583 -632 -678 751 0
-583 -632 -679 751 0
-583 -632 -680 751 0
-583 -632 -681 751 0
-583 -632 -682 751 0
-583 -632 -683 751 0
-583 -632 -684 751 0
-583 -632 -685 751 0
-583 -632 -686 751 0
-583 -632 -687 751 0
-583 -632 -688 751 0
-583 -632 -689 751 0
-583 -632 -690 751 0
-583 -632 -691 751 0
-583 -632 -692 751 0
-583 -632 -693 751 0
-583 -632 -694 751 0
-583 -632 -695 751 0
-583 -632 -696 751 0
-583 -632 -697 751 0
-583 -632 -698 751 0
-583 -632 -699 751 0
-583 -633 -674 751 0
-583 -633 -675 751 0
-583 -633 -676 751 0
-583 -633 -677 751 0
-583 -633 -678 751 0
-583 -633 -679 751 0
-583 -633 -680 751 0
-583 -633 -681 751 0
-583 -633 -682 751 0
-583 -633 -683 751 0
-583 -633 -684 751 0
-583 -633 -685 751 0
-583 -633 -686 751 0
-583 -633 -687 751 0
-583 -633 -688 751 0
-583 -633 -689 751 0
-583 -633 -690 751 0
-583 -633 -691 751 0
-583 -633 -692 751 0
-583 -633 -693 751 0
-583 -633 -694 751 0
-583 -633 -695 751 0
-583 -633 -696 751 0
-583 -633 -697 751 0
-583 -633 -698 751 0
-583 -633 -699 751 0
-583 -634 -674 751 0
-583 -634 -675 751 0
-583 -634 -676 751 0
-583 -634 -677 751 0
-583 -634 -678 751 0
-583 -634 -679 751 0
-583 -634 -680 751 0
-583 -634 -681 751 0
-583 -634 -682 751 0
-583 -634 -683 751 0
-583 -634 -684 751 0
-583 -634 -685 751 0
-583 -634 -686 751 0
-583 -634 -687 751 0
-583 -634 -688 751 0
-583 -634 -689 751 0
-583 -634 -690 751 0
-583 -634 -691 751 0
-583 -634 -692 751 0
-583 -634 -693 751 0
-583 -634 -694 751 0
-583 -634 -695 751 0
-583 -634 -696 751 0
-583 -634 -697 751 0
-583 -634 -698 751 0
-583 -634 -699 751 0
-583 -635 -674 751 0
-583 -635 -675 751 0
-583 -635 -676 751 0
-583 -635 -677 751 0
-583 -635 -678 751 0
-583 -635 -679 751 0
-583 -635 -680 751 0
-583 -635 -681 751 0
-583 -635 -682 751 0
-583 -635 -683 751 0
-583 -635 -684 751 0
-583 -635 -685 751 0
-583 -635 -686 751 0
-583 -635 -687 751 0
-583 -635 -688 751 0
-583 -635 -689 751 0
-583 -635 -690 751 0
-583 -635 -691 751 0
-583 -635 -692 751 0
-583 -635 -693 751 0
-583 -635 -694 751 0
-583 -635 -695 751 0
-583 -635 -696 751 0
-583 -635 -697 751 0
-583 -635 -698 751 0
-583 -635 -699 751 0
-583 -636 -674 751 0
-583 -636 -675 751 0
-583 -636 -676 751 0
-583 -636 -677 751 0
-583 -636 -678 751 0
-583 -636 -679 751 0
-583 -636 -680 751 0
-583 -636 -681 751 0
-583 -636 -682 751 0
-583 -636 -683 751 0
-583 -636 -684 751 0
-583 -636 -685 751 0
-583 -636 -686 751 0
-583 -636 -687 751 0
-583 -636 -688 751 0
-583 -636 -689 751 0
-583 -636 -690 751 0
-583 -636 -691 751 0
-583 -636 -692 751 0
-583 -636 -693 751 0
-583 -636 -694 751 0
-583 -636 -695 751 0
-583 -636 -696 751 0
-583 -636 -697 751 0
-583 -636 -698 751 0
-583 -636 -699 751 0
-583 -637 -674 751 0
-583 -637 -675 751 0
-583 -637 -676 751 0
-583 -637 -677 751 0
-583 -637 -678 751 0
-583 -637 -679 751 0
-583 -637 -680 751 0
-583 -637 -681 751 0
-583 -637 -682 751 0
-583 -637 -683 751 0
-583 -637 -684 751 0
-583 -637 -685 751 0
-583 -637 -686 751 0
-583 -637 -687 751 0
-583 -637 -688 751 0
-583 -637 -689 751 0
-583 -637 -690 751 0
-583 -637 -691 751 0
-583 -637 -692 751 0
-583 -637 -693 751 0
-583 -637 -694 751 0
-583 -637 -695 751 0
-583 -637 -696 751 0
-583 -637 -697 751 0
-583 -637 -698 751 0
-583 -637 -699 751 0
-583 -638 -674 751 0
-583 -638 -675 751 0
-583 -638 -676 751 0
-583 -638 -677 751 0
-583 -638 -678 751 0
-583 -638 -679 751 0
-583 -638 -680 751 0
-583 -638 -681 751 0
-583 -638 -682 751 0
-583 -638 -683 751 0
-583 -638 -684 751 0
-583 -638 -685 751 0
-583 -638 -686 751 0
-583 -638 -687 751 0
-583 -638 -688 751 0
-583 -638 -689 751 0
-583 -638 -690 751 0
-583 -638 -691 751 0
-583 -638 -692 751 0
-583 -638 -693 751 0
-583 -638 -694 751 0
-583 -638 -695 751 0
-583 -638 -696 751 0
-583 -638 -697 751 0
-583 -638 -698 751 0
-583 -638 -699 751 0
-583 -639 -674 751 0
-583 -639 -675 751 0
-583 -639 -676 751 0
-583 -639 -677 751 0
-583 -639 -678 751 0
-583 -639 -679 751 0
-583 -639 -680 751 0
-583 -639 -681 751 0
-583 -639 -682 751 0
-583 -639 -683 751 0
-583 -639 -684 751 0
-583 -639 -685 751 0
-583 -639 -686 751 0
-583 -639 -687 751 0
-583 -639 -688 751 0
-583 -639 -689 751 0
-583 -639 -690 751 0
-583 -639 -691 751 0
-583 -639 -692 751 0
-583 -639 -693 751 0
-583 -639 -694 751 0
-583 -639 -695 751 0
-583 -639 -696 751 0
-583 -639 -697 751 0
-583 -639 -698 751 0
-583 -639 -699 751 0
-583 -640 -674 751 0
-583 -640 -675 751 0
-583 -640 -676 751 0
-583 -640 -677 751 0
-583 -640 -678 751 0
-583 -640 -679 751 0
-583 -640 -680 751 0
-583 -640 -681 751 0
-583 -640 -682 751 0
-583 -640 -683 751 0
-583 -640 -684 751 0
-583 -640 -685 751 0
-583 -640 -686 751 0
-583 -640 -687 751 0
-583 -640 -688 751 0
-583 -640 -689 751 0
-583 -640 -690 751 0
-583 -640 -691 751 0
-583 -640 -692 751 0
-583 -640 -693 751 0
-583 -640 -694 751 0
-583 -640 -695 751 0
-583 -640 -696 751 0
-583 -640 -697 751 0
-583 -640 -698 751 0
-583 -640 -699 751 0
-583 -641 -674 751 0
-583 -641 -675 751 0
-583 -641 -676 751 0
-583 -641 -677 751 0
-583 -641 -678 751 0
-583 -641 -679 751 0
-583 -641 -680 751 0
-583 -641 -681 751 0
-583 -641 -682 751 0
-583 -641 -683 751 0
-583 -641 -684 751 0
-583 -641 -685 751 0
-583 -641 -686 751 0
-583 -641 -687 751 0
-583 -641 -688 751 0
-583 -641 -689 751 0
-583 -641 -690 751 0
-583 -641 -691 751 0
-583 -641 -692 751 0
-583 -641 -693 751 0
-583 -641 -694 751 0
-583 -641 -695 751 0
-583 -641 -696 751 0
-583 -641 -697 751 0
-583 -641 -698 751 0
-583 -641 -699 751 0
-583 -642 -674 751 0
-583 -642 -675 751 0
-583 -642 -676 751 0
-583 -642 -677 751 0
-583 -642 -678 751 0
-583 -642 -679 751 0
-583 -642 -680 751 0
-583 -642 -681 751 0
-583 -642 -682 751 0
-583 -642 -683 751 0
-583 -642 -684 751 0
-583 -642 -685 751 0
-583 -642 -686 751 0
-583 -642 -687 751 0
-583 -642 -688 751 0
-583 -642 -689 751 0
-583 -642 -690 751 0
-583 -642 -691 751 0
-583 -642 -692 751 0
-583 -642 -693 751 0
-583 -642 -694 751 0
-583 -642 -695 751 0
-583 -642 -696 751 0
-583 -642 -697 751 0
-583 -642 -698 751 0
-583 -642 -699 751 0
-583 -643 -674 751 0
-583 -643 -675 751 0
-583 -643 -676 751 0
-583 -643 -677 751 0
-583 -643 -678 751 0
-583 -643 -679 751 0
-583 -643 -680 751 0
-583 -643 -681 751 0
-583 -643 -682 751 0
-583 -643 -683 751 0
-583 -643 -684 751 0
-583 -643 -685 751 0
-583 -643 -686 751 0
-583 -643 -687 751 0
-583 -643 -688 751 0
-583 -643 -689 751 0
-583 -643 -690 751 0
-583 -643 -691 751 0
-583 -643 -692 751 0
-583 -643 -693 751 0
-583 -643 -694 751 0
-583 -643 -695 751 0
-583 -643 -696 751 0
-583 -643 -697 751 0
-583 -643 -698 751 0
-583 -643 -699 751 0
-583 -644 -674 751 0
-583 -644 -675 751 0
-583 -644 -676 751 0
-583 -644 -677 751 0
-583 -644 -678 751 0
-583 -644 -679 751 0
-583 -644 -680 751 0
-583 -644 -681 751 0
-583 -644 -682 751 0
-583 -644 -683 751 0
-583 -644 -684 751 0
-583 -644 -685 751 0
-583 -644 -686 751 0
-583 -644 -687 751 0
-583 -644 -688 751 0
-583 -644 -689 751 0
-583 -644 -690 751 0
-583 -644 -691 751 0
-583 -644 -692 751 0
-583 -644 -693 751 0
-583 -644 -694 751 0
-583 -644 -695 751 0
-583 -644 -696 751 0
-583 -644 -697 751 0
-583 -644 -698 751 0
-583 -644 -699 751 0
-583 -645 -674 751 0
-583 -645 -675 751 0
-583 -645 -676 751 0
-583 -645 -677 751 0
-583 -645 -678 751 0
-583 -645 -679 751 0
-583 -645 -680 751 0
-583 -645 -681 751 0
-583 -645 -682 751 0
-583 -645 -683 751 0
-583 -645 -684 751 0
-583 -645 -685 751 0
-583 -645 -686 751 0
-583 -645 -687 751 0
-583 -645 -688 751 0
-583 -645 -689 751 0
-583 -645 -690 751 0
-583 -645 -691 751 0
-583 -645 -692 751 0
-583 -645 -693 751 0
-583 -645 -694 751 0
-583 -645 -695 751 0
-583 -645 -696 751 0
-583 -645 -697 751 0
-583 -645 -698 751 0
-583 -645 -699 751 0
-583 -646 -674 751 0
-583 -646 -675 751 0
-583 -646 -676 751 0
-583 -646 -677 751 0
-583 -646 -678 751 0
-583 -646 -679 751 0
-583 -646 -680 751 0
-583 -646 -681 751 0
-583 -646 -682 751 0
-583 -646 -683 751 0
-583 -646 -684 751 0
-583 -646 -685 751 0
-583 -646 -686 751 0
-583 -646 -687 751 0
-583 -646 -688 751 0
-583 -646 -689 751 0
-583 -646 -690 751 0
-583 -646 -691 751 0
-583 -646 -692 751 0
-583 -646 -693 751 0
-583 -646 -694 751 0
-583 -646 -695 751 0
-583 -646 -696 751 0
-583 -646 -697 751 0
-583 -646 -698 751 0
-583 -646 -699 751 0
-583 -647 -674 751 0
-583 -647 -675 751 0
-583 -647 -676 751 0
-583 -647 -677 751 0
-583 -647 -678 751 0
-583 -647 -679 751 0
-583 -647 -680 751 0
-583 -647 -681 751 0
-583 -647 -682 751 0
-583 -647 -683 751 0
-583 -647 -684 751 0
-583 -647 -685 751 0
-583 -647 -686 751 0
-583 -647 -687 751 0
-583 -647 -688 751 0
-583 -647 -689 751 0
-583 -647 -690 751 0
-583 -647 -691 751 0
-583 -647 -692 751 0
-583 -647 -693 751 0
-583 -647 -694 751 0
-583 -647 -695 751 0
-583 -647 -696 751 0
-583 -647 -697 751 0
-583 -647 -698 751 0
-583 -647 -699 751 0
-584 -622 -674 743 0
-584 -622 -675 744 0
-584 -622 -676 745 0
-584 -622 -677 746 0
-584 -622 -678 747 0
-584 -622 -679 748 0
-584 -622 -680 749 0
-584 -622 -681 750 0
-584 -622 -682 751 0
-584 -622 -683 751 0
-584 -622 -684 751 0
-584 -622 -685 751 0
-584 -622 -686 751 0
-584 -622 -687 751 0
-584 -622 -688 751 0
-584 -622 -689 751 0
-584 -622 -690 751 0
-584 -622 -691 751 0
-584 -622 -692 751 0
-584 -622 -693 751 0
-584 -622 -694 751 0
-584 -622 -695 751 0
-584 -622 -696 751 0
-584 -622 -697 751 0
-584 -622 -698 751 0
-584 -622 -699 751 0
-584 -623 -674 744 0
-584 -623 -675 745 0
-584 -623 -676 746 0
-584 -623 -677 747 0
-584 -623 -678 748 0
-584 -623 -679 749 0
-584 -623 -680 750 0
-584 -623 -681 751 0
-584 -623 -682 751 0
-584 -623 -683 751 0
-584 -623 -684 751 0
-584 -623 -685 751 0
-584 -623 -686 751 0
-584 -623 -687 751 0
-584 -623 -688 751 0
-584 -623 -689 751 0
-584 -623 -690 751 0
-584 -623 -691 751 0
-584 -623 -692 751 0
-584 -623 -693 751 0
-584 -623 -694 751 0
-584 -623 -695 751 0
-584 -623 -696 751 0
-584 -623 -697 751 0
-584 -623 -698 751 0
-584 -623 -699 751 0
-584 -624 -674 745 0
-584 -624 -675 746 0
-584 -624 -676 747 0
-584 -624 -677 748 0
-584 -624 -678 749 0
-584 -624 -679 750 0
-584 -624 -680 751 0
-584 -624 -681 751 0
-584 -624 -682 751 0
-584 -624 -683 751 0
-584 -624 -684 751 0
-584 -624 -685 751 0
-584 -624 -686 751 0
-584 -624 -687 751 0
-584 -624 -688 751 0
-584 -624 -689 751 0
-584 -624 -690 751 0
-584 -624 -691 751 0
-584 -624 -692 751 0
-584 -624 -693 751 0
-584 -624 -694 751 0
-584 -624 -695 751 0
-584 -624 -696 751 0
-584 -624 -697 751 0
-584 -624 -698 751 0
-584 -624 -699 751 0
-584 -625 -674 746 0
-584 -625 -675 747 0
-584 -625 -676 748 0
-584 -625 -677 749 0
-584 -625 -678 750 0
-584 -625 -679 751 0
-584 -625 -680 751 0
-584 -625 -681 751 0
-584 -625 -682 751 0
-584 -625 -683 751 0
-584 -625 -684 751 0
-584 -625 -685 751 0
-584 -625 -686 751 0
-584 -625 -687 751 0
-584 -625 -688 751 0
-584 -625 -689 751 0
-584 -625 -690 751 0
-584 -625 -691 751 0
-584 -625 -692 751 0
-584 -625 -693 751 0
-584 -625 -694 751 0
-584 -625 -695 751 0
-584 -625 -696 751 0
-584 -625 -697 751 0
-584 -625 -698 751 0
-584 -625 -699 751 0
-584 -626 -674 747 0
-584 -626 -675 748 0
-584 -626 -676 749 0
-584 -626 -677 750 0
-584 -626 -678 751 0
-584 -626 -679 751 0
-584 -626 -680 751 0
-584 -626 -681 751 0
-584 -626 -682 751 0
-584 -626 -683 751 0
-584 -626 -684 751 0
-584 -626 -685 751 0
-584 -626 -686 751 0
-584 -626 -687 751 0
-584 -626 -688 751 0
-584 -626 -689 751 0
-584 -626 -690 751 0
-584 -626 -691 751 0
-584 -626 -692 751 0
-584 -626 -693 751 0
-584 -626 -694 751 0
-584 -626 -695 751 0
-584 -626 -696 751 0
-584 -626 -697 751 0
-584 -626 -698 751 0
-584 -626 -699 751 0
-584 -627 -674 748 0
-584 -627 -675 749 0
-584 -627 -676 750 0
-584 -627 -677 751 0
-584 -627 -678 751 0
-584 -627 -679 751 0
-584 -627 -680 751 0
-584 -627 -681 751 0
-584 -627 -682 751 0
-584 -627 -683 751 0
-584 -627 -684 751 0
-584 -627 -685 751 0
-584 -627 -686 751 0
-584 -627 -687 751 0
-584 -627 -688 751 0
-584 -627 -689 751 0
-584 -627 -690 751 0
-584 -627 -691 751 0
-584 -627 -692 751 0
-584 -627 -693 751 0
-584 -627 -694 751 0
-584 -627 -695 751 0
-584 -627 -696 751 0
-584 -627 -697 751 0
-584 -627 -698 751 0
-584 -627 -699 751 0
-584 -628 -674 749 0
-584 -628 -675 750 0
-584 -628 -676 751 0
-584 -628 -677 751 0
-584 -628 -678 751 0
-584 -628 -679 751 0
-584 -628 -680 751 0
-584 -628 -681 751 0
-584 -628 -682 751 0
-584 -628 -683 751 0
-584 -628 -684 751 0
-584 -628 -685 751 0
-584 -628 -686 751 0
-584 -628 -687 751 0
-584 -628 -688 751 0
-584 -628 -689 751 0
-584 -628 -690 751 0
-584 -628 -691 751 0
-584 -628 -692 751 0
-584 -628 -693 751 0
-584 -628 -694 751 0
-584 -628 -695 751 0
-584 -628 -696 751 0
-584 -628 -697 751 0
-584 -628 -698 751 0
-584 -628 -699 751 0
-584 -629 -674 750 0
-584 -629 -675 751 0
-584 -629 -676 751 0
-584 -629 -677 751 0
-584 -629 -678 751 0
-584 -629 -679 751 0
-584 -629 -680 751 0
-584 -629 -681 751 0
-584 -629 -682 751 0
-584 -629 -683 751 0
-584 -629 -684 751 0
-584 -629 -685 751 0
-584 -629 -686 751 0
-584 -629 -687 751 0
-584 -629 -688 751 0
-584 -629 -689 751 0
-584 -629 -690 751 0
-584 -629 -691 751 0
-584 -629 -692 751 0
-584 -629 -693 751 0
-584 -629 -694 751 0
-584 -629 -695 751 0
-584 -629 -696 751 0
-584 -629 -697 751 0
-584 -629 -698 751 0
-584 -629 -699 751 0
-584 -630 -674 751 0
-584 -630 -675 751 0
-584 -630 -676 751 0
-584 -630 -677 751 0
-584 -630 -678 751 0
-584 -630 -679 751 0
-584 -630 -680 751 0
-584 -630 -681 751 0
-584 -630 -682 751 0
-584 -630 -683 751 0
-584 -630 -684 751 0
-584 -630 -685 751 0
-584 -630 -686 751 0
-584 -630 -687 751 0
-584 -630 -688 751 0
-584 -630 -689 751 0
-584 -630 -690 751 0
-584 -630 -691 751 0
-584 -630 -692 751 0
-584 -630 -693 751 0
-584 -630 -694 751 0
-584 -630 -695 751 0
-584 -630 -696 751 0
-584 -630 -697 751 0
-584 -630 -698 751 0
-584 -630 -699 751 0
-584 -631 -674 751 0
-584 -631 -675 751 0
-584 -631 -676 751 0
-584 -631 -677 751 0
-584 -631 -678 751 0
-584 -631 -679 751 0
-584 -631 -680 751 0
-584 -631 -681 751 0
-584 -631 -682 751 0
-584 -631 -683 751 0
-584 -631 -684 751 0
-584 -631 -685 751 0
-584 -631 -686 751 0
-584 -631 -687 751 0
-584 -631 -688 751 0
-584 -631 -689 751 0
-584 -631 -690 751 0
-584 -631 -691 751 0
-584 -631 -692 751 0
-584 -631 -693 751 0
-584 -631 -694 751 0
-584 -631 -695 751 0
-584 -631 -696 751 0
-584 -631 -697 751 0
-584 -631 -698 751 0
-584 -631 -699 751 0
-584 -632 -674 751 0
-584 -632 -675 751 0
-584 -632 -676 751 0
-584 -632 -677 751 0
-584 -632 -678 751 0
-584 -632 -679 751 0
-584 -632 -680 751 0
-584 -632 -681 751 0
-584 -632 -682 751 0
-584 -632 -683 751 0
-584 -632 -684 751 0
-584 -632 -685 751 0
-584 -632 -686 751 0
-584 -632 -687 751 0
-584 -632 -688 751 0
-584 -632 -689 751 0
-584 -632 -690 751 0
-584 -632 -691 751 0
-584 -632 -692 751 0
-584 -632 -693 751 0
-584 -632 -694 751 0
-584 -632 -695 751 0
-584 -632 -696 751 0
-584 -632 -697 751 0
-584 -632 -698 751 0
-584 -632 -699 751 0
-584 -633 -674 751 0
-584 -633 -675 751 0
-584 -633 -676 751 0
-584 -633 -677 751 0
-584 -633 -678 751 0
-584 -633 -679 751 0
-584 -633 -680 751 0
-584 -633 -681 751 0
-584 -633 -682 751 0
-584 -633 -683 751 0
-584 -633 -684 751 0
-584 -633 -685 751 0
-584 -633 -686 751 0
-584 -633 -687 751 0
-584 -633 -688 751 0
-584 -633 -689 751 0
-584 -633 -690 751 0
-584 -633 -691 751 0
-584 -633 -692 751 0
-584 -633 -693 751 0
-584 -633 -694 751 0
-584 -633 -695 751 0
-584 -633 -696 751 0
-584 -633 -697 751 0
-584 -633 -698 751 0
-584 -633 -699 751 0
-584 -634 -674 751 0
-584 -634 -675 751 0
-584 -634 -676 751 0
-584 -634 -677 751 0
-584 -634 -678 751 0
-584 -634 -679 751 0
-584 -634 -680 751 0
-584 -634 -681 751 0
-584 -634 -682 751 0
-584 -634 -683 751 0
-584 -634 -684 751 0
-584 -634 -685 751 0
-584 -634 -686 751 0
-584 -634 -687 751 0
-584 -634 -688 751 0
-584 -634 -689 751 0
-584 -634 -690 751 0
-584 -634 -691 751 0
-584 -634 -692 751 0
-584 -634 -693 751 0
-584 -634 -694 751 0
-584 -634 -695 751 0
-584 -634 -696 751 0
-584 -634 -697 751 0
-584 -634 -698 751 0
-584 -634 -699 751 0
-584 -635 -674 751 0
-584 -635 -675 751 0
-584 -635 -676 751 0
-584 -635 -677 751 0
-584 -635 -678 751 0
-584 -635 -679 751 0
-584 -635 -680 751 0
-584 -635 -681 751 0
-584 -635 -682 751 0
-584 -635 -683 751 0
-584 -635 -684 751 0
-584 -635 -685 751 0
-584 -635 -686 751 0
-584 -635 -687 751 0
-584 -635 -688 751 0
-584 -635 -689 751 0
-584 -635 -690 751 0
-584 -635 -691 751 0
-584 -635 -692 751 0
-584 -635 -693 751 0
-584 -635 -694 751 0
-584 -635 -695 751 0
-584 -635 -696 751 0
-584 -635 -697 751 0
-584 -635 -698 751 0
-584 -635 -699 751 0
-584 -636 -674 751 0
-584 -636 -675 751 0
-584 -636 -676 751 0
-584 -636 -677 751 0
-584 -636 -678 751 0
-584 -636 -679 751 0
-584 -636 -680 751 0
-584 -636 -681 751 0
-584 -636 -682 751 0
-584 -636 -683 751 0
-584 -636 -684 751 0
-584 -636 -685 751 0
-584 -636 -686 751 0
-584 -636 -687 751 0
-584 -636 -688 751 0
-584 -636 -689 751 0
-584 -636 -690 751 0
-584 -636 -691 751 0
-584 -636 -692 751 0
-584 -636 -693 751 0
-584 -636 -694 751 0
-584 -636 -695 751 0
-584 -636 -696 751 0
-584 -636 -697 751 0
-584 -636 -698 751 0
-584 -636 -699 751 0
-584 -637 -674 751 0
-584 -637 -675 751 0
-584 -637 -676 751 0
-584 -637 -677 751 0
-584 -637 -678 751 0
-584 -637 -679 751 0
-584 -637 -680 751 0
-584 -637 -681 751 0
-584 -637 -682 751 0
-584 -637 -683 751 0
-584 -637 -684 751 0
-584 -637 -685 751 0
-584 -637 -686 751 0
-584 -637 -687 751 0
-584 -637 -688 751 0
-584 -637 -689 751 0
-584 -637 -690 751 0
-584 -637 -691 751 0
-584 -637 -692 751 0
-584 -637 -693 751 0
-584 -637 -694 751 0
-584 -637 -695 751 0
-584 -637 -696 751 0
-584 -637 -697 751 0
-584 -637 -698 751 0
-584 -637 -699 751 0
-584 -638 -674 751 0
-584 -638 -675 751 0
-584 -638 -676 751 0
-584 -638 -677 751 0
-584 -638 -678 751 0
-584 -638 -679 751 0
-584 -638 -680 751 0
-584 -638 -681 751 0
-584 -638 -682 751 0
-584 -638 -683 751 0
-584 -638 -684 751 0
-584 -638 -685 751 0
-584 -638 -686 751 0
-584 -638 -687 751 0
-584 -638 -688 751 0
-584 -638 -689 751 0
-584 -638 -690 751 0
-584 -638 -691 751 0
-584 -638 -692 751 0
-584 -638 -693 751 0
-584 -638 -694 751 0
-584 -638 -695 751 0
-584 -638 -696 751 0
-584 -638 -697 751 0
-584 -638 -698 751 0
-584 -638 -699 751 0
-584 -639 -674 751 0
-584 -639 -675 751 0
-584 -639 -676 751 0
-584 -639 -677 751 0
-584 -639 -678 751 0
-584 -639 -679 751 0
-584 -639 -680 751 0
-584 -639 -681 751 0
-584 -639 -682 751 0
-584 -639 -683 751 0
-584 -639 -684 751 0
-584 -639 -685 751 0
-584 -639 -686 751 0
-584 -639 -687 751 0
-584 -639 -688 751 0
-584 -639 -689 751 0
-584 -639 -690 751 0
-584 -639 -691 751 0
-584 -639 -692 751 0
-584 -639 -693 751 0
-584 -639 -694 751 0
-584 -639 -695 751 0
-584 -639 -696 751 0
-584 -639 -697 751 0
-584 -639 -698 751 0
-584 -639 -699 751 0
-584 -640 -674 751 0
-584 -640 -675 751 0
-584 -640 -676 751 0
-584 -640 -677 751 0
-584 -640 -678 751 0
-584 -640 -679 751 0
-584 -640 -680 751 0
-584 -640 -681 751 0
-584 -640 -682 751 0
-584 -640 -683 751 0
-584 -640 -684 751 0
-584 -640 -685 751 0
-584 -640 -686 751 0
-584 -640 -687 751 0
-584 -640 -688 751 0
-584 -640 -689 751 0
-584 -640 -690 751 0
-584 -640 -691 751 0
-584 -640 -692 751 0
-584 -640 -693 751 0
-584 -640 -694 751 0
-584 -640 -695 751 0
-584 -640 -696 751 0
-584 -640 -697 751 0
-584 -640 -698 751 0
-584 -640 -699 751 0
-584 -641 -674 751 0
-584 -641 -675 751 0
-584 -641 -676 751 0
-584 -641 -677 751 0
-584 -641 -678 751 0
-584 -641 -679 751 0
-584 -641 -680 751 0
-584 -641 -681 751 0
-584 -641 -682 751 0
-584 -641 -683 751 0
-584 -641 -684 751 0
-584 -641 -685 751 0
-584 -641 -686 751 0
-584 -641 -687 751 0
-584 -641 -688 751 0
-584 -641 -689 751 0
-584 -641 -690 751 0
-584 -641 -691 751 0
-584 -641 -692 751 0
-584 -641 -693 751 0
-584 -641 -694 751 0
-584 -641 -695 751 0
-584 -641 -696 751 0
-584 -641 -697 751 0
-584 -641 -698 751 0
-584 -641 -699 751 0
-584 -642 -674 751 0
-584 -642 -675 751 0
-584 -642 -676 751 0
-584 -642 -677 751 0
-584 -642 -678 751 0
-584 -642 -679 751 0
-584 -642 -680 751 0
-584 -642 -681 751 0
-584 -642 -682 751 0
-584 -642 -683 751 0
-584 -642 -684 751 0
-584 -642 -685 751 0
-584 -642 -686 751 0
-584 -642 -687 751 0
-584 -642 -688 751 0
-584 -642 -689 751 0
-584 -642 -690 751 0
-584 -642 -691 751 0
-584 -642 -692 751 0
-584 -642 -693 751 0
-584 -642 -694 751 0
-584 -642 -695 751 0
-584 -642 -696 751 0
-584 -642 -697 751 0
-584 -642 -698 751 0
-584 -642 -699 751 0
-584 -643 -674 751 0
-584 -643 -675 751 0
-584 -643 -676 751 0
-584 -643 -677 751 0
-584 -643 -678 751 0
-584 -643 -679 751 0
-584 -643 -680 751 0
-584 -643 -681 751 0
-584 -643 -682 751 0
-584 -643 -683 751 0
-584 -643 -684 751 0
-584 -643 -685 751 0
-584 -643 -686 751 0
-584 -643 -687 751 0
-584 -643 -688 751 0
-584 -643 -689 751 0
-584 -643 -690 751 0
-584 -643 -691 751 0
-584 -643 -692 751 0
-584 -643 -693 751 0
-584 -643 -694 751 0
-584 -643 -695 751 0
-584 -643 -696 751 0
-584 -643 -697 751 0
-584 -643 -698 751 0
-584 -643 -699 751 0
-584 -644 -674 751 0
-584 -644 -675 751 0
-584 -644 -676 751 0
-584 -644 -677 751 0
-584 -644 -678 751 0
-584 -644 -679 751 0
-584 -644 -680 751 0
-584 -644 -681 751 0
-584 -644 -682 751 0
-584 -644 -683 751 0
-584 -644 -684 751 0
-584 -644 -685 751 0
-584 -644 -686 751 0
-584 -644 -687 751 0
-584 -644 -688 751 0
-584 -644 -689 751 0
-584 -644 -690 751 0
-584 -644 -691 751 0
-584 -644 -692 751 0
-584 -644 -693 751 0
-584 -644 -694 751 0
-584 -644 -695 751 0
-584 -644 -696 751 0
-584 -644 -697 751 0
-584 -644 -698 751 0
-584 -644 -699 751 0
-584 -645 -674 751 0
-584 -645 -675 751 0
-584 -645 -676 751 0
-584 -645 -677 751 0
-584 -645 -678 751 0
-584 -645 -679 751 0
-584 -645 -680 751 0
-584 -645 -681 751 0
-584 -645 -682 751 0
-584 -645 -683 751 0
-584 -645 -684 751 0
-584 -645 -685 751 0
-584 -645 -686 751 0
-584 -645 -687 751 0
-584 -645 -688 751 0
-584 -645 -689 751 0
-584 -645 -690 751 0
-584 -645 -691 751 0
-584 -645 -692 751 0
-584 -645 -693 751 0
-584 -645 -694 751 0
-584 -645 -695 751 0
-584 -645 -696 751 0
-584 -645 -697 751 0
-584 -645 -698 751 0
-584 -645 -699 751 0
-584 -646 -674 751 0
-584 -646 -675 751 0
-584 -646 -676 751 0
-584 -646 -677 751 0
-584 -646 -678 751 0
-584 -646 -679 751 0
-584 -646 -680 751 0
-584 -646 -681 751 0
-584 -646 -682 751 0
-584 -646 -683 751 0
-584 -646 -684 751 0
-584 -646 -685 751 0
-584 -646 -686 751 0
-584 -646 -687 751 0
-584 -646 -688 751 0
-584 -646 -689 751 0
-584 -646 -690 751 0
-584 -646 -691 751 0
-584 -646 -692 751 0
-584 -646 -693 751 0
-584 -646 -694 751 0
-584 -646 -695 751 0
-584 -646 -696 751 0
-584 -646 -697 751 0
-584 -646 -698 751 0
-584 -646 -699 751 0
-584 -647 -674 751 0
-584 -647 -675 751 0
-584 -647 -676 751 0
-584 -647 -677 751 0
-584 -647 -678 751 0
-584 -647 -679 751 0
-584 -647 -680 751 0
-584 -647 -681 751 0
-584 -647 -682 751 0
-584 -647 -683 751 0
-584 -647 -684 751 0
-584 -647 -685 751 0
-584 -647 -686 751 0
-584 -647 -687 751 0
-584 -647 -688 751 0
-584 -647 -689 751 0
-584 -647 -690 751 0
-584 -647 -691 751 0
-584 -647 -692 751 0
-584 -647 -693 751 0
-584 -647 -694 751 0
-584 -647 -695 751 0
-584 -647 -696 751 0
-584 -647 -697 751 0
-584 -647 -698 751 0
-584 -647 -699 751 0
-585 -622 -674 744 0
-585 -622 -675 745 0
-585 -622 -676 746 0
-585 -622 -677 747 0
-585 -622 -678 748 0
-585 -622 -679 749 0
-585 -622 -680 750 0
-585 -622 -681 751 0
-585 -622 -682 751 0
-585 -622 -683 751 0
-585 -622 -684 751 0
-585 -622 -685 751 0
-585 -622 -686 751 0
-585 -622 -687 751 0
-585 -622 -688 751 0
-585 -622 -689 751 0
-585 -622 -690 751 0
-585 -622 -691 751 0
-585 -622 -692 751 0
-585 -622 -693 751 0
-585 -622 -694 751 0
-585 -622 -695 751 0
-585 -622 -696 751 0
-585 -622 -697 751 0
-585 -622 -698 751 0
-585 -622 -699 751 0
-585 -623 -674 745 0
-585 -623 -675 746 0
-585 -623 -676 747 0
-585 -623 -677 748 0
-585 -623 -678 749 0
-585 -623 -679 750 0
-585 -623 -680 751 0
-585 -623 -681 751 0
-585 -623 -682 751 0
-585 -623 -683 751 0
-585 -623 -684 751 0
-585 -623 -685 751 0
-585 -623 -686 751 0
-585 -623 -687 751 0
-585 -623 -688 751 0
-585 -623 -689 751 0
-585 -623 -690 751 0
-585 -623 -691 751 0
-585 -623 -692 751 0
-585 -623 -693 751 0
-585 -623 -694 751 0
-585 -623 -695 751 0
-585 -623 -696 751 0
-585 -623 -697 751 0
-585 -623 -698 751 0
-585 -623 -699 751 0
-585 -624 -674 746 0
-585 -624 -675 747 0
-585 -624 -676 748 0
-585 -624 -677 749 0
-585 -624 -678 750 0
-585 -624 -679 751 0
-585 -624 -680 751 0
-585 -624 -681 751 0
-585 -624 -682 751 0
-585 -624 -683 751 0
-585 -624 -684 751 0
-585 -624 -685 751 0
-585 -624 -686 751 0
-585 -624 -687 751 0
-585 -624 -688 751 0
-585 -624 -689 751 0
-585 -624 -690 751 0
-585 -624 -691 751 0
-585 -624 -692 751 0
-585 -624 -693 751 0
-585 -624 -694 751 0
-585 -624 -695 751 0
-585 -624 -696 751 0
-585 -624 -697 751 0
-585 -624 -698 751 0
-585 -624 -699 751 0
-585 -625 -674 747 0
-585 -625 -675 748 0
-585 -625 -676 749 0
-585 -625 -677 750 0
-585 -625 -678 751 0
-585 -625 -679 751 0
-585 -625 -680 751 0
-585 -625 -681 751 0
-585 -625 -682 751 0
-585 -625 -683 751 0
-585 -625 -684 751 0
-585 -625 -685 751 0
-585 -625 -686 751 0
-585 -625 -687 751 0
-585 -625 -688 751 0
-585 -625 -689 751 0
-585 -625 -690 751 0
-585 -625 -691 751 0
-585 -625 -692 751 0
-585 -625 -693 751 0
-585 -625 -694 751 0
-585 -625 -695 751 0
-585 -625 -696 751 0
-585 -625 -697 751 0
-585 -625 -698 751 0
-585 -625 -699 751 0
-585 -626 -674 748 0
-585 -626 -675 749 0
-585 -626 -676 750 0
-585 -626 -677 751 0
-585 -626 -678 751 0
-585 -626 -679 751 0
-585 -626 -680 751 0
-585 -626 -681 751 0
-585 -626 -682 751 0
-585 -626 -683 751 0
-585 -626 -684 751 0
-585 -626 -685 751 0
-585 -626 -686 751 0
-585 -626 -687 751 0
-585 -626 -688 751 0
-585 -626 -689 751 0
-585 -626 -690 751 0
-585 -626 -691 751 0
-585 -626 -692 751 0
-585 -626 -693 751 0
-585 -626 -694 751 0
-585 -626 -695 751 0
-585 -626 -696 751 0
-585 -626 -697 751 0
-585 -626 -698 751 0
-585 -626 -699 751 0
-585 -627 -674 749 0
-585 -627 -675 750 0
-585 -627 -676 751 0
-585 -627 -677 751 0
-585 -627 -678 751 0
-585 -627 -679 751 0
-585 -627 -680 751 0
-585 -627 -681 751 0
-585 -627 -682 751 0
-585 -627 -683 751 0
-585 -627 -684 751 0
-585 -627 -685 751 0
-585 -627 -686 751 0
-585 -627 -687 751 0
-585 -627 -688 751 0
-585 -627 -689 751 0
-585 -627 -690 751 0
-585 -627 -691 751 0
-585 -627 -692 751 0
-585 -627 -693 751 0
-585 -627 -694 751 0
-585 -627 -695 751 0
-585 -627 -696 751 0
-585 -627 -697 751 0
-585 -627 -698 751 0
-585 -627 -699 751 0
-585 -628 -674 750 0
-585 -628 -675 751 0
-585 -628 -676 751 0
-585 -628 -677 751 0
-585 -628 -678 751 0
-585 -628 -679 751 0
-585 -628 -680 751 0
-585 -628 -681 751 0
-585 -628 -682 751 0
-585 -628 -683 751 0
-585 -628 -684 751 0
-585 -628 -685 751 0
-585 -628 -686 751 0
-585 -628 -687 751 0
-585 -628 -688 751 0
-585 -628 -689 751 0
-585 -628 -690 751 0
-585 -628 -691 751 0
-585 -628 -692 751 0
-585 -628 -693 751 0
-585 -628 -694 751 0
-585 -628 -695 751 0
-585 -628 -696 751 0
-585 -628 -697 751 0
-585 -628 -698 751 0
-585 -628 -699 751 0
-585 -629 -674 751 0
-585 -629 -675 751 0
-585 -629 -676 751 0
-585 -629 -677 751 0
-585 -629 -678 751 0
-585 -629 -679 751 0
-585 -629 -680 751 0
-585 -629 -681 751 0
-585 -629 -682 751 0
-585 -629 -683 751 0
-585 -629 -684 751 0
-585 -629 -685 751 0
-585 -629 -686 751 0
-585 -629 -687 751 0
-585 -629 -688 751 0
-585 -629 -689 751 0
-585 -629 -690 751 0
-585 -629 -691 751 0
-585 -629 -692 751 0
-585 -629 -693 751 0
-585 -629 -694 751 0
-585 -629 -695 751 0
-585 -629 -696 751 0
-585 -629 -697 751 0
-585 -629 -698 751 0
-585 -629 -699 751 0
-585 -630 -674 751 0
-585 -630 -675 751 0
-585 -630 -676 751 0
-585 -630 -677 751 0
-585 -630 -678 751 0
-585 -630 -679 751 0
-585 -630 -680 751 0
-585 -630 -681 751 0
-585 -630 -682 751 0
-585 -630 -683 751 0
-585 -630 -684 751 0
-585 -630 -685 751 0
-585 -630 -686 751 0
-585 -630 -687 751 0
-585 -630 -688 751 0
-585 -630 -689 751 0
-585 -630 -690 751 0
-585 -630 -691 751 0
-585 -630 -692 751 0
-585 -630 -693 751 0
-585 -630 -694 751 0
-585 -630 -695 751 0
-585 -630 -696 751 0
-585 -630 -697 751 0
-585 -630 -698 751 0
-585 -630 -699 751 0
-585 -631 -674 751 0
-585 -631 -675 751 0
-585 -631 -676 751 0
-585 -631 -677 751 0
-585 -631 -678 751 0
-585 -631 -679 751 0
-585 -631 -680 751 0
-585 -631 -681 751 0
-585 -631 -682 751 0
-585 -631 -683 751 0
-585 -631 -684 751 0
-585 -631 -685 751 0
-585 -631 -686 751 0
-585 -631 -687 751 0
-585 -631 -688 751 0
-585 -631 -689 751 0
-585 -631 -690 751 0
-585 -631 -691 751 0
-585 -631 -692 751 0
-585 -631 -693 751 0
-585 -631 -694 751 0
-585 -631 -695 751 0
-585 -631 -696 751 0
-585 -631 -697 751 0
-585 -631 -698 751 0
-585 -631 -699 751 0
-585 -632 -674 751 0
-585 -632 -675 751 0
-585 -632 -676 751 0
-585 -632 -677 751 0
-585 -632 -678 751 0
-585 -632 -679 751 0
-585 -632 -680 751 0
-585 -632 -681 751 0
-585 -632 -682 751 0
-585 -632 -683 751 0
-585 -632 -684 751 0
-585 -632 -685 751 0
-585 -632 -686 751 0
-585 -632 -687 751 0
-585 -632 -688 751 0
-585 -632 -689 751 0
-585 -632 -690 751 0
-585 -632 -691 751 0
-585 -632 -692 751 0
-585 -632 -693 751 0
-585 -632 -694 751 0
-585 -632 -695 751 0
-585 -632 -696 751 0
-585 -632 -697 751 0
-585 -632 -698 751 0
-585 -632 -699 751 0
-585 -633 -674 751 0
-585 -633 -675 751 0
-585 -633 -676 751 0
-585 -633 -677 751 0
-585 -633 -678 751 0
-585 -633 -679 751 0
-585 -633 -680 751 0
-585 -633 -681 751 0
-585 -633 -682 751 0
-585 -633 -683 751 0
-585 -633 -684 751 0
-585 -633 -685 751 0
-585 -633 -686 751 0
-585 -633 -687 751 0
-585 -633 -688 751 0
-585 -633 -689 751 0
-585 -633 -690 751 0
-585 -633 -691 751 0
-585 -633 -692 751 0
-585 -633 -693 751 0
-585 -633 -694 751 0
-585 -633 -695 751 0
-585 -633 -696 751 0
-585 -633 -697 751 0
-585 -633 -698 751 0
-585 -633 -699 751 0
-585 -634 -674 751 0
-585 -634 -675 751 0
-585 -634 -676 751 0
-585 -634 -677 751 0
-585 -634 -678 751 0
-585 -634 -679 751 0
-585 -634 -680 751 0
-585 -634 -681 751 0
-585 -634 -682 751 0
-585 -634 -683 751 0
-585 -634 -684 751 0
-585 -634 -685 751 0
-585 -634 -686 751 0
-585 -634 -687 751 0
-585 -634 -688 751 0
-585 -634 -689 751 0
-585 -634 -690 751 0
-585 -634 -691 751 0
-585 -634 -692 751 0
-585 -634 -693 751 0
-585 -634 -694 751 0
-585 -634 -695 751 0
-585 -634 -696 751 0
-585 -634 -697 751 0
-585 -634 -698 751 0
-585 -634 -699 751 0
-585 -635 -674 751 0
-585 -635 -675 751 0
-585 -635 -676 751 0
-585 -635 -677 751 0
-585 -635 -678 751 0
-585 -635 -679 751 0
-585 -635 -680 751 0
-585 -635 -681 751 0
-585 -635 -682 751 0
-585 -635 -683 751 0
-585 -635 -684 751 0
-585 -635 -685 751 0
-585 -635 -686 751 0
-585 -635 -687 751 0
-585 -635 -688 751 0
-585 -635 -689 751 0
-585 -635 -690 751 0
-585 -635 -691 751 0
-585 -635 -692 751 0
-585 -635 -693 751 0
-585 -635 -694 751 0
-585 -635 -695 751 0
-585 -635 -696 751 0
-585 -635 -697 751 0
-585 -635 -698 751 0
-585 -635 -699 751 0
-585 -636 -674 751 0
-585 -636 -675 751 0
-585 -636 -676 751 0
-585 -636 -677 751 0
-585 -636 -678 751 0
-585 -636 -679 751 0
-585 -636 -680 751 0
-585 -636 -681 751 0
-585 -636 -682 751 0
-585 -636 -683 751 0
-585 -636 -684 751 0
-585 -636 -685 751 0
-585 -636 -686 751 0
-585 -636 -687 751 0
-585 -636 -688 751 0
-585 -636 -689 751 0
-585 -636 -690 751 0
-585 -636 -691 751 0
-585 -636 -692 751 0
-585 -636 -693 751 0
-585 -636 -694 751 0
-585 -636 -695 751 0
-585 -636 -696 751 0
-585 -636 -697 751 0
-585 -636 -698 751 0
-585 -636 -699 751 0
-585 -637 -674 751 0
-585 -637 -675 751 0
-585 -637 -676 751 0
-585 -637 -677 751 0
-585 -637 -678 751 0
-585 -637 -679 751 0
-585 -637 -680 751 0
-585 -637 -681 751 0
-585 -637 -682 751 0
-585 -637 -683 751 0
-585 -637 -684 751 0
-585 -637 -685 751 0
-585 -637 -686 751 0
-585 -637 -687 751 0
-585 -637 -688 751 0
-585 -637 -689 751 0
-585 -637 -690 751 0
-585 -637 -691 751 0
-585 -637 -692 751 0
-585 -637 -693 751 0
-585 -637 -694 751 0
-585 -637 -695 751 0
-585 -637 -696 751 0
-585 -637 -697 751 0
-585 -637 -698 751 0
-585 -637 -699 751 0
-585 -638 -674 751 0
-585 -638 -675 751 0
-585 -638 -676 751 0
-585 -638 -677 751 0
-585 -638 -678 751 0
-585 -638 -679 751 0
-585 -638 -680 751 0
-585 -638 -681 751 0
-585 -638 -682 751 0
-585 -638 -683 751 0
-585 -638 -684 751 0
-585 -638 -685 751 0
-585 -638 -686 751 0
-585 -638 -687 751 0
-585 -638 -688 751 0
-585 -638 -689 751 0
-585 -638 -690 751 0
-585 -638 -691 751 0
-585 -638 -692 751 0
-585 -638 -693 751 0
-585 -638 -694 751 0
-585 -638 -695 751 0
-585 -638 -696 751 0
-585 -638 -697 751 0
-585 -638 -698 751 0
-585 -638 -699 751 0
-585 -639 -674 751 0
-585 -639 -675 751 0
-585 -639 -676 751 0
-585 -639 -677 751 0
-585 -639 -678 751 0
-585 -639 -679 751 0
-585 -639 -680 751 0
-585 -639 -681 751 0
-585 -639 -682 751 0
-585 -639 -683 751 0
-585 -639 -684 751 0
-585 -639 -685 751 0
-585 -639 -686 751 0
-585 -639 -687 751 0
-585 -639 -688 751 0
-585 -639 -689 751 0
-585 -639 -690 751 0
-585 -639 -691 751 0
-585 -639 -692 751 0
-585 -639 -693 751 0
-585 -639 -694 751 0
-585 -639 -695 751 0
-585 -639 -696 751 0
-585 -639 -697 751 0
-585 -639 -698 751 0
-585 -639 -699 751 0
-585 -640 -674 751 0
-585 -640 -675 751 0
-585 -640 -676 751 0
-585 -640 -677 751 0
-585 -640 -678 751 0
-585 -640 -679 751 0
-585 -640 -680 751 0
-585 -640 -681 751 0
-585 -640 -682 751 0
-585 -640 -683 751 0
-585 -640 -684 751 0
-585 -640 -685 751 0
-585 -640 -686 751 0
-585 -640 -687 751 0
-585 -640 -688 751 0
-585 -640 -689 751 0
-585 -640 -690 751 0
-585 -640 -691 751 0
-585 -640 -692 751 0
-585 -640 -693 751 0
-585 -640 -694 751 0
-585 -640 -695 751 0
-585 -640 -696 751 0
-585 -640 -697 751 0
-585 -640 -698 751 0
-585 -640 -699 751 0
-585 -641 -674 751 0
-585 -641 -675 751 0
-585 -641 -676 751 0
-585 -641 -677 751 0
-585 -641 -678 751 0
-585 -641 -679 751 0
-585 -641 -680 751 0
-585 -641 -681 751 0
-585 -641 -682 751 0
-585 -641 -683 751 0
-585 -641 -684 751 0
-585 -641 -685 751 0
-585 -641 -686 751 0
-585 -641 -687 751 0
-585 -641 -688 751 0
-585 -641 -689 751 0
-585 -641 -690 751 0
-585 -641 -691 751 0
-585 -641 -692 751 0
-585 -641 -693 751 0
-585 -641 -694 751 0
-585 -641 -695 751 0
-585 -641 -696 751 0
-585 -641 -697 751 0
-585 -641 -698 751 0
-585 -641 -699 751 0
-585 -642 -674 751 0
-585 -642 -675 751 0
-585 -642 -676 751 0
-585 -642 -677 751 0
-585 -642 -678 751 0
-585 -642 -679 751 0
-585 -642 -680 751 0
-585 -642 -681 751 0
-585 -642 -682 751 0
-585 -642 -683 751 0
-585 -642 -684 751 0
-585 -642 -685 751 0
-585 -642 -686 751 0
-585 -642 -687 751 0
-585 -642 -688 751 0
-585 -642 -689 751 0
-585 -642 -690 751 0
-585 -642 -691 751 0
-585 -642 -692 751 0
-585 -642 -693 751 0
-585 -642 -694 751 0
-585 -642 -695 751 0
-585 -642 -696 751 0
-585 -642 -697 751 0
-585 -642 -698 751 0
-585 -642 -699 751 0
-585 -643 -674 751 0
-585 -643 -675 751 0
-585 -643 -676 751 0
-585 -643 -677 751 0
-585 -643 -678 751 0
-585 -643 -679 751 0
-585 -643 -680 751 0
-585 -643 -681 751 0
-585 -643 -682 751 0
-585 -643 -683 751 0
-585 -643 -684 751 0
-585 -643 -685 751 0
-585 -643 -686 751 0
-585 -643 -687 751 0
-585 -643 -688 751 0
-585 -643 -689 751 0
-585 -643 -690 751 0
-585 -643 -691 751 0
-585 -643 -692 751 0
-585 -643 -693 751 0
-585 -643 -694 751 0
-585 -643 -695 751 0
-585 -643 -696 751 0
-585 -643 -697 751 0
-585 -643 -698 751 0
-585 -643 -699 751 0
-585 -644 -674 751 0
-585 -644 -675 751 0
-585 -644 -676 751 0
-585 -644 -677 751 0
-585 -644 -678 751 0
-585 -644 -679 751 0
-585 -644 -680 751 0
-585 -644 -681 751 0
-585 -644 -682 751 0
-585 -644 -683 751 0
-585 -644 -684 751 0
-585 -644 -685 751 0
-585 -644 -686 751 0
-585 -644 -687 751 0
-585 -644 -688 751 0
-585 -644 -689 751 0
-585 -644 -690 751 0
-585 -644 -691 751 0
-585 -644 -692 751 0
-585 -644 -693 751 0
-585 -644 -694 751 0
-585 -644 -695 751 0
-585 -644 -696 751 0
-585 -644 -697 751 0
-585 -644 -698 751 0
-585 -644 -699 751 0
-585 -645 -674 751 0
-585 -645 -675 751 0
-585 -645 -676 751 0
-585 -645 -677 751 0
-585 -645 -678 751 0
-585 -645 -679 751 0
-585 -645 -680 751 0
-585 -645 -681 751 0
-585 -645 -682 751 0
-585 -645 -683 751 0
-585 -645 -684 751 0
-585 -645 -685 751 0
-585 -645 -686 751 0
-585 -645 -687 751 0
-585 -645 -688 751 0
-585 -645 -689 751 0
-585 -645 -690 751 0
-585 -645 -691 751 0
-585 -645 -692 751 0
-585 -645 -693 751 0
-585 -645 -694 751 0
-585 -645 -695 751 0
-585 -645 -696 751 0
-585 -645 -697 751 0
-585 -645 -698 751 0
-585 -645 -699 751 0
-585 -646 -674 751 0
-585 -646 -675 751 0
-585 -646 -676 751 0
-585 -646 -677 751 0
-585 -646 -678 751 0
-585 -646 -679 751 0
-585 -646 -680 751 0
-585 -646 -681 751 0
-585 -646 -682 751 0
-585 -646 -683 751 0
-585 -646 -684 751 0
-585 -646 -685 751 0
-585 -646 -686 751 0
-585 -646 -687 751 0
-585 -646 -688 751 0
-585 -646 -689 751 0
-585 -646 -690 751 0
-585 -646 -691 751 0
-585 -646 -692 751 0
-585 -646 -693 751 0
-585 -646 -694 751 0
-585 -646 -695 751 0
-585 -646 -696 751 0
-585 -646 -697 751 0
-585 -646 -698 751 0
-585 -646 -699 751 0
-585 -647 -674 751 0
-585 -647 -675 751 0
-585 -647 -676 751 0
-585 -647 -677 751 0
-585 -647 -678 751 0
-585 -647 -679 751 0
-585 -647 -680 751 0
-585 -647 -681 751 0
-585 -647 -682 751 0
-585 -647 -683 751 0
-585 -647 -684 751 0
-585 -647 -685 751 0
-585 -647 -686 751 0
-585 -647 -687 751 0
-585 -647 -688 751 0
-585 -647 -689 751 0
-585 -647 -690 751 0
-585 -647 -691 751 0
-585 -647 -692 751 0
-585 -647 -693 751 0
-585 -647 -694 751 0
-585 -647 -695 751 0
-585 -647 -696 751 0
-585 -647 -697 751 0
-585 -647 -698 751 0
-585 -647 -699 751 0
-586 -622 -674 745 0
-586 -622 -675 746 0
-586 -622 -676 747 0
-586 -622 -677 748 0
-586 -622 -678 749 0
-586 -622 -679 750 0
-586 -622 -680 751 0
-586 -622 -681 751 0
-586 -622 -682 751 0
-586 -622 -683 751 0
-586 -622 -684 751 0
-586 -622 -685 751 0
-586 -622 -686 751 0
-586 -622 -687 751 0
-586 -622 -688 751 0
-586 -622 -689 751 0
-586 -622 -690 751 0
-586 -622 -691 751 0
-586 -622 -692 751 0
-586 -622 -693 751 0
-586 -622 -694 751 0
-586 -622 -695 751 0
-586 -622 -696 751 0
-586 -622 -697 751 0
-586 -622 -698 751 0
-586 -622 -699 751 0
-586 -623 -674 746 0
-586 -623 -675 747 0
-586 -623 -676 748 0
-586 -623 -677 749 0
-586 -623 -678 750 0
-586 -623 -679 751 0
-586 -623 -680 751 0
-586 -623 -681 751 0
-586 -623 -682 751 0
-586 -623 -683 751 0
-586 -623 -684 751 0
-586 -623 -685 751 0
-586 -623 -686 751 0
-586 -623 -687 751 0
-586 -623 -688 751 0
-586 -623 -689 751 0
-586 -623 -690 751 0
-586 -623 -691 751 0
-586 -623 -692 751 0
-586 -623 -693 751 0
-586 -623 -694 751 0
-586 -623 -695 751 0
-586 -623 -696 751 0
-586 -623 -697 751 0
-586 -623 -698 751 0
-586 -623 -699 751 0
-586 -624 -674 747 0
-586 -624 -675 748 0
-586 -624 -676 749 0
-586 -624 -677 750 0
-586 -624 -678 751 0
-586 -624 -679 751 0
-586 -624 -680 751 0
-586 -624 -681 751 0
-586 -624 -682 751 0
-586 -624 -683 751 0
-586 -624 -684 751 0
-586 -624 -685 751 0
-586 -624 -686 751 0
-586 -624 -687 751 0
-586 -624 -688 751 0
-586 -624 -689 751 0
-586 -624 -690 751 0
-586 -624 -691 751 0
-586 -624 -692 751 0
-586 -624 -693 751 0
-586 -624 -694 751 0
-586 -624 -695 751 0
-586 -624 -696 751 0
-586 -624 -697 751 0
-586 -624 -698 751 0
-586 -624 -699 751 0
-586 -625 -674 748 0
-586 -625 -675 749 0
-586 -625 -676 750 0
-586 -625 -677 751 0
-586 -625 -678 751 0
-586 -625 -679 751 0
-586 -625 -680 751 0
-586 -625 -681 751 0
-586 -625 -682 751 0
-586 -625 -683 751 0
-586 -625 -684 751 0
-586 -625 -685 751 0
-586 -625 -686 751 0
-586 -625 -687 751 0
-586 -625 -688 751 0
-586 -625 -689 751 0
-586 -625 -690 751 0
-586 -625 -691 751 0
-586 -625 -692 751 0
-586 -625 -693 751 0
-586 -625 -694 751 0
-586 -625 -695 751 0
-586 -625 -696 751 0
-586 -625 -697 751 0
-586 -625 -698 751 0
-586 -625 -699 751 0
-586 -626 -674 749 0
-586 -626 -675 750 0
-586 -626 -676 751 0
-586 -626 -677 751 0
-586 -626 -678 751 0
-586 -626 -679 751 0
-586 -626 -680 751 0
-586 -626 -681 751 0
-586 -626 -682 751 0
-586 -626 -683 751 0
-586 -626 -684 751 0
-586 -626 -685 751 0
-586 -626 -686 751 0
-586 -626 -687 751 0
-586 -626 -688 751 0
-586 -626 -689 751 0
-586 -626 -690 751 0
-586 -626 -691 751 0
-586 -626 -692 751 0
-586 -626 -693 751 0
-586 -626 -694 751 0
-586 -626 -695 751 0
-586 -626 -696 751 0
-586 -626 -697 751 0
-586 -626 -698 751 0
-586 -626 -699 751 0
-586 -627 -674 750 0
-586 -627 -675 751 0
-586 -627 -676 751 0
-586 -627 -677 751 0
-586 -627 -678 751 0
-586 -627 -679 751 0
-586 -627 -680 751 0
-586 -627 -681 751 0
-586 -627 -682 751 0
-586 -627 -683 751 0
-586 -627 -684 751 0
-586 -627 -685 751 0
-586 -627 -686 751 0
-586 -627 -687 751 0
-586 -627 -688 751 0
-586 -627 -689 751 0
-586 -627 -690 751 0
-586 -627 -691 751 0
-586 -627 -692 751 0
-586 -627 -693 751 0
-586 -627 -694 751 0
-586 -627 -695 751 0
-586 -627 -696 751 0
-586 -627 -697 751 0
-586 -627 -698 751 0
-586 -627 -699 751 0
-586 -628 -674 751 0
-586 -628 -675 751 0
-586 -628 -676 751 0
-586 -628 -677 751 0
-586 -628 -678 751 0
-586 -628 -679 751 0
-586 -628 -680 751 0
-586 -628 -681 751 0
-586 -628 -682 751 0
-586 -628 -683 751 0
-586 -628 -684 751 0
-586 -628 -685 751 0
-586 -628 -686 751 0
-586 -628 -687 751 0
-586 -628 -688 751 0
-586 -628 -689 751 0
-586 -628 -690 751 0
-586 -628 -691 751 0
-586 -628 -692 751 0
-586 -628 -693 751 0
-586 -628 -694 751 0
-586 -628 -695 751 0
-586 -628 -696 751 0
-586 -628 -697 751 0
-586 -628 -698 751 0
-586 -628 -699 751 0
-586 -629 -674 751 0
-586 -629 -675 751 0
-586 -629 -676 751 0
-586 -629 -677 751 0
-586 -629 -678 751 0
-586 -629 -679 751 0
-586 -629 -680 751 0
-586 -629 -681 751 0
-586 -629 -682 751 0
-586 -629 -683 751 0
-586 -629 -684 751 0
-586 -629 -685 751 0
-586 -629 -686 751 0
-586 -629 -687 751 0
-586 -629 -688 751 0
-586 -629 -689 751 0
-586 -629 -690 751 0
-586 -629 -691 751 0
-586 -629 -692 751 0
-586 -629 -693 751 0
-586 -629 -694 751 0
-586 -629 -695 751 0
-586 -629 -696 751 0
-586 -629 -697 751 0
-586 -629 -698 751 0
-586 -629 -699 751 0
-586 -630 -674 751 0
-586 -630 -675 751 0
-586 -630 -676 751 0
-586 -630 -677 751 0
-586 -630 -678 751 0
-586 -630 -679 751 0
-586 -630 -680 751 0
-586 -630 -681 751 0
-586 -630 -682 751 0
-586 -630 -683 751 0
-586 -630 -684 751 0
-586 -630 -685 751 0
-586 -630 -686 751 0
-586 -630 -687 751 0
-586 -630 -688 751 0
-586 -630 -689 751 0
-586 -630 -690 751 0
-586 -630 -691 751 0
-586 -630 -692 751 0
-586 -630 -693 751 0
-586 -630 -694 751 0
-586 -630 -695 751 0
-586 -630 -696 751 0
-586 -630 -697 751 0
-586 -630 -698 751 0
-586 -630 -699 751 0
-586 -631 -674 751 0
-586 -631 -675 751 0
-586 -631 -676 751 0
-586 -631 -677 751 0
-586 -631 -678 751 0
-586 -631 -679 751 0
-586 -631 -680 751 0
-586 -631 -681 751 0
-586 -631 -682 751 0
-586 -631 -683 751 0
-586 -631 -684 751 0
-586 -631 -685 751 0
-586 -631 -686 751 0
-586 -631 -687 751 0
-586 -631 -688 751 0
-586 -631 -689 751 0
-586 -631 -690 751 0
-586 -631 -691 751 0
-586 -631 -692 751 0
-586 -631 -693 751 0
-586 -631 -694 751 0
-586 -631 -695 751 0
-586 -631 -696 751 0
-586 -631 -697 751 0
-586 -631 -698 751 0
-586 -631 -699 751 0
-586 -632 -674 751 0
-586 -632 -675 751 0
-586 -632 -676 751 0
-586 -632 -677 751 0
-586 -632 -678 751 0
-586 -632 -679 751 0
-586 -632 -680 751 0
-586 -632 -681 751 0
-586 -632 -682 751 0
-586 -632 -683 751 0
-586 -632 -684 751 0
-586 -632 -685 751 0
-586 -632 -686 751 0
-586 -632 -687 751 0
-586 -632 -688 751 0
-586 -632 -689 751 0
-586 -632 -690 751 0
-586 -632 -691 751 0
-586 -632 -692 751 0
-586 -632 -693 751 0
-586 -632 -694 751 0
-586 -632 -695 751 0
-586 -632 -696 751 0
-586 -632 -697 751 0
-586 -632 -698 751 0
-586 -632 -699 751 0
-586 -633 -674 751 0
-586 -633 -675 751 0
-586 -633 -676 751 0
-586 -633 -677 751 0
-586 -633 -678 751 0
-586 -633 -679 751 0
-586 -633 -680 751 0
-586 -633 -681 751 0
-586 -633 -682 751 0
-586 -633 -683 751 0
-586 -633 -684 751 0
-586 -633 -685 751 0
-586 -633 -686 751 0
-586 -633 -687 751 0
-586 -633 -688 751 0
-586 -633 -689 751 0
-586 -633 -690 751 0
-586 -633 -691 751 0
-586 -633 -692 751 0
-586 -633 -693 751 0
-586 -633 -694 751 0
-586 -633 -695 751 0
-586 -633 -696 751 0
-586 -633 -697 751 0
-586 -633 -698 751 0
-586 -633 -699 751 0
-586 -634 -674 751 0
-586 -634 -675 751 0
-586 -634 -676 751 0
-586 -634 -677 751 0
-586 -634 -678 751 0
-586 -634 -679 751 0
-586 -634 -680 751 0
-586 -634 -681 751 0
-586 -634 -682 751 0
-586 -634 -683 751 0
-586 -634 -684 751 0
-586 -634 -685 751 0
-586 -634 -686 751 0
-586 -634 -687 751 0
-586 -634 -688 751 0
-586 -634 -689 751 0
-586 -634 -690 751 0
-586 -634 -691 751 0
-586 -634 -692 751 0
-586 -634 -693 751 0
-586 -634 -694 751 0
-586 -634 -695 751 0
-586 -634 -696 751 0
-586 -634 -697 751 0
-586 -634 -698 751 0
-586 -634 -699 751 0
-586 -635 -674 751 0
-586 -635 -675 751 0
-586 -635 -676 751 0
-586 -635 -677 751 0
-586 -635 -678 751 0
-586 -635 -679 751 0
-586 -635 -680 751 0
-586 -635 -681 751 0
-586 -635 -682 751 0
-586 -635 -683 751 0
-586 -635 -684 751 0
-586 -635 -685 751 0
-586 -635 -686 751 0
-586 -635 -687 751 0
-586 -635 -688 751 0
-586 -635 -689 751 0
-586 -635 -690 751 0
-586 -635 -691 751 0
-586 -635 -692 751 0
-586 -635 -693 751 0
-586 -635 -694 751 0
-586 -635 -695 751 0
-586 -635 -696 751 0
-586 -635 -697 751 0
-586 -635 -698 751 0
-586 -635 -699 751 0
-586 -636 -674 751 0
-586 -636 -675 751 0
-586 -636 -676 751 0
-586 -636 -677 751 0
-586 -636 -678 751 0
-586 -636 -679 751 0
-586 -636 -680 751 0
-586 -636 -681 751 0
-586 -636 -682 751 0
-586 -636 -683 751 0
-586 -636 -684 751 0
-586 -636 -685 751 0
-586 -636 -686 751 0
-586 -636 -687 751 0
-586 -636 -688 751 0
-586 -636 -689 751 0
-586 -636 -690 751 0
-586 -636 -691 751 0
-586 -636 -692 751 0
-586 -636 -693 751 0
-586 -636 -694 751 0
-586 -636 -695 751 0
-586 -636 -696 751 0
-586 -636 -697 751 0
-586 -636 -698 751 0
-586 -636 -699 751 0
-586 -637 -674 751 0
-586 -637 -675 751 0
-586 -637 -676 751 0
-586 -637 -677 751 0
-586 -637 -678 751 0
-586 -637 -679 751 0
-586 -637 -680 751 0
-586 -637 -681 751 0
-586 -637 -682 751 0
-586 -637 -683 751 0
-586 -637 -684 751 0
-586 -637 -685 751 0
-586 -637 -686 751 0
-586 -637 -687 751 0
-586 -637 -688 751 0
-586 -637 -689 751 0
-586 -637 -690 751 0
-586 -637 -691 751 0
-586 -637 -692 751 0
-586 -637 -693 751 0
-586 -637 -694 751 0
-586 -637 -695 751 0
-586 -637 -696 751 0
-586 -637 -697 751 0
-586 -637 -698 751 0
-586 -637 -699 751 0
-586 -638 -674 751 0
-586 -638 -675 751 0
-586 -638 -676 751 0
-586 -638 -677 751 0
-586 -638 -678 751 0
-586 -638 -679 751 0
-586 -638 -680 751 0
-586 -638 -681 751 0
-586 -638 -682 751 0
-586 -638 -683 751 0
-586 -638 -684 751 0
-586 -638 -685 751 0
-586 -638 -686 751 0
-586 -638 -687 751 0
-586 -638 -688 751 0
-586 -638 -689 751 0
-586 -638 -690 751 0
-586 -638 -691 751 0
-586 -638 -692 751 0
-586 -638 -693 751 0
-586 -638 -694 751 0
-586 -638 -695 751 0
-586 -638 -696 751 0
-586 -638 -697 751 0
-586 -638 -698 751 0
-586 -638 -699 751 0
-586 -639 -674 751 0
-586 -639 -675 751 0
-586 -639 -676 751 0
-586 -639 -677 751 0
-586 -639 -678 751 0
-586 -639 -679 751 0
-586 -639 -680 751 0
-586 -639 -681 751 0
-586 -639 -682 751 0
-586 -639 -683 751 0
-586 -639 -684 751 0
-586 -639 -685 751 0
-586 -639 -686 751 0
-586 -639 -687 751 0
-586 -639 -688 751 0
-586 -639 -689 751 0
-586 -639 -690 751 0
-586 -639 -691 751 0
-586 -639 -692 751 0
-586 -639 -693 751 0
-586 -639 -694 751 0
-586 -639 -695 751 0
-586 -639 -696 751 0
-586 -639 -697 751 0
-586 -639 -698 751 0
-586 -639 -699 751 0
-586 -640 -674 751 0
-586 -640 -675 751 0
-586 -640 -676 751 0
-586 -640 -677 751 0
-586 -640 -678 751 0
-586 -640 -679 751 0
-586 -640 -680 751 0
-586 -640 -681 751 0
-586 -640 -682 751 0
-586 -640 -683 751 0
-586 -640 -684 751 0
-586 -640 -685 751 0
-586 -640 -686 751 0
-586 -640 -687 751 0
-586 -640 -688 751 0
-586 -640 -689 751 0
-586 -640 -690 751 0
-586 -640 -691 751 0
-586 -640 -692 751 0
-586 -640 -693 751 0
-586 -640 -694 751 0
-586 -640 -695 751 0
-586 -640 -696 751 0
-586 -640 -697 751 0
-586 -640 -698 751 0
-586 -640 -699 751 0
-586 -641 -674 751 0
-586 -641 -675 751 0
-586 -641 -676 751 0
-586 -641 -677 751 0
-586 -641 -678 751 0
-586 -641 -679 751 0
-586 -641 -680 751 0
-586 -641 -681 751 0
-586 -641 -682 751 0
-586 -641 -683 751 0
-586 -641 -684 751 0
-586 -641 -685 751 0
-586 -641 -686 751 0
-586 -641 -687 751 0
-586 -641 -688 751 0
-586 -641 -689 751 0
-586 -641 -690 751 0
-586 -641 -691 751 0
-586 -641 -692 751 0
-586 -641 -693 751 0
-586 -641 -694 751 0
-586 -641 -695 751 0
-586 -641 -696 751 0
-586 -641 -697 751 0
-586 -641 -698 751 0
-586 -641 -699 751 0
-586 -642 -674 751 0
-586 -642 -675 751 0
-586 -642 -676 751 0
-586 -642 -677 751 0
-586 -642 -678 751 0
-586 -642 -679 751 0
-586 -642 -680 751 0
-586 -642 -681 751 0
-586 -642 -682 751 0
-586 -642 -683 751 0
-586 -642 -684 751 0
-586 -642 -685 751 0
-586 -642 -686 751 0
-586 -642 -687 751 0
-586 -642 -688 751 0
-586 -642 -689 751 0
-586 -642 -690 751 0
-586 -642 -691 751 0
-586 -642 -692 751 0
-586 -642 -693 751 0
-586 -642 -694 751 0
-586 -642 -695 751 0
-586 -642 -696 751 0
-586 -642 -697 751 0
-586 -642 -698 751 0
-586 -642 -699 751 0
-586 -643 -674 751 0
-586 -643 -675 751 0
-586 -643 -676 751 0
-586 -643 -677 751 0
-586 -643 -678 751 0
-586 -643 -679 751 0
-586 -643 -680 751 0
-586 -643 -681 751 0
-586 -643 -682 751 0
-586 -643 -683 751 0
-586 -643 -684 751 0
-586 -643 -685 751 0
-586 -643 -686 751 0
-586 -643 -687 751 0
-586 -643 -688 751 0
-586 -643 -689 751 0
-586 -643 -690 751 0
-586 -643 -691 751 0
-586 -643 -692 751 0
-586 -643 -693 751 0
-586 -643 -694 751 0
-586 -643 -695 751 0
-586 -643 -696 751 0
-586 -643 -697 751 0
-586 -643 -698 751 0
-586 -643 -699 751 0
-586 -644 -674 751 0
-586 -644 -675 751 0
-586 -644 -676 751 0
-586 -644 -677 751 0
-586 -644 -678 751 0
-586 -644 -679 751 0
-586 -644 -680 751 0
-586 -644 -681 751 0
-586 -644 -682 751 0
-586 -644 -683 751 0
-586 -644 -684 751 0
-586 -644 -685 751 0
-586 -644 -686 751 0
-586 -644 -687 751 0
-586 -644 -688 751 0
-586 -644 -689 751 0
-586 -644 -690 751 0
-586 -644 -691 751 0
-586 -644 -692 751 0
-586 -644 -693 751 0
-586 -644 -694 751 0
-586 -644 -695 751 0
-586 -644 -696 751 0
-586 -644 -697 751 0
-586 -644 -698 751 0
-586 -644 -699 751 0
-586 -645 -674 751 0
-586 -645 -675 751 0
-586 -645 -676 751 0
-586 -645 -677 751 0
-586 -645 -678 751 0
-586 -645 -679 751 0
-586 -645 -680 751 0
-586 -645 -681 751 0
-586 -645 -682 751 0
-586 -645 -683 751 0
-586 -645 -684 751 0
-586 -645 -685 751 0
-586 -645 -686 751 0
-586 -645 -687 751 0
-586 -645 -688 751 0
-586 -645 -689 751 0
-586 -645 -690 751 0
-586 -645 -691 751 0
-586 -645 -692 751 0
-586 -645 -693 751 0
-586 -645 -694 751 0
-586 -645 -695 751 0
-586 -645 -696 751 0
-586 -645 -697 751 0
-586 -645 -698 751 0
-586 -645 -699 751 0
-586 -646 -674 751 0
-586 -646 -675 751 0
-586 -646 -676 751 0
-586 -646 -677 751 0
-586 -646 -678 751 0
-586 -646 -679 751 0
-586 -646 -680 751 0
-586 -646 -681 751 0
-586 -646 -682 751 0
-586 -646 -683 751 0
-586 -646 -684 751 0
-586 -646 -685 751 0
-586 -646 -686 751 0
-586 -646 -687 751 0
-586 -646 -688 751 0
-586 -646 -689 751 0
-586 -646 -690 751 0
-586 -646 -691 751 0
-586 -646 -692 751 0
-586 -646 -693 751 0
-586 -646 -694 751 0
-586 -646 -695 751 0
-586 -646 -696 751 0
-586 -646 -697 751 0
-586 -646 -698 751 0
-586 -646 -699 751 0
-586 -647 -674 751 0
-586 -647 -675 751 0
-586 -647 -676 751 0
-586 -647 -677 751 0
-586 -647 -678 751 0
-586 -647 -679 751 0
-586 -647 -680 751 0
-586 -647 -681 751 0
-586 -647 -682 751 0
-586 -647 -683 751 0
-586 -647 -684 751 0
-586 -647 -685 751 0
-586 -647 -686 751 0
-586 -647 -687 751 0
-586 -647 -688 751 0
-586 -647 -689 751 0
-586 -647 -690 751 0
-586 -647 -691 751 0
-586 -647 -692 751 0
-586 -647 -693 751 0
-586 -647 -694 751 0
-586 -647 -695 751 0
-586 -647 -696 751 0
-586 -647 -697 751 0
-586 -647 -698 751 0
-586 -647 -699 751 0
-587 -622 -674 746 0
-587 -622 -675 747 0
-587 -622 -676 748 0
-587 -622 -677 749 0
-587 -622 -678 750 0
-587 -622 -679 751 0
-587 -622 -680 751 0
-587 -622 -681 751 0
-587 -622 -682 751 0
-587 -622 -683 751 0
-587 -622 -684 751 0
-587 -622 -685 751 0
-587 -622 -686 751 0
-587 -622 -687 751 0
-587 -622 -688 751 0
-587 -622 -689 751 0
-587 -622 -690 751 0
-587 -622 -691 751 0
-587 -622 -692 751 0
-587 -622 -693 751 0
-587 -622 -694 751 0
-587 -622 -695 751 0
-587 -622 -696 751 0
-587 -622 -697 751 0
-587 -622 -698 751 0
-587 -622 -699 751 0
-587 -623 -674 747 0
-587 -623 -675 748 0
-587 -623 -676 749 0
-587 -623 -677 750 0
-587 -623 -678 751 0
-587 -623 -679 751 0
-587 -623 -680 751 0
-587 -623 -681 751 0
-587 -623 -682 751 0
-587 -623 -683 751 0
-587 -623 -684 751 0
-587 -623 -685 751 0
-587 -623 -686 751 0
-587 -623 -687 751 0
-587 -623 -688 751 0
-587 -623 -689 751 0
-587 -623 -690 751 0
-587 -623 -691 751 0
-587 -623 -692 751 0
-587 -623 -693 751 0
-587 -623 -694 751 0
-587 -623 -695 751 0
-587 -623 -696 751 0
-587 -623 -697 751 0
-587 -623 -698 751 0
-587 -623 -699 751 0
-587 -624 -674 748 0
-587 -624 -675 749 0
-587 -624 -676 750 0
-587 -624 -677 751 0
-587 -624 -678 751 0
-587 -624 -679 751 0
-587 -624 -680 751 0
-587 -624 -681 751 0
-587 -624 -682 751 0
-587 -624 -683 751 0
-587 -624 -684 751 0
-587 -624 -685 751 0
-587 -624 -686 751 0
-587 -624 -687 751 0
-587 -624 -688 751 0
-587 -624 -689 751 0
-587 -624 -690 751 0
-587 -624 -691 751 0
-587 -624 -692 751 0
-587 -624 -693 751 0
-587 -624 -694 751 0
-587 -624 -695 751 0
-587 -624 -696 751 0
-587 -624 -697 751 0
-587 -624 -698 751 0
-587 -624 -699 751 0
-587 -625 -674 749 0
-587 -625 -675 750 0
-587 -625 -676 751 0
-587 -625 -677 751 0
-587 -625 -678 751 0
-587 -625 -679 751 0
-587 -625 -680 751 0
-587 -625 -681 751 0
-587 -625 -682 751 0
-587 -625 -683 751 0
-587 -625 -684 751 0
-587 -625 -685 751 0
-587 -625 -686 751 0
-587 -625 -687 751 0
-587 -625 -688 751 0
-587 -625 -689 751 0
-587 -625 -690 751 0
-587 -625 -691 751 0
-587 -625 -692 751 0
-587 -625 -693 751 0
-587 -625 -694 751 0
-587 -625 -695 751 0
-587 -625 -696 751 0
-587 -625 -697 751 0
-587 -625 -698 751 0
-587 -625 -699 751 0
-587 -626 -674 750 0
-587 -626 -675 751 0
-587 -626 -676 751 0
-587 -626 -677 751 0
-587 -626 -678 751 0
-587 -626 -679 751 0
-587 -626 -680 751 0
-587 -626 -681 751 0
-587 -626 -682 751 0
-587 -626 -683 751 0
-587 -626 -684 751 0
-587 -626 -685 751 0
-587 -626 -686 751 0
-587 -626 -687 751 0
-587 -626 -688 751 0
-587 -626 -689 751 0
-587 -626 -690 751 0
-587 -626 -691 751 0
-587 -626 -692 751 0
-587 -626 -693 751 0
-587 -626 -694 751 0
-587 -626 -695 751 0
-587 -626 -696 751 0
-587 -626 -697 751 0
-587 -626 -698 751 0
-587 -626 -699 751 0
-587 -627 -674 751 0
-587 -627 -675 751 0
-587 -627 -676 751 0
-587 -627 -677 751 0
-587 -627 -678 751 0
-587 -627 -679 751 0
-587 -627 -680 751 0
-587 -627 -681 751 0
-587 -627 -682 751 0
-587 -627 -683 751 0
-587 -627 -684 751 0
-587 -627 -685 751 0
-587 -627 -686 751 0
-587 -627 -687 751 0
-587 -627 -688 751 0
-587 -627 -689 751 0
-587 -627 -690 751 0
-587 -627 -691 751 0
-587 -627 -692 751 0
-587 -627 -693 751 0
-587 -627 -694 751 0
-587 -627 -695 751 0
-587 -627 -696 751 0
-587 -627 -697 751 0
-587 -627 -698 751 0
-587 -627 -699 751 0
-587 -628 -674 751 0
-587 -628 -675 751 0
-587 -628 -676 751 0
-587 -628 -677 751 0
-587 -628 -678 751 0
-587 -628 -679 751 0
-587 -628 -680 751 0
-587 -628 -681 751 0
-587 -628 -682 751 0
-587 -628 -683 751 0
-587 -628 -684 751 0
-587 -628 -685 751 0
-587 -628 -686 751 0
-587 -628 -687 751 0
-587 -628 -688 751 0
-587 -628 -689 751 0
-587 -628 -690 751 0
-587 -628 -691 751 0
-587 -628 -692 751 0
-587 -628 -693 751 0
-587 -628 -694 751 0
-587 -628 -695 751 0
-587 -628 -696 751 0
-587 -628 -697 751 0
-587 -628 -698 751 0
-587 -628 -699 751 0
-587 -629 -674 751 0
-587 -629 -675 751 0
-587 -629 -676 751 0
-587 -629 -677 751 0
-587 -629 -678 751 0
-587 -629 -679 751 0
-587 -629 -680 751 0
-587 -629 -681 751 0
-587 -629 -682 751 0
-587 -629 -683 751 0
-587 -629 -684 751 0
-587 -629 -685 751 0
-587 -629 -686 751 0
-587 -629 -687 751 0
-587 -629 -688 751 0
-587 -629 -689 751 0
-587 -629 -690 751 0
-587 -629 -691 751 0
-587 -629 -692 751 0
-587 -629 -693 751 0
-587 -629 -694 751 0
-587 -629 -695 751 0
-587 -629 -696 751 0
-587 -629 -697 751 0
-587 -629 -698 751 0
-587 -629 -699 751 0
-587 -630 -674 751 0
-587 -630 -675 751 0
-587 -630 -676 751 0
-587 -630 -677 751 0
-587 -630 -678 751 0
-587 -630 -679 751 0
-587 -630 -680 751 0
-587 -630 -681 751 0
-587 -630 -682 751 0
-587 -630 -683 751 0
-587 -630 -684 751 0
-587 -630 -685 751 0
-587 -630 -686 751 0
-587 -630 -687 751 0
-587 -630 -688 751 0
-587 -630 -689 751 0
-587 -630 -690 751 0
-587 -630 -691 751 0
-587 -630 -692 751 0
-587 -630 -693 751 0
-587 -630 -694 751 0
-587 -630 -695 751 0
-587 -630 -696 751 0
-587 -630 -697 751 0
-587 -630 -698 751 0
-587 -630 -699 751 0
-587 -631 -674 751 0
-587 -631 -675 751 0
-587 -631 -676 751 0
-587 -631 -677 751 0
-587 -631 -678 751 0
-587 -631 -679 751 0
-587 -631 -680 751 0
-587 -631 -681 751 0
-587 -631 -682 751 0
-587 -631 -683 751 0
-587 -631 -684 751 0
-587 -631 -685 751 0
-587 -631 -686 751 0
-587 -631 -687 751 0
-587 -631 -688 751 0
-587 -631 -689 751 0
-587 -631 -690 751 0
-587 -631 -691 751 0
-587 -631 -692 751 0
-587 -631 -693 751 0
-587 -631 -694 751 0
-587 -631 -695 751 0
-587 -631 -696 751 0
-587 -631 -697 751 0
-587 -631 -698 751 0
-587 -631 -699 751 0
-587 -632 -674 751 0
-587 -632 -675 751 0
-587 -632 -676 751 0
-587 -632 -677 751 0
-587 -632 -678 751 0
-587 -632 -679 751 0
-587 -632 -680 751 0
-587 -632 -681 751 0
-587 -632 -682 751 0
-587 -632 -683 751 0
-587 -632 -684 751 0
-587 -632 -685 751 0
-587 -632 -686 751 0
-587 -632 -687 751 0
-587 -632 -688 751 0
-587 -632 -689 751 0
-587 -632 -690 751 0
-587 -632 -691 751 0
-587 -632 -692 751 0
-587 -632 -693 751 0
-587 -632 -694 751 0
-587 -632 -695 751 0
-587 -632 -696 751 0
-587 -632 -697 751 0
-587 -632 -698 751 0
-587 -632 -699 751 0
-587 -633 -674 751 0
-587 -633 -675 751 0
-587 -633 -676 751 0
-587 -633 -677 751 0
-587 -633 -678 751 0
-587 -633 -679 751 0
-587 -633 -680 751 0
-587 -633 -681 751 0
-587 -633 -682 751 0
-587 -633 -683 751 0
-587 -633 -684 751 0
-587 -633 -685 751 0
-587 -633 -686 751 0
-587 -633 -687 751 0
-587 -633 -688 751 0
-587 -633 -689 751 0
-587 -633 -690 751 0
-587 -633 -691 751 0
-587 -633 -692 751 0
-587 -633 -693 751 0
-587 -633 -694 751 0
-587 -633 -695 751 0
-587 -633 -696 751 0
-587 -633 -697 751 0
-587 -633 -698 751 0
-587 -633 -699 751 0
-587 -634 -674 751 0
-587 -634 -675 751 0
-587 -634 -676 751 0
-587 -634 -677 751 0
-587 -634 -678 751 0
-587 -634 -679 751 0
-587 -634 -680 751 0
-587 -634 -681 751 0
-587 -634 -682 751 0
-587 -634 -683 751 0
-587 -634 -684 751 0
-587 -634 -685 751 0
-587 -634 -686 751 0
-587 -634 -687 751 0
-587 -634 -688 751 0
-587 -634 -689 751 0
-587 -634 -690 751 0
-587 -634 -691 751 0
-587 -634 -692 751 0
-587 -634 -693 751 0
-587 -634 -694 751 0
-587 -634 -695 751 0
-587 -634 -696 751 0
-587 -634 -697 751 0
-587 -634 -698 751 0
-587 -634 -699 751 0
-587 -635 -674 751 0
-587 -635 -675 751 0
-587 -635 -676 751 0
-587 -635 -677 751 0
-587 -635 -678 751 0
-587 -635 -679 751 0
-587 -635 -680 751 0
-587 -635 -681 751 0
-587 -635 -682 751 0
-587 -635 -683 751 0
-587 -635 -684 751 0
-587 -635 -685 751 0
-587 -635 -686 751 0
-587 -635 -687 751 0
-587 -635 -688 751 0
-587 -635 -689 751 0
-587 -635 -690 751 0
-587 -635 -691 751 0
-587 -635 -692 751 0
-587 -635 -693 751 0
-587 -635 -694 751 0
-587 -635 -695 751 0
-587 -635 -696 751 0
-587 -635 -697 751 0
-587 -635 -698 751 0
-587 -635 -699 751 0
-587 -636 -674 751 0
-587 -636 -675 751 0
-587 -636 -676 751 0
-587 -636 -677 751 0
-587 -636 -678 751 0
-587 -636 -679 751 0
-587 -636 -680 751 0
-587 -636 -681 751 0
-587 -636 -682 751 0
-587 -636 -683 751 0
-587 -636 -684 751 0
-587 -636 -685 751 0
-587 -636 -686 751 0
-587 -636 -687 751 0
-587 -636 -688 751 0
-587 -636 -689 751 0
-587 -636 -690 751 0
-587 -636 -691 751 0
-587 -636 -692 751 0
-587 -636 -693 751 0
-587 -636 -694 751 0
-587 -636 -695 751 0
-587 -636 -696 751 0
-587 -636 -697 751 0
-587 -636 -698 751 0
-587 -636 -699 751 0
-587 -637 -674 751 0
-587 -637 -675 751 0
-587 -637 -676 751 0
-587 -637 -677 751 0
-587 -637 -678 751 0
-587 -637 -679 751 0
-587 -637 -680 751 0
-587 -637 -681 751 0
-587 -637 -682 751 0
-587 -637 -683 751 0
-587 -637 -684 751 0
-587 -637 -685 751 0
-587 -637 -686 751 0
-587 -637 -687 751 0
-587 -637 -688 751 0
-587 -637 -689 751 0
-587 -637 -690 751 0
-587 -637 -691 751 0
-587 -637 -692 751 0
-587 -637 -693 751 0
-587 -637 -694 751 0
-587 -637 -695 751 0
-587 -637 -696 751 0
-587 -637 -697 751 0
-587 -637 -698 751 0
-587 -637 -699 751 0
-587 -638 -674 751 0
-587 -638 -675 751 0
-587 -638 -676 751 0
-587 -638 -677 751 0
-587 -638 -678 751 0
-587 -638 -679 751 0
-587 -638 -680 751 0
-587 -638 -681 751 0
-587 -638 -682 751 0
-587 -638 -683 751 0
-587 -638 -684 751 0
-587 -638 -685 751 0
-587 -638 -686 751 0
-587 -638 -687 751 0
-587 -638 -688 751 0
-587 -638 -689 751 0
-587 -638 -690 751 0
-587 -638 -691 751 0
-587 -638 -692 751 0
-587 -638 -693 751 0
-587 -638 -694 751 0
-587 -638 -695 751 0
-587 -638 -696 751 0
-587 -638 -697 751 0
-587 -638 -698 751 0
-587 -638 -699 751 0
-587 -639 -674 751 0
-587 -639 -675 751 0
-587 -639 -676 751 0
-587 -639 -677 751 0
-587 -639 -678 751 0
-587 -639 -679 751 0
-587 -639 -680 751 0
-587 -639 -681 751 0
-587 -639 -682 751 0
-587 -639 -683 751 0
-587 -639 -684 751 0
-587 -639 -685 751 0
-587 -639 -686 751 0
-587 -639 -687 751 0
-587 -639 -688 751 0
-587 -639 -689 751 0
-587 -639 -690 751 0
-587 -639 -691 751 0
-587 -639 -692 751 0
-587 -639 -693 751 0
-587 -639 -694 751 0
-587 -639 -695 751 0
-587 -639 -696 751 0
-587 -639 -697 751 0
-587 -639 -698 751 0
-587 -639 -699 751 0
-587 -640 -674 751 0
-587 -640 -675 751 0
-587 -640 -676 751 0
-587 -640 -677 751 0
-587 -640 -678 751 0
-587 -640 -679 751 0
-587 -640 -680 751 0
-587 -640 -681 751 0
-587 -640 -682 751 0
-587 -640 -683 751 0
-587 -640 -684 751 0
-587 -640 -685 751 0
-587 -640 -686 751 0
-587 -640 -687 751 0
-587 -640 -688 751 0
-587 -640 -689 751 0
-587 -640 -690 751 0
-587 -640 -691 751 0
-587 -640 -692 751 0
-587 -640 -693 751 0
-587 -640 -694 751 0
-587 -640 -695 751 0
-587 -640 -696 751 0
-587 -640 -697 751 0
-587 -640 -698 751 0
-587 -640 -699 751 0
-587 -641 -674 751 0
-587 -641 -675 751 0
-587 -641 -676 751 0
-587 -641 -677 751 0
-587 -641 -678 751 0
-587 -641 -679 751 0
-587 -641 -680 751 0
-587 -641 -681 751 0
-587 -641 -682 751 0
-587 -641 -683 751 0
-587 -641 -684 751 0
-587 -641 -685 751 0
-587 -641 -686 751 0
-587 -641 -687 751 0
-587 -641 -688 751 0
-587 -641 -689 751 0
-587 -641 -690 751 0
-587 -641 -691 751 0
-587 -641 -692 751 0
-587 -641 -693 751 0
-587 -641 -694 751 0
-587 -641 -695 751 0
-587 -641 -696 751 0
-587 -641 -697 751 0
-587 -641 -698 751 0
-587 -641 -699 751 0
-587 -642 -674 751 0
-587 -642 -675 751 0
-587 -642 -676 751 0
-587 -642 -677 751 0
-587 -642 -678 751 0
-587 -642 -679 751 0
-587 -642 -680 751 0
-587 -642 -681 751 0
-587 -642 -682 751 0
-587 -642 -683 751 0
-587 -642 -684 751 0
-587 -642 -685 751 0
-587 -642 -686 751 0
-587 -642 -687 751 0
-587 -642 -688 751 0
-587 -642 -689 751 0
-587 -642 -690 751 0
-587 -642 -691 751 0
-587 -642 -692 751 0
-587 -642 -693 751 0
-587 -642 -694 751 0
-587 -642 -695 751 0
-587 -642 -696 751 0
-587 -642 -697 751 0
-587 -642 -698 751 0
-587 -642 -699 751 0
-587 -643 -674 751 0
-587 -643 -675 751 0
-587 -643 -676 751 0
-587 -643 -677 751 0
-587 -643 -678 751 0
-587 -643 -679 751 0
-587 -643 -680 751 0
-587 -643 -681 751 0
-587 -643 -682 751 0
-587 -643 -683 751 0
-587 -643 -684 751 0
-587 -643 -685 751 0
-587 -643 -686 751 0
-587 -643 -687 751 0
-587 -643 -688 751 0
-587 -643 -689 751 0
-587 -643 -690 751 0
-587 -643 -691 751 0
-587 -643 -692 751 0
-587 -643 -693 751 0
-587 -643 -694 751 0
-587 -643 -695 751 0
-587 -643 -696 751 0
-587 -643 -697 751 0
-587 -643 -698 751 0
-587 -643 -699 751 0
-587 -644 -674 751 0
-587 -644 -675 751 0
-587 -644 -676 751 0
-587 -644 -677 751 0
-587 -644 -678 751 0
-587 -644 -679 751 0
-587 -644 -680 751 0
-587 -644 -681 751 0
-587 -644 -682 751 0
-587 -644 -683 751 0
-587 -644 -684 751 0
-587 -644 -685 751 0
-587 -644 -686 751 0
-587 -644 -687 751 0
-587 -644 -688 751 0
-587 -644 -689 751 0
-587 -644 -690 751 0
-587 -644 -691 751 0
-587 -644 -692 751 0
-587 -644 -693 751 0
-587 -644 -694 751 0
-587 -644 -695 751 0
-587 -644 -696 751 0
-587 -644 -697 751 0
-587 -644 -698 751 0
-587 -644 -699 751 0
-587 -645 -674 751 0
-587 -645 -675 751 0
-587 -645 -676 751 0
-587 -645 -677 751 0
-587 -645 -678 751 0
-587 -645 -679 751 0
-587 -645 -680 751 0
-587 -645 -681 751 0
-587 -645 -682 751 0
-587 -645 -683 751 0
-587 -645 -684 751 0
-587 -645 -685 751 0
-587 -645 -686 751 0
-587 -645 -687 751 0
-587 -645 -688 751 0
-587 -645 -689 751 0
-587 -645 -690 751 0
-587 -645 -691 751 0
-587 -645 -692 751 0
-587 -645 -693 751 0
-587 -645 -694 751 0
-587 -645 -695 751 0
-587 -645 -696 751 0
-587 -645 -697 751 0
-587 -645 -698 751 0
-587 -645 -699 751 0
-587 -646 -674 751 0
-587 -646 -675 751 0
-587 -646 -676 751 0
-587 -646 -677 751 0
-587 -646 -678 751 0
-587 -646 -679 751 0
-587 -646 -680 751 0
-587 -646 -681 751 0
-587 -646 -682 751 0
-587 -646 -683 751 0
-587 -646 -684 751 0
-587 -646 -685 751 0
-587 -646 -686 751 0
-587 -646 -687 751 0
-587 -646 -688 751 0
-587 -646 -689 751 0
-587 -646 -690 751 0
-587 -646 -691 751 0
-587 -646 -692 751 0
-587 -646 -693 751 0
-587 -646 -694 751 0
-587 -646 -695 751 0
-587 -646 -696 751 0
-587 -646 -697 751 0
-587 -646 -698 751 0
-587 -646 -699 751 0
-587 -647 -674 751 0
-587 -647 -675 751 0
-587 -647 -676 751 0
-587 -647 -677 751 0
-587 -647 -678 751 0
-587 -647 -679 751 0
-587 -647 -680 751 0
-587 -647 -681 751 0
-587 -647 -682 751 0
-587 -647 -683 751 0
-587 -647 -684 751 0
-587 -647 -685 751 0
-587 -647 -686 751 0
-587 -647 -687 751 0
-587 -647 -688 751 0
-587 -647 -689 751 0
-587 -647 -690 751 0
-587 -647 -691 751 0
-587 -647 -692 751 0
-587 -647 -693 751 0
-587 -647 -694 751 0
-587 -647 -695 751 0
-587 -647 -696 751 0
-587 -647 -697 751 0
-587 -647 -698 751 0
-587 -647 -699 751 0
-588 -622 -674 747 0
-588 -622 -675 748 0
-588 -622 -676 749 0
-588 -622 -677 750 0
-588 -622 -678 751 0
-588 -622 -679 751 0
-588 -622 -680 751 0
-588 -622 -681 751 0
-588 -622 -682 751 0
-588 -622 -683 751 0
-588 -622 -684 751 0
-588 -622 -685 751 0
-588 -622 -686 751 0
-588 -622 -687 751 0
-588 -622 -688 751 0
-588 -622 -689 751 0
-588 -622 -690 751 0
-588 -622 -691 751 0
-588 -622 -692 751 0
-588 -622 -693 751 0
-588 -622 -694 751 0
-588 -622 -695 751 0
-588 -622 -696 751 0
-588 -622 -697 751 0
-588 -622 -698 751 0
-588 -622 -699 751 0
-588 -623 -674 748 0
-588 -623 -675 749 0
-588 -623 -676 750 0
-588 -623 -677 751 0
-588 -623 -678 751 0
-588 -623 -679 751 0
-588 -623 -680 751 0
-588 -623 -681 751 0
-588 -623 -682 751 0
-588 -623 -683 751 0
-588 -623 -684 751 0
-588 -623 -685 751 0
-588 -623 -686 751 0
-588 -623 -687 751 0
-588 -623 -688 751 0
-588 -623 -689 751 0
-588 -623 -690 751 0
-588 -623 -691 751 0
-588 -623 -692 751 0
-588 -623 -693 751 0
-588 -623 -694 751 0
-588 -623 -695 751 0
-588 -623 -696 751 0
-588 -623 -697 751 0
-588 -623 -698 751 0
-588 -623 -699 751 0
-588 -624 -674 749 0
-588 -624 -675 750 0
-588 -624 -676 751 0
-588 -624 -677 751 0
-588 -624 -678 751 0
-588 -624 -679 751 0
-588 -624 -680 751 0
-588 -624 -681 751 0
-588 -624 -682 751 0
-588 -624 -683 751 0
-588 -624 -684 751 0
-588 -624 -685 751 0
-588 -624 -686 751 0
-588 -624 -687 751 0
-588 -624 -688 751 0
-588 -624 -689 751 0
-588 -624 -690 751 0
-588 -624 -691 751 0
-588 -624 -692 751 0
-588 -624 -693 751 0
-588 -624 -694 751 0
-588 -624 -695 751 0
-588 -624 -696 751 0
-588 -624 -697 751 0
-588 -624 -698 751 0
-588 -624 -699 751 0
-588 -625 -674 750 0
-588 -625 -675 751 0
-588 -625 -676 751 0
-588 -625 -677 751 0
-588 -625 -678 751 0
-588 -625 -679 751 0
-588 -625 -680 751 0
-588 -625 -681 751 0
-588 -625 -682 751 0
-588 -625 -683 751 0
-588 -625 -684 751 0
-588 -625 -685 751 0
-588 -625 -686 751 0
-588 -625 -687 751 0
-588 -625 -688 751 0
-588 -625 -689 751 0
-588 -625 -690 751 0
-588 -625 -691 751 0
-588 -625 -692 751 0
-588 -625 -693 751 0
-588 -625 -694 751 0
-588 -625 -695 751 0
-588 -625 -696 751 0
-588 -625 -697 751 0
-588 -625 -698 751 0
-588 -625 -699 751 0
-588 -626 -674 751 0
-588 -626 -675 751 0
-588 -626 -676 751 0
-588 -626 -677 751 0
-588 -626 -678 751 0
-588 -626 -679 751 0
-588 -626 -680 751 0
-588 -626 -681 751 0
-588 -626 -682 751 0
-588 -626 -683 751 0
-588 -626 -684 751 0
-588 -626 -685 751 0
-588 -626 -686 751 0
-588 -626 -687 751 0
-588 -626 -688 751 0
-588 -626 -689 751 0
-588 -626 -690 751 0
-588 -626 -691 751 0
-588 -626 -692 751 0
-588 -626 -693 751 0
-588 -626 -694 751 0
-588 -626 -695 751 0
-588 -626 -696 751 0
-588 -626 -697 751 0
-588 -626 -698 751 0
-588 -626 -699 751 0
-588 -627 -674 751 0
-588 -627 -675 751 0
-588 -627 -676 751 0
-588 -627 -677 751 0
-588 -627 -678 751 0
-588 -627 -679 751 0
-588 -627 -680 751 0
-588 -627 -681 751 0
-588 -627 -682 751 0
-588 -627 -683 751 0
-588 -627 -684 751 0
-588 -627 -685 751 0
-588 -627 -686 751 0
-588 -627 -687 751 0
-588 -627 -688 751 0
-588 -627 -689 751 0
-588 -627 -690 751 0
-588 -627 -691 751 0
-588 -627 -692 751 0
-588 -627 -693 751 0
-588 -627 -694 751 0
-588 -627 -695 751 0
-588 -627 -696 751 0
-588 -627 -697 751 0
-588 -627 -698 751 0
-588 -627 -699 751 0
-588 -628 -674 751 0
-588 -628 -675 751 0
-588 -628 -676 751 0
-588 -628 -677 751 0
-588 -628 -678 751 0
-588 -628 -679 751 0
-588 -628 -680 751 0
-588 -628 -681 751 0
-588 -628 -682 751 0
-588 -628 -683 751 0
-588 -628 -684 751 0
-588 -628 -685 751 0
-588 -628 -686 751 0
-588 -628 -687 751 0
-588 -628 -688 751 0
-588 -628 -689 751 0
-588 -628 -690 751 0
-588 -628 -691 751 0
-588 -628 -692 751 0
-588 -628 -693 751 0
-588 -628 -694 751 0
-588 -628 -695 751 0
-588 -628 -696 751 0
-588 -628 -697 751 0
-588 -628 -698 751 0
-588 -628 -699 751 0
-588 -629 -674 751 0
-588 -629 -675 751 0
-588 -629 -676 751 0
-588 -629 -677 751 0
-588 -629 -678 751 0
-588 -629 -679 751 0
-588 -629 -680 751 0
-588 -629 -681 751 0
-588 -629 -682 751 0
-588 -629 -683 751 0
-588 -629 -684 751 0
-588 -629 -685 751 0
-588 -629 -686 751 0
-588 -629 -687 751 0
-588 -629 -688 751 0
-588 -629 -689 751 0
-588 -629 -690 751 0
-588 -629 -691 751 0
-588 -629 -692 751 0
-588 -629 -693 751 0
-588 -629 -694 751 0
-588 -629 -695 751 0
-588 -629 -696 751 0
-588 -629 -697 751 0
-588 -629 -698 751 0
-588 -629 -699 751 0
-588 -630 -674 751 0
-588 -630 -675 751 0
-588 -630 -676 751 0
-588 -630 -677 751 0
-588 -630 -678 751 0
-588 -630 -679 751 0
-588 -630 -680 751 0
-588 -630 -681 751 0
-588 -630 -682 751 0
-588 -630 -683 751 0
-588 -630 -684 751 0
-588 -630 -685 751 0
-588 -630 -686 751 0
-588 -630 -687 751 0
-588 -630 -688 751 0
-588 -630 -689 751 0
-588 -630 -690 751 0
-588 -630 -691 751 0
-588 -630 -692 751 0
-588 -630 -693 751 0
-588 -630 -694 751 0
-588 -630 -695 751 0
-588 -630 -696 751 0
-588 -630 -697 751 0
-588 -630 -698 751 0
-588 -630 -699 751 0
-588 -631 -674 751 0
-588 -631 -675 751 0
-588 -631 -676 751 0
-588 -631 -677 751 0
-588 -631 -678 751 0
-588 -631 -679 751 0
-588 -631 -680 751 0
-588 -631 -681 751 0
-588 -631 -682 751 0
-588 -631 -683 751 0
-588 -631 -684 751 0
-588 -631 -685 751 0
-588 -631 -686 751 0
-588 -631 -687 751 0
-588 -631 -688 751 0
-588 -631 -689 751 0
-588 -631 -690 751 0
-588 -631 -691 751 0
-588 -631 -692 751 0
-588 -631 -693 751 0
-588 -631 -694 751 0
-588 -631 -695 751 0
-588 -631 -696 751 0
-588 -631 -697 751 0
-588 -631 -698 751 0
-588 -631 -699 751 0
-588 -632 -674 751 0
-588 -632 -675 751 0
-588 -632 -676 751 0
-588 -632 -677 751 0
-588 -632 -678 751 0
-588 -632 -679 751 0
-588 -632 -680 751 0
-588 -632 -681 751 0
-588 -632 -682 751 0
-588 -632 -683 751 0
-588 -632 -684 751 0
-588 -632 -685 751 0
-588 -632 -686 751 0
-588 -632 -687 751 0
-588 -632 -688 751 0
-588 -632 -689 751 0
-588 -632 -690 751 0
-588 -632 -691 751 0
-588 -632 -692 751 0
-588 -632 -693 751 0
-588 -632 -694 751 0
-588 -632 -695 751 0
-588 -632 -696 751 0
-588 -632 -697 751 0
-588 -632 -698 751 0
-588 -632 -699 751 0
-588 -633 -674 751 0
-588 -633 -675 751 0
-588 -633 -676 751 0
-588 -633 -677 751 0
-588 -633 -678 751 0
-588 -633 -679 751 0
-588 -633 -680 751 0
-588 -633 -681 751 0
-588 -633 -682 751 0
-588 -633 -683 751 0
-588 -633 -684 751 0
-588 -633 -685 751 0
-588 -633 -686 751 0
-588 -633 -687 751 0
-588 -633 -688 751 0
-588 -633 -689 751 0
-588 -633 -690 751 0
-588 -633 -691 751 0
-588 -633 -692 751 0
-588 -633 -693 751 0
-588 -633 -694 751 0
-588 -633 -695 751 0
-588 -633 -696 751 0
-588 -633 -697 751 0
-588 -633 -698 751 0
-588 -633 -699 751 0
-588 -634 -674 751 0
-588 -634 -675 751 0
-588 -634 -676 751 0
-588 -634 -677 751 0
-588 -634 -678 751 0
-588 -634 -679 751 0
-588 -634 -680 751 0
-588 -634 -681 751 0
-588 -634 -682 751 0
-588 -634 -683 751 0
-588 -634 -684 751 0
-588 -634 -685 751 0
-588 -634 -686 751 0
-588 -634 -687 751 0
-588 -634 -688 751 0
-588 -634 -689 751 0
-588 -634 -690 751 0
-588 -634 -691 751 0
-588 -634 -692 751 0
-588 -634 -693 751 0
-588 -634 -694 751 0
-588 -634 -695 751 0
-588 -634 -696 751 0
-588 -634 -697 751 0
-588 -634 -698 751 0
-588 -634 -699 751 0
-588 -635 -674 751 0
-588 -635 -675 751 0
-588 -635 -676 751 0
-588 -635 -677 751 0
-588 -635 -678 751 0
-588 -635 -679 751 0
-588 -635 -680 751 0
-588 -635 -681 751 0
-588 -635 -682 751 0
-588 -635 -683 751 0
-588 -635 -684 751 0
-588 -635 -685 751 0
-588 -635 -686 751 0
-588 -635 -687 751 0
-588 -635 -688 751 0
-588 -635 -689 751 0
-588 -635 -690 751 0
-588 -635 -691 751 0
-588 -635 -692 751 0
-588 -635 -693 751 0
-588 -635 -694 751 0
-588 -635 -695 751 0
-588 -635 -696 751 0
-588 -635 -697 751 0
-588 -635 -698 751 0
-588 -635 -699 751 0
-588 -636 -674 751 0
-588 -636 -675 751 0
-588 -636 -676 751 0
-588 -636 -677 751 0
-588 -636 -678 751 0
-588 -636 -679 751 0
-588 -636 -680 751 0
-588 -636 -681 751 0
-588 -636 -682 751 0
-588 -636 -683 751 0
-588 -636 -684 751 0
-588 -636 -685 751 0
-588 -636 -686 751 0
-588 -636 -687 751 0
-588 -636 -688 751 0
-588 -636 -689 751 0
-588 -636 -690 751 0
-588 -636 -691 751 0
-588 -636 -692 751 0
-588 -636 -693 751 0
-588 -636 -694 751 0
-588 -636 -695 751 0
-588 -636 -696 751 0
-588 -636 -697 751 0
-588 -636 -698 751 0
-588 -636 -699 751 0
-588 -637 -674 751 0
-588 -637 -675 751 0
-588 -637 -676 751 0
-588 -637 -677 751 0
-588 -637 -678 751 0
-588 -637 -679 751 0
-588 -637 -680 751 0
-588 -637 -681 751 0
-588 -637 -682 751 0
-588 -637 -683 751 0
-588 -637 -684 751 0
-588 -637 -685 751 0
-588 -637 -686 751 0
-588 -637 -687 751 0
-588 -637 -688 751 0
-588 -637 -689 751 0
-588 -637 -690 751 0
-588 -637 -691 751 0
-588 -637 -692 751 0
-588 -637 -693 751 0
-588 -637 -694 751 0
-588 -637 -695 751 0
-588 -637 -696 751 0
-588 -637 -697 751 0
-588 -637 -698 751 0
-588 -637 -699 751 0
-588 -638 -674 751 0
-588 -638 -675 751 0
-588 -638 -676 751 0
-588 -638 -677 751 0
-588 -638 -678 751 0
-588 -638 -679 751 0
-588 -638 -680 751 0
-588 -638 -681 751 0
-588 -638 -682 751 0
-588 -638 -683 751 0
-588 -638 -684 751 0
-588 -638 -685 751 0
-588 -638 -686 751 0
-588 -638 -687 751 0
-588 -638 -688 751 0
-588 -638 -689 751 0
-588 -638 -690 751 0
-588 -638 -691 751 0
-588 -638 -692 751 0
-588 -638 -693 751 0
-588 -638 -694 751 0
-588 -638 -695 751 0
-588 -638 -696 751 0
-588 -638 -697 751 0
-588 -638 -698 751 0
-588 -638 -699 751 0
-588 -639 -674 751 0
-588 -639 -675 751 0
-588 -639 -676 751 0
-588 -639 -677 751 0
-588 -639 -678 751 0
-588 -639 -679 751 0
-588 -639 -680 751 0
-588 -639 -681 751 0
-588 -639 -682 751 0
-588 -639 -683 751 0
-588 -639 -684 751 0
-588 -639 -685 751 0
-588 -639 -686 751 0
-588 -639 -687 751 0
-588 -639 -688 751 0
-588 -639 -689 751 0
-588 -639 -690 751 0
-588 -639 -691 751 0
-588 -639 -692 751 0
-588 -639 -693 751 0
-588 -639 -694 751 0
-588 -639 -695 751 0
-588 -639 -696 751 0
-588 -639 -697 751 0
-588 -639 -698 751 0
-588 -639 -699 751 0
-588 -640 -674 751 0
-588 -640 -675 751 0
-588 -640 -676 751 0
-588 -640 -677 751 0
-588 -640 -678 751 0
-588 -640 -679 751 0
-588 -640 -680 751 0
-588 -640 -681 751 0
-588 -640 -682 751 0
-588 -640 -683 751 0
-588 -640 -684 751 0
-588 -640 -685 751 0
-588 -640 -686 751 0
-588 -640 -687 751 0
-588 -640 -688 751 0
-588 -640 -689 751 0
-588 -640 -690 751 0
-588 -640 -691 751 0
-588 -640 -692 751 0
-588 -640 -693 751 0
-588 -640 -694 751 0
-588 -640 -695 751 0
-588 -640 -696 751 0
-588 -640 -697 751 0
-588 -640 -698 751 0
-588 -640 -699 751 0
-588 -641 -674 751 0
-588 -641 -675 751 0
-588 -641 -676 751 0
-588 -641 -677 751 0
-588 -641 -678 751 0
-588 -641 -679 751 0
-588 -641 -680 751 0
-588 -641 -681 751 0
-588 -641 -682 751 0
-588 -641 -683 751 0
-588 -641 -684 751 0
-588 -641 -685 751 0
-588 -641 -686 751 0
-588 -641 -687 751 0
-588 -641 -688 751 0
-588 -641 -689 751 0
-588 -641 -690 751 0
-588 -641 -691 751 0
-588 -641 -692 751 0
-588 -641 -693 751 0
-588 -641 -694 751 0
-588 -641 -695 751 0
-588 -641 -696 751 0
-588 -641 -697 751 0
-588 -641 -698 751 0
-588 -641 -699 751 0
-588 -642 -674 751 0
-588 -642 -675 751 0
-588 -642 -676 751 0
-588 -642 -677 751 0
-588 -642 -678 751 0
-588 -642 -679 751 0
-588 -642 -680 751 0
-588 -642 -681 751 0
-588 -642 -682 751 0
-588 -642 -683 751 0
-588 -642 -684 751 0
-588 -642 -685 751 0
-588 -642 -686 751 0
-588 -642 -687 751 0
-588 -642 -688 751 0
-588 -642 -689 751 0
-588 -642 -690 751 0
-588 -642 -691 751 0
-588 -642 -692 751 0
-588 -642 -693 751 0
-588 -642 -694 751 0
-588 -642 -695 751 0
-588 -642 -696 751 0
-588 -642 -697 751 0
-588 -642 -698 751 0
-588 -642 -699 751 0
-588 -643 -674 751 0
-588 -643 -675 751 0
-588 -643 -676 751 0
-588 -643 -677 751 0
-588 -643 -678 751 0
-588 -643 -679 751 0
-588 -643 -680 751 0
-588 -643 -681 751 0
-588 -643 -682 751 0
-588 -643 -683 751 0
-588 -643 -684 751 0
-588 -643 -685 751 0
-588 -643 -686 751 0
-588 -643 -687 751 0
-588 -643 -688 751 0
-588 -643 -689 751 0
-588 -643 -690 751 0
-588 -643 -691 751 0
-588 -643 -692 751 0
-588 -643 -693 751 0
-588 -643 -694 751 0
-588 -643 -695 751 0
-588 -643 -696 751 0
-588 -643 -697 751 0
-588 -643 -698 751 0
-588 -643 -699 751 0
-588 -644 -674 751 0
-588 -644 -675 751 0
-588 -644 -676 751 0
-588 -644 -677 751 0
-588 -644 -678 751 0
-588 -644 -679 751 0
-588 -644 -680 751 0
-588 -644 -681 751 0
-588 -644 -682 751 0
-588 -644 -683 751 0
-588 -644 -684 751 0
-588 -644 -685 751 0
-588 -644 -686 751 0
-588 -644 -687 751 0
-588 -644 -688 751 0
-588 -644 -689 751 0
-588 -644 -690 751 0
-588 -644 -691 751 0
-588 -644 -692 751 0
-588 -644 -693 751 0
-588 -644 -694 751 0
-588 -644 -695 751 0
-588 -644 -696 751 0
-588 -644 -697 751 0
-588 -644 -698 751 0
-588 -644 -699 751 0
-588 -645 -674 751 0
-588 -645 -675 751 0
-588 -645 -676 751 0
-588 -645 -677 751 0
-588 -645 -678 751 0
-588 -645 -679 751 0
-588 -645 -680 751 0
-588 -645 -681 751 0
-588 -645 -682 751 0
-588 -645 -683 751 0
-588 -645 -684 751 0
-588 -645 -685 751 0
-588 -645 -686 751 0
-588 -645 -687 751 0
-588 -645 -688 751 0
-588 -645 -689 751 0
-588 -645 -690 751 0
-588 -645 -691 751 0
-588 -645 -692 751 0
-588 -645 -693 751 0
-588 -645 -694 751 0
-588 -645 -695 751 0
-588 -645 -696 751 0
-588 -645 -697 751 0
-588 -645 -698 751 0
-588 -645 -699 751 0
-588 -646 -674 751 0
-588 -646 -675 751 0
-588 -646 -676 751 0
-588 -646 -677 751 0
-588 -646 -678 751 0
-588 -646 -679 751 0
-588 -646 -680 751 0
-588 -646 -681 751 0
-588 -646 -682 751 0
-588 -646 -683 751 0
-588 -646 -684 751 0
-588 -646 -685 751 0
-588 -646 -686 751 0
-588 -646 -687 751 0
-588 -646 -688 751 0
-588 -646 -689 751 0
-588 -646 -690 751 0
-588 -646 -691 751 0
-588 -646 -692 751 0
-588 -646 -693 751 0
-588 -646 -694 751 0
-588 -646 -695 751 0
-588 -646 -696 751 0
-588 -646 -697 751 0
-588 -646 -698 751 0
-588 -646 -699 751 0
-588 -647 -674 751 0
-588 -647 -675 751 0
-588 -647 -676 751 0
-588 -647 -677 751 0
-588 -647 -678 751 0
-588 -647 -679 751 0
-588 -647 -680 751 0
-588 -647 -681 751 0
-588 -647 -682 751 0
-588 -647 -683 751 0
-588 -647 -684 751 0
-588 -647 -685 751 0
-588 -647 -686 751 0
-588 -647 -687 751 0
-588 -647 -688 751 0
-588 -647 -689 751 0
-588 -647 -690 751 0
-588 -647 -691 751 0
-588 -647 -692 751 0
-588 -647 -693 751 0
-588 -647 -694 751 0
-588 -647 -695 751 0
-588 -647 -696 751 0
-588 -647 -697 751 0
-588 -647 -698 751 0
-588 -647 -699 751 0
-589 -622 -674 748 0
-589 -622 -675 749 0
-589 -622 -676 750 0
-589 -622 -677 751 0
-589 -622 -678 751 0
-589 -622 -679 751 0
-589 -622 -680 751 0
-589 -622 -681 751 0
-589 -622 -682 751 0
-589 -622 -683 751 0
-589 -622 -684 751 0
-589 -622 -685 751 0
-589 -622 -686 751 0
-589 -622 -687 751 0
-589 -622 -688 751 0
-589 -622 -689 751 0
-589 -622 -690 751 0
-589 -622 -691 751 0
-589 -622 -692 751 0
-589 -622 -693 751 0
-589 -622 -694 751 0
-589 -622 -695 751 0
-589 -622 -696 751 0
-589 -622 -697 751 0
-589 -622 -698 751 0
-589 -622 -699 751 0
-589 -623 -674 749 0
-589 -623 -675 750 0
-589 -623 -676 751 0
-589 -623 -677 751 0
-589 -623 -678 751 0
-589 -623 -679 751 0
-589 -623 -680 751 0
-589 -623 -681 751 0
-589 -623 -682 751 0
-589 -623 -683 751 0
-589 -623 -684 751 0
-589 -623 -685 751 0
-589 -623 -686 751 0
-589 -623 -687 751 0
-589 -623 -688 751 0
-589 -623 -689 751 0
-589 -623 -690 751 0
-589 -623 -691 751 0
-589 -623 -692 751 0
-589 -623 -693 751 0
-589 -623 -694 751 0
-589 -623 -695 751 0
-589 -623 -696 751 0
-589 -623 -697 751 0
-589 -623 -698 751 0
-589 -623 -699 751 0
-589 -624 -674 750 0
-589 -624 -675 751 0
-589 -624 -676 751 0
-589 -624 -677 751 0
-589 -624 -678 751 0
-589 -624 -679 751 0
-589 -624 -680 751 0
-589 -624 -681 751 0
-589 -624 -682 751 0
-589 -624 -683 751 0
-589 -624 -684 751 0
-589 -624 -685 751 0
-589 -624 -686 751 0
-589 -624 -687 751 0
-589 -624 -688 751 0
-589 -624 -689 751 0
-589 -624 -690 751 0
-589 -624 -691 751 0
-589 -624 -692 751 0
-589 -624 -693 751 0
-589 -624 -694 751 0
-589 -624 -695 751 0
-589 -624 -696 751 0
-589 -624 -697 751 0
-589 -624 -698 751 0
-589 -624 -699 751 0
-589 -625 -674 751 0
-589 -625 -675 751 0
-589 -625 -676 751 0
-589 -625 -677 751 0
-589 -625 -678 751 0
-589 -625 -679 751 0
-589 -625 -680 751 0
-589 -625 -681 751 0
-589 -625 -682 751 0
-589 -625 -683 751 0
-589 -625 -684 751 0
-589 -625 -685 751 0
-589 -625 -686 751 0
-589 -625 -687 751 0
-589 -625 -688 751 0
-589 -625 -689 751 0
-589 -625 -690 751 0
-589 -625 -691 751 0
-589 -625 -692 751 0
-589 -625 -693 751 0
-589 -625 -694 751 0
-589 -625 -695 751 0
-589 -625 -696 751 0
-589 -625 -697 751 0
-589 -625 -698 751 0
-589 -625 -699 751 0
-589 -626 -674 751 0
-589 -626 -675 751 0
-589 -626 -676 751 0
-589 -626 -677 751 0
-589 -626 -678 751 0
-589 -626 -679 751 0
-589 -626 -680 751 0
-589 -626 -681 751 0
-589 -626 -682 751 0
-589 -626 -683 751 0
-589 -626 -684 751 0
-589 -626 -685 751 0
-589 -626 -686 751 0
-589 -626 -687 751 0
-589 -626 -688 751 0
-589 -626 -689 751 0
-589 -626 -690 751 0
-589 -626 -691 751 0
-589 -626 -692 751 0
-589 -626 -693 751 0
-589 -626 -694 751 0
-589 -626 -695 751 0
-589 -626 -696 751 0
-589 -626 -697 751 0
-589 -626 -698 751 0
-589 -626 -699 751 0
-589 -627 -674 751 0
-589 -627 -675 751 0
-589 -627 -676 751 0
-589 -627 -677 751 0
-589 -627 -678 751 0
-589 -627 -679 751 0
-589 -627 -680 751 0
-589 -627 -681 751 0
-589 -627 -682 751 0
-589 -627 -683 751 0
-589 -627 -684 751 0
-589 -627 -685 751 0
-589 -627 -686 751 0
-589 -627 -687 751 0
-589 -627 -688 751 0
-589 -627 -689 751 0
-589 -627 -690 751 0
-589 -627 -691 751 0
-589 -627 -692 751 0
-589 -627 -693 751 0
-589 -627 -694 751 0
-589 -627 -695 751 0
-589 -627 -696 751 0
-589 -627 -697 751 0
-589 -627 -698 751 0
-589 -627 -699 751 0
-589 -628 -674 751 0
-589 -628 -675 751 0
-589 -628 -676 751 0
-589 -628 -677 751 0
-589 -628 -678 751 0
-589 -628 -679 751 0
-589 -628 -680 751 0
-589 -628 -681 751 0
-589 -628 -682 751 0
-589 -628 -683 751 0
-589 -628 -684 751 0
-589 -628 -685 751 0
-589 -628 -686 751 0
-589 -628 -687 751 0
-589 -628 -688 751 0
-589 -628 -689 751 0
-589 -628 -690 751 0
-589 -628 -691 751 0
-589 -628 -692 751 0
-589 -628 -693 751 0
-589 -628 -694 751 0
-589 -628 -695 751 0
-589 -628 -696 751 0
-589 -628 -697 751 0
-589 -628 -698 751 0
-589 -628 -699 751 0
-589 -629 -674 751 0
-589 -629 -675 751 0
-589 -629 -676 751 0
-589 -629 -677 751 0
-589 -629 -678 751 0
-589 -629 -679 751 0
-589 -629 -680 751 0
-589 -629 -681 751 0
-589 -629 -682 751 0
-589 -629 -683 751 0
-589 -629 -684 751 0
-589 -629 -685 751 0
-589 -629 -686 751 0
-589 -629 -687 751 0
-589 -629 -688 751 0
-589 -629 -689 751 0
-589 -629 -690 751 0
-589 -629 -691 751 0
-589 -629 -692 751 0
-589 -629 -693 751 0
-589 -629 -694 751 0
-589 -629 -695 751 0
-589 -629 -696 751 0
-589 -629 -697 751 0
-589 -629 -698 751 0
-589 -629 -699 751 0
-589 -630 -674 751 0
-589 -630 -675 751 0
-589 -630 -676 751 0
-589 -630 -677 751 0
-589 -630 -678 751 0
-589 -630 -679 751 0
-589 -630 -680 751 0
-589 -630 -681 751 0
-589 -630 -682 751 0
-589 -630 -683 751 0
-589 -630 -684 751 0
-589 -630 -685 751 0
-589 -630 -686 751 0
-589 -630 -687 751 0
-589 -630 -688 751 0
-589 -630 -689 751 0
-589 -630 -690 751 0
-589 -630 -691 751 0
-589 -630 -692 751 0
-589 -630 -693 751 0
-589 -630 -694 751 0
-589 -630 -695 751 0
-589 -630 -696 751 0
-589 -630 -697 751 0
-589 -630 -698 751 0
-589 -630 -699 751 0
-589 -631 -674 751 0
-589 -631 -675 751 0
-589 -631 -676 751 0
-589 -631 -677 751 0
-589 -631 -678 751 0
-589 -631 -679 751 0
-589 -631 -680 751 0
-589 -631 -681 751 0
-589 -631 -682 751 0
-589 -631 -683 751 0
-589 -631 -684 751 0
-589 -631 -685 751 0
-589 -631 -686 751 0
-589 -631 -687 751 0
-589 -631 -688 751 0
-589 -631 -689 751 0
-589 -631 -690 751 0
-589 -631 -691 751 0
-589 -631 -692 751 0
-589 -631 -693 751 0
-589 -631 -694 751 0
-589 -631 -695 751 0
-589 -631 -696 751 0
-589 -631 -697 751 0
-589 -631 -698 751 0
-589 -631 -699 751 0
-589 -632 -674 751 0
-589 -632 -675 751 0
-589 -632 -676 751 0
-589 -632 -677 751 0
-589 -632 -678 751 0
-589 -632 -679 751 0
-589 -632 -680 751 0
-589 -632 -681 751 0
-589 -632 -682 751 0
-589 -632 -683 751 0
-589 -632 -684 751 0
-589 -632 -685 751 0
-589 -632 -686 751 0
-589 -632 -687 751 0
-589 -632 -688 751 0
-589 -632 -689 751 0
-589 -632 -690 751 0
-589 -632 -691 751 0
-589 -632 -692 751 0
-589 -632 -693 751 0
-589 -632 -694 751 0
-589 -632 -695 751 0
-589 -632 -696 751 0
-589 -632 -697 751 0
-589 -632 -698 751 0
-589 -632 -699 751 0
-589 -633 -674 751 0
-589 -633 -675 751 0
-589 -633 -676 751 0
-589 -633 -677 751 0
-589 -633 -678 751 0
-589 -633 -679 751 0
-589 -633 -680 751 0
-589 -633 -681 751 0
-589 -633 -682 751 0
-589 -633 -683 751 0
-589 -633 -684 751 0
-589 -633 -685 751 0
-589 -633 -686 751 0
-589 -633 -687 751 0
-589 -633 -688 751 0
-589 -633 -689 751 0
-589 -633 -690 751 0
-589 -633 -691 751 0
-589 -633 -692 751 0
-589 -633 -693 751 0
-589 -633 -694 751 0
-589 -633 -695 751 0
-589 -633 -696 751 0
-589 -633 -697 751 0
-589 -633 -698 751 0
-589 -633 -699 751 0
-589 -634 -674 751 0
-589 -634 -675 751 0
-589 -634 -676 751 0
-589 -634 -677 751 0
-589 -634 -678 751 0
-589 -634 -679 751 0
-589 -634 -680 751 0
-589 -634 -681 751 0
-589 -634 -682 751 0
-589 -634 -683 751 0
-589 -634 -684 751 0
-589 -634 -685 751 0
-589 -634 -686 751 0
-589 -634 -687 751 0
-589 -634 -688 751 0
-589 -634 -689 751 0
-589 -634 -690 751 0
-589 -634 -691 751 0
-589 -634 -692 751 0
-589 -634 -693 751 0
-589 -634 -694 751 0
-589 -634 -695 751 0
-589 -634 -696 751 0
-589 -634 -697 751 0
-589 -634 -698 751 0
-589 -634 -699 751 0
-589 -635 -674 751 0
-589 -635 -675 751 0
-589 -635 -676 751 0
-589 -635 -677 751 0
-589 -635 -678 751 0
-589 -635 -679 751 0
-589 -635 -680 751 0
-589 -635 -681 751 0
-589 -635 -682 751 0
-589 -635 -683 751 0
-589 -635 -684 751 0
-589 -635 -685 751 0
-589 -635 -686 751 0
-589 -635 -687 751 0
-589 -635 -688 751 0
-589 -635 -689 751 0
-589 -635 -690 751 0
-589 -635 -691 751 0
-589 -635 -692 751 0
-589 -635 -693 751 0
-589 -635 -694 751 0
-589 -635 -695 751 0
-589 -635 -696 751 0
-589 -635 -697 751 0
-589 -635 -698 751 0
-589 -635 -699 751 0
-589 -636 -674 751 0
-589 -636 -675 751 0
-589 -636 -676 751 0
-589 -636 -677 751 0
-589 -636 -678 751 0
-589 -636 -679 751 0
-589 -636 -680 751 0
-589 -636 -681 751 0
-589 -636 -682 751 0
-589 -636 -683 751 0
-589 -636 -684 751 0
-589 -636 -685 751 0
-589 -636 -686 751 0
-589 -636 -687 751 0
-589 -636 -688 751 0
-589 -636 -689 751 0
-589 -636 -690 751 0
-589 -636 -691 751 0
-589 -636 -692 751 0
-589 -636 -693 751 0
-589 -636 -694 751 0
-589 -636 -695 751 0
-589 -636 -696 751 0
-589 -636 -697 751 0
-589 -636 -698 751 0
-589 -636 -699 751 0
-589 -637 -674 751 0
-589 -637 -675 751 0
-589 -637 -676 751 0
-589 -637 -677 751 0
-589 -637 -678 751 0
-589 -637 -679 751 0
-589 -637 -680 751 0
-589 -637 -681 751 0
-589 -637 -682 751 0
-589 -637 -683 751 0
-589 -637 -684 751 0
-589 -637 -685 751 0
-589 -637 -686 751 0
-589 -637 -687 751 0
-589 -637 -688 751 0
-589 -637 -689 751 0
-589 -637 -690 751 0
-589 -637 -691 751 0
-589 -637 -692 751 0
-589 -637 -693 751 0
-589 -637 -694 751 0
-589 -637 -695 751 0
-589 -637 -696 751 0
-589 -637 -697 751 0
-589 -637 -698 751 0
-589 -637 -699 751 0
-589 -638 -674 751 0
-589 -638 -675 751 0
-589 -638 -676 751 0
-589 -638 -677 751 0
-589 -638 -678 751 0
-589 -638 -679 751 0
-589 -638 -680 751 0
-589 -638 -681 751 0
-589 -638 -682 751 0
-589 -638 -683 751 0
-589 -638 -684 751 0
-589 -638 -685 751 0
-589 -638 -686 751 0
-589 -638 -687 751 0
-589 -638 -688 751 0
-589 -638 -689 751 0
-589 -638 -690 751 0
-589 -638 -691 751 0
-589 -638 -692 751 0
-589 -638 -693 751 0
-589 -638 -694 751 0
-589 -638 -695 751 0
-589 -638 -696 751 0
-589 -638 -697 751 0
-589 -638 -698 751 0
-589 -638 -699 751 0
-589 -639 -674 751 0
-589 -639 -675 751 0
-589 -639 -676 751 0
-589 -639 -677 751 0
-589 -639 -678 751 0
-589 -639 -679 751 0
-589 -639 -680 751 0
-589 -639 -681 751 0
-589 -639 -682 751 0
-589 -639 -683 751 0
-589 -639 -684 751 0
-589 -639 -685 751 0
-589 -639 -686 751 0
-589 -639 -687 751 0
-589 -639 -688 751 0
-589 -639 -689 751 0
-589 -639 -690 751 0
-589 -639 -691 751 0
-589 -639 -692 751 0
-589 -639 -693 751 0
-589 -639 -694 751 0
-589 -639 -695 751 0
-589 -639 -696 751 0
-589 -639 -697 751 0
-589 -639 -698 751 0
-589 -639 -699 751 0
-589 -640 -674 751 0
-589 -640 -675 751 0
-589 -640 -676 751 0
-589 -640 -677 751 0
-589 -640 -678 751 0
-589 -640 -679 751 0
-589 -640 -680 751 0
-589 -640 -681 751 0
-589 -640 -682 751 0
-589 -640 -683 751 0
-589 -640 -684 751 0
-589 -640 -685 751 0
-589 -640 -686 751 0
-589 -640 -687 751 0
-589 -640 -688 751 0
-589 -640 -689 751 0
-589 -640 -690 751 0
-589 -640 -691 751 0
-589 -640 -692 751 0
-589 -640 -693 751 0
-589 -640 -694 751 0
-589 -640 -695 751 0
-589 -640 -696 751 0
-589 -640 -697 751 0
-589 -640 -698 751 0
-589 -640 -699 751 0
-589 -641 -674 751 0
-589 -641 -675 751 0
-589 -641 -676 751 0
-589 -641 -677 751 0
-589 -641 -678 751 0
-589 -641 -679 751 0
-589 -641 -680 751 0
-589 -641 -681 751 0
-589 -641 -682 751 0
-589 -641 -683 751 0
-589 -641 -684 751 0
-589 -641 -685 751 0
-589 -641 -686 751 0
-589 -641 -687 751 0
-589 -641 -688 751 0
-589 -641 -689 751 0
-589 -641 -690 751 0
-589 -641 -691 751 0
-589 -641 -692 751 0
-589 -641 -693 751 0
-589 -641 -694 751 0
-589 -641 -695 751 0
-589 -641 -696 751 0
-589 -641 -697 751 0
-589 -641 -698 751 0
-589 -641 -699 751 0
-589 -642 -674 751 0
-589 -642 -675 751 0
-589 -642 -676 751 0
-589 -642 -677 751 0
-589 -642 -678 751 0
-589 -642 -679 751 0
-589 -642 -680 751 0
-589 -642 -681 751 0
-589 -642 -682 751 0
-589 -642 -683 751 0
-589 -642 -684 751 0
-589 -642 -685 751 0
-589 -642 -686 751 0
-589 -642 -687 751 0
-589 -642 -688 751 0
-589 -642 -689 751 0
-589 -642 -690 751 0
-589 -642 -691 751 0
-589 -642 -692 751 0
-589 -642 -693 751 0
-589 -642 -694 751 0
-589 -642 -695 751 0
-589 -642 -696 751 0
-589 -642 -697 751 0
-589 -642 -698 751 0
-589 -642 -699 751 0
-589 -643 -674 751 0
-589 -643 -675 751 0
-589 -643 -676 751 0
-589 -643 -677 751 0
-589 -643 -678 751 0
-589 -643 -679 751 0
-589 -643 -680 751 0
-589 -643 -681 751 0
-589 -643 -682 751 0
-589 -643 -683 751 0
-589 -643 -684 751 0
-589 -643 -685 751 0
-589 -643 -686 751 0
-589 -643 -687 751 0
-589 -643 -688 751 0
-589 -643 -689 751 0
-589 -643 -690 751 0
-589 -643 -691 751 0
-589 -643 -692 751 0
-589 -643 -693 751 0
-589 -643 -694 751 0
-589 -643 -695 751 0
-589 -643 -696 751 0
-589 -643 -697 751 0
-589 -643 -698 751 0
-589 -643 -699 751 0
-589 -644 -674 751 0
-589 -644 -675 751 0
-589 -644 -676 751 0
-589 -644 -677 751 0
-589 -644 -678 751 0
-589 -644 -679 751 0
-589 -644 -680 751 0
-589 -644 -681 751 0
-589 -644 -682 751 0
-589 -644 -683 751 0
-589 -644 -684 751 0
-589 -644 -685 751 0
-589 -644 -686 751 0
-589 -644 -687 751 0
-589 -644 -688 751 0
-589 -644 -689 751 0
-589 -644 -690 751 0
-589 -644 -691 751 0
-589 -644 -692 751 0
-589 -644 -693 751 0
-589 -644 -694 751 0
-589 -644 -695 751 0
-589 -644 -696 751 0
-589 -644 -697 751 0
-589 -644 -698 751 0
-589 -644 -699 751 0
-589 -645 -674 751 0
-589 -645 -675 751 0
-589 -645 -676 751 0
-589 -645 -677 751 0
-589 -645 -678 751 0
-589 -645 -679 751 0
-589 -645 -680 751 0
-589 -645 -681 751 0
-589 -645 -682 751 0
-589 -645 -683 751 0
-589 -645 -684 751 0
-589 -645 -685 751 0
-589 -645 -686 751 0
-589 -645 -687 751 0
-589 -645 -688 751 0
-589 -645 -689 751 0
-589 -645 -690 751 0
-589 -645 -691 751 0
-589 -645 -692 751 0
-589 -645 -693 751 0
-589 -645 -694 751 0
-589 -645 -695 751 0
-589 -645 -696 751 0
-589 -645 -697 751 0
-589 -645 -698 751 0
-589 -645 -699 751 0
-589 -646 -674 751 0
-589 -646 -675 751 0
-589 -646 -676 751 0
-589 -646 -677 751 0
-589 -646 -678 751 0
-589 -646 -679 751 0
-589 -646 -680 751 0
-589 -646 -681 751 0
-589 -646 -682 751 0
-589 -646 -683 751 0
-589 -646 -684 751 0
-589 -646 -685 751 0
-589 -646 -686 751 0
-589 -646 -687 751 0
-589 -646 -688 751 0
-589 -646 -689 751 0
-589 -646 -690 751 0
-589 -646 -691 751 0
-589 -646 -692 751 0
-589 -646 -693 751 0
-589 -646 -694 751 0
-589 -646 -695 751 0
-589 -646 -696 751 0
-589 -646 -697 751 0
-589 -646 -698 751 0
-589 -646 -699 751 0
-589 -647 -674 751 0
-589 -647 -675 751 0
-589 -647 -676 751 0
-589 -647 -677 751 0
-589 -647 -678 751 0
-589 -647 -679 751 0
-589 -647 -680 751 0
-589 -647 -681 751 0
-589 -647 -682 751 0
-589 -647 -683 751 0
-589 -647 -684 751 0
-589 -647 -685 751 0
-589 -647 -686 751 0
-589 -647 -687 751 0
-589 -647 -688 751 0
-589 -647 -689 751 0
-589 -647 -690 751 0
-589 -647 -691 751 0
-589 -647 -692 751 0
-589 -647 -693 751 0
-589 -647 -694 751 0
-589 -647 -695 751 0
-589 -647 -696 751 0
-589 -647 -697 751 0
-589 -647 -698 751 0
-589 -647 -699 751 0
-590 -622 -674 749 0
-590 -622 -675 750 0
-590 -622 -676 751 0
-590 -622 -677 751 0
-590 -622 -678 751 0
-590 -622 -679 751 0
-590 -622 -680 751 0
-590 -622 -681 751 0
-590 -622 -682 751 0
-590 -622 -683 751 0
-590 -622 -684 751 0
-590 -622 -685 751 0
-590 -622 -686 751 0
-590 -622 -687 751 0
-590 -622 -688 751 0
-590 -622 -689 751 0
-590 -622 -690 751 0
-590 -622 -691 751 0
-590 -622 -692 751 0
-590 -622 -693 751 0
-590 -622 -694 751 0
-590 -622 -695 751 0
-590 -622 -696 751 0
-590 -622 -697 751 0
-590 -622 -698 751 0
-590 -622 -699 751 0
-590 -623 -674 750 0
-590 -623 -675 751 0
-590 -623 -676 751 0
-590 -623 -677 751 0
-590 -623 -678 751 0
-590 -623 -679 751 0
-590 -623 -680 751 0
-590 -623 -681 751 0
-590 -623 -682 751 0
-590 -623 -683 751 0
-590 -623 -684 751 0
-590 -623 -685 751 0
-590 -623 -686 751 0
-590 -623 -687 751 0
-590 -623 -688 751 0
-590 -623 -689 751 0
-590 -623 -690 751 0
-590 -623 -691 751 0
-590 -623 -692 751 0
-590 -623 -693 751 0
-590 -623 -694 751 0
-590 -623 -695 751 0
-590 -623 -696 751 0
-590 -623 -697 751 0
-590 -623 -698 751 0
-590 -623 -699 751 0
-590 -624 -674 751 0
-590 -624 -675 751 0
-590 -624 -676 751 0
-590 -624 -677 751 0
-590 -624 -678 751 0
-590 -624 -679 751 0
-590 -624 -680 751 0
-590 -624 -681 751 0
-590 -624 -682 751 0
-590 -624 -683 751 0
-590 -624 -684 751 0
-590 -624 -685 751 0
-590 -624 -686 751 0
-590 -624 -687 751 0
-590 -624 -688 751 0
-590 -624 -689 751 0
-590 -624 -690 751 0
-590 -624 -691 751 0
-590 -624 -692 751 0
-590 -624 -693 751 0
-590 -624 -694 751 0
-590 -624 -695 751 0
-590 -624 -696 751 0
-590 -624 -697 751 0
-590 -624 -698 751 0
-590 -624 -699 751 0
-590 -625 -674 751 0
-590 -625 -675 751 0
-590 -625 -676 751 0
-590 -625 -677 751 0
-590 -625 -678 751 0
-590 -625 -679 751 0
-590 -625 -680 751 0
-590 -625 -681 751 0
-590 -625 -682 751 0
-590 -625 -683 751 0
-590 -625 -684 751 0
-590 -625 -685 751 0
-590 -625 -686 751 0
-590 -625 -687 751 0
-590 -625 -688 751 0
-590 -625 -689 751 0
-590 -625 -690 751 0
-590 -625 -691 751 0
-590 -625 -692 751 0
-590 -625 -693 751 0
-590 -625 -694 751 0
-590 -625 -695 751 0
-590 -625 -696 751 0
-590 -625 -697 751 0
-590 -625 -698 751 0
-590 -625 -699 751 0
-590 -626 -674 751 0
-590 -626 -675 751 0
-590 -626 -676 751 0
-590 -626 -677 751 0
-590 -626 -678 751 0
-590 -626 -679 751 0
-590 -626 -680 751 0
-590 -626 -681 751 0
-590 -626 -682 751 0
-590 -626 -683 751 0
-590 -626 -684 751 0
-590 -626 -685 751 0
-590 -626 -686 751 0
-590 -626 -687 751 0
-590 -626 -688 751 0
-590 -626 -689 751 0
-590 -626 -690 751 0
-590 -626 -691 751 0
-590 -626 -692 751 0
-590 -626 -693 751 0
-590 -626 -694 751 0
-590 -626 -695 751 0
-590 -626 -696 751 0
-590 -626 -697 751 0
-590 -626 -698 751 0
-590 -626 -699 751 0
-590 -627 -674 751 0
-590 -627 -675 751 0
-590 -627 -676 751 0
-590 -627 -677 751 0
-590 -627 -678 751 0
-590 -627 -679 751 0
-590 -627 -680 751 0
-590 -627 -681 751 0
-590 -627 -682 751 0
-590 -627 -683 751 0
-590 -627 -684 751 0
-590 -627 -685 751 0
-590 -627 -686 751 0
-590 -627 -687 751 0
-590 -627 -688 751 0
-590 -627 -689 751 0
-590 -627 -690 751 0
-590 -627 -691 751 0
-590 -627 -692 751 0
-590 -627 -693 751 0
-590 -627 -694 751 0
-590 -627 -695 751 0
-590 -627 -696 751 0
-590 -627 -697 751 0
-590 -627 -698 751 0
-590 -627 -699 751 0
-590 -628 -674 751 0
-590 -628 -675 751 0
-590 -628 -676 751 0
-590 -628 -677 751 0
-590 -628 -678 751 0
-590 -628 -679 751 0
-590 -628 -680 751 0
-590 -628 -681 751 0
-590 -628 -682 751 0
-590 -628 -683 751 0
-590 -628 -684 751 0
-590 -628 -685 751 0
-590 -628 -686 751 0
-590 -628 -687 751 0
-590 -628 -688 751 0
-590 -628 -689 751 0
-590 -628 -690 751 0
-590 -628 -691 751 0
-590 -628 -692 751 0
-590 -628 -693 751 0
-590 -628 -694 751 0
-590 -628 -695 751 0
-590 -628 -696 751 0
-590 -628 -697 751 0
-590 -628 -698 751 0
-590 -628 -699 751 0
-590 -629 -674 751 0
-590 -629 -675 751 0
-590 -629 -676 751 0
-590 -629 -677 751 0
-590 -629 -678 751 0
-590 -629 -679 751 0
-590 -629 -680 751 0
-590 -629 -681 751 0
-590 -629 -682 751 0
-590 -629 -683 751 0
-590 -629 -684 751 0
-590 -629 -685 751 0
-590 -629 -686 751 0
-590 -629 -687 751 0
-590 -629 -688 751 0
-590 -629 -689 751 0
-590 -629 -690 751 0
-590 -629 -691 751 0
-590 -629 -692 751 0
-590 -629 -693 751 0
-590 -629 -694 751 0
-590 -629 -695 751 0
-590 -629 -696 751 0
-590 -629 -697 751 0
-590 -629 -698 751 0
-590 -629 -699 751 0
-590 -630 -674 751 0
-590 -630 -675 751 0
-590 -630 -676 751 0
-590 -630 -677 751 0
-590 -630 -678 751 0
-590 -630 -679 751 0
-590 -630 -680 751 0
-590 -630 -681 751 0
-590 -630 -682 751 0
-590 -630 -683 751 0
-590 -630 -684 751 0
-590 -630 -685 751 0
-590 -630 -686 751 0
-590 -630 -687 751 0
-590 -630 -688 751 0
-590 -630 -689 751 0
-590 -630 -690 751 0
-590 -630 -691 751 0
-590 -630 -692 751 0
-590 -630 -693 751 0
-590 -630 -694 751 0
-590 -630 -695 751 0
-590 -630 -696 751 0
-590 -630 -697 751 0
-590 -630 -698 751 0
-590 -630 -699 751 0
-590 -631 -674 751 0
-590 -631 -675 751 0
-590 -631 -676 751 0
-590 -631 -677 751 0
-590 -631 -678 751 0
-590 -631 -679 751 0
-590 -631 -680 751 0
-590 -631 -681 751 0
-590 -631 -682 751 0
-590 -631 -683 751 0
-590 -631 -684 751 0
-590 -631 -685 751 0
-590 -631 -686 751 0
-590 -631 -687 751 0
-590 -631 -688 751 0
-590 -631 -689 751 0
-590 -631 -690 751 0
-590 -631 -691 751 0
-590 -631 -692 751 0
-590 -631 -693 751 0
-590 -631 -694 751 0
-590 -631 -695 751 0
-590 -631 -696 751 0
-590 -631 -697 751 0
-590 -631 -698 751 0
-590 -631 -699 751 0
-590 -632 -674 751 0
-590 -632 -675 751 0
-590 -632 -676 751 0
-590 -632 -677 751 0
-590 -632 -678 751 0
-590 -632 -679 751 0
-590 -632 -680 751 0
-590 -632 -681 751 0
-590 -632 -682 751 0
-590 -632 -683 751 0
-590 -632 -684 751 0
-590 -632 -685 751 0
-590 -632 -686 751 0
-590 -632 -687 751 0
-590 -632 -688 751 0
-590 -632 -689 751 0
-590 -632 -690 751 0
-590 -632 -691 751 0
-590 -632 -692 751 0
-590 -632 -693 751 0
-590 -632 -694 751 0
-590 -632 -695 751 0
-590 -632 -696 751 0
-590 -632 -697 751 0
-590 -632 -698 751 0
-590 -632 -699 751 0
-590 -633 -674 751 0
-590 -633 -675 751 0
-590 -633 -676 751 0
-590 -633 -677 751 0
-590 -633 -678 751 0
-590 -633 -679 751 0
-590 -633 -680 751 0
-590 -633 -681 751 0
-590 -633 -682 751 0
-590 -633 -683 751 0
-590 -633 -684 751 0
-590 -633 -685 751 0
-590 -633 -686 751 0
-590 -633 -687 751 0
-590 -633 -688 751 0
-590 -633 -689 751 0
-590 -633 -690 751 0
-590 -633 -691 751 0
-590 -633 -692 751 0
-590 -633 -693 751 0
-590 -633 -694 751 0
-590 -633 -695 751 0
-590 -633 -696 751 0
-590 -633 -697 751 0
-590 -633 -698 751 0
-590 -633 -699 751 0
-590 -634 -674 751 0
-590 -634 -675 751 0
-590 -634 -676 751 0
-590 -634 -677 751 0
-590 -634 -678 751 0
-590 -634 -679 751 0
-590 -634 -680 751 0
-590 -634 -681 751 0
-590 -634 -682 751 0
-590 -634 -683 751 0
-590 -634 -684 751 0
-590 -634 -685 751 0
-590 -634 -686 751 0
-590 -634 -687 751 0
-590 -634 -688 751 0
-590 -634 -689 751 0
-590 -634 -690 751 0
-590 -634 -691 751 0
-590 -634 -692 751 0
-590 -634 -693 751 0
-590 -634 -694 751 0
-590 -634 -695 751 0
-590 -634 -696 751 0
-590 -634 -697 751 0
-590 -634 -698 751 0
-590 -634 -699 751 0
-590 -635 -674 751 0
-590 -635 -675 751 0
-590 -635 -676 751 0
-590 -635 -677 751 0
-590 -635 -678 751 0
-590 -635 -679 751 0
-590 -635 -680 751 0
-590 -635 -681 751 0
-590 -635 -682 751 0
-590 -635 -683 751 0
-590 -635 -684 751 0
-590 -635 -685 751 0
-590 -635 -686 751 0
-590 -635 -687 751 0
-590 -635 -688 751 0
-590 -635 -689 751 0
-590 -635 -690 751 0
-590 -635 -691 751 0
-590 -635 -692 751 0
-590 -635 -693 751 0
-590 -635 -694 751 0
-590 -635 -695 751 0
-590 -635 -696 751 0
-590 -635 -697 751 0
-590 -635 -698 751 0
-590 -635 -699 751 0
-590 -636 -674 751 0
-590 -636 -675 751 0
-590 -636 -676 751 0
-590 -636 -677 751 0
-590 -636 -678 751 0
-590 -636 -679 751 0
-590 -636 -680 751 0
-590 -636 -681 751 0
-590 -636 -682 751 0
-590 -636 -683 751 0
-590 -636 -684 751 0
-590 -636 -685 751 0
-590 -636 -686 751 0
-590 -636 -687 751 0
-590 -636 -688 751 0
-590 -636 -689 751 0
-590 -636 -690 751 0
-590 -636 -691 751 0
-590 -636 -692 751 0
-590 -636 -693 751 0
-590 -636 -694 751 0
-590 -636 -695 751 0
-590 -636 -696 751 0
-590 -636 -697 751 0
-590 -636 -698 751 0
-590 -636 -699 751 0
-590 -637 -674 751 0
-590 -637 -675 751 0
-590 -637 -676 751 0
-590 -637 -677 751 0
-590 -637 -678 751 0
-590 -637 -679 751 0
-590 -637 -680 751 0
-590 -637 -681 751 0
-590 -637 -682 751 0
-590 -637 -683 751 0
-590 -637 -684 751 0
-590 -637 -685 751 0
-590 -637 -686 751 0
-590 -637 -687 751 0
-590 -637 -688 751 0
-590 -637 -689 751 0
-590 -637 -690 751 0
-590 -637 -691 751 0
-590 -637 -692 751 0
-590 -637 -693 751 0
-590 -637 -694 751 0
-590 -637 -695 751 0
-590 -637 -696 751 0
-590 -637 -697 751 0
-590 -637 -698 751 0
-590 -637 -699 751 0
-590 -638 -674 751 0
-590 -638 -675 751 0
-590 -638 -676 751 0
-590 -638 -677 751 0
-590 -638 -678 751 0
-590 -638 -679 751 0
-590 -638 -680 751 0
-590 -638 -681 751 0
-590 -638 -682 751 0
-590 -638 -683 751 0
-590 -638 -684 751 0
-590 -638 -685 751 0
-590 -638 -686 751 0
-590 -638 -687 751 0
-590 -638 -688 751 0
-590 -638 -689 751 0
-590 -638 -690 751 0
-590 -638 -691 751 0
-590 -638 -692 751 0
-590 -638 -693 751 0
-590 -638 -694 751 0
-590 -638 -695 751 0
-590 -638 -696 751 0
-590 -638 -697 751 0
-590 -638 -698 751 0
-590 -638 -699 751 0
-590 -639 -674 751 0
-590 -639 -675 751 0
-590 -639 -676 751 0
-590 -639 -677 751 0
-590 -639 -678 751 0
-590 -639 -679 751 0
-590 -639 -680 751 0
-590 -639 -681 751 0
-590 -639 -682 751 0
-590 -639 -683 751 0
-590 -639 -684 751 0
-590 -639 -685 751 0
-590 -639 -686 751 0
-590 -639 -687 751 0
-590 -639 -688 751 0
-590 -639 -689 751 0
-590 -639 -690 751 0
-590 -639 -691 751 0
-590 -639 -692 751 0
-590 -639 -693 751 0
-590 -639 -694 751 0
-590 -639 -695 751 0
-590 -639 -696 751 0
-590 -639 -697 751 0
-590 -639 -698 751 0
-590 -639 -699 751 0
-590 -640 -674 751 0
-590 -640 -675 751 0
-590 -640 -676 751 0
-590 -640 -677 751 0
-590 -640 -678 751 0
-590 -640 -679 751 0
-590 -640 -680 751 0
-590 -640 -681 751 0
-590 -640 -682 751 0
-590 -640 -683 751 0
-590 -640 -684 751 0
-590 -640 -685 751 0
-590 -640 -686 751 0
-590 -640 -687 751 0
-590 -640 -688 751 0
-590 -640 -689 751 0
-590 -640 -690 751 0
-590 -640 -691 751 0
-590 -640 -692 751 0
-590 -640 -693 751 0
-590 -640 -694 751 0
-590 -640 -695 751 0
-590 -640 -696 751 0
-590 -640 -697 751 0
-590 -640 -698 751 0
-590 -640 -699 751 0
-590 -641 -674 751 0
-590 -641 -675 751 0
-590 -641 -676 751 0
-590 -641 -677 751 0
-590 -641 -678 751 0
-590 -641 -679 751 0
-590 -641 -680 751 0
-590 -641 -681 751 0
-590 -641 -682 751 0
-590 -641 -683 751 0
-590 -641 -684 751 0
-590 -641 -685 751 0
-590 -641 -686 751 0
-590 -641 -687 751 0
-590 -641 -688 751 0
-590 -641 -689 751 0
-590 -641 -690 751 0
-590 -641 -691 751 0
-590 -641 -692 751 0
-590 -641 -693 751 0
-590 -641 -694 751 0
-590 -641 -695 751 0
-590 -641 -696 751 0
-590 -641 -697 751 0
-590 -641 -698 751 0
-590 -641 -699 751 0
-590 -642 -674 751 0
-590 -642 -675 751 0
-590 -642 -676 751 0
-590 -642 -677 751 0
-590 -642 -678 751 0
-590 -642 -679 751 0
-590 -642 -680 751 0
-590 -642 -681 751 0
-590 -642 -682 751 0
-590 -642 -683 751 0
-590 -642 -684 751 0
-590 -642 -685 751 0
-590 -642 -686 751 0
-590 -642 -687 751 0
-590 -642 -688 751 0
-590 -642 -689 751 0
-590 -642 -690 751 0
-590 -642 -691 751 0
-590 -642 -692 751 0
-590 -642 -693 751 0
-590 -642 -694 751 0
-590 -642 -695 751 0
-590 -642 -696 751 0
-590 -642 -697 751 0
-590 -642 -698 751 0
-590 -642 -699 751 0
-590 -643 -674 751 0
-590 -643 -675 751 0
-590 -643 -676 751 0
-590 -643 -677 751 0
-590 -643 -678 751 0
-590 -643 -679 751 0
-590 -643 -680 751 0
-590 -643 -681 751 0
-590 -643 -682 751 0
-590 -643 -683 751 0
-590 -643 -684 751 0
-590 -643 -685 751 0
-590 -643 -686 751 0
-590 -643 -687 751 0
-590 -643 -688 751 0
-590 -643 -689 751 0
-590 -643 -690 751 0
-590 -643 -691 751 0
-590 -643 -692 751 0
-590 -643 -693 751 0
-590 -643 -694 751 0
-590 -643 -695 751 0
-590 -643 -696 751 0
-590 -643 -697 751 0
-590 -643 -698 751 0
-590 -643 -699 751 0
-590 -644 -674 751 0
-590 -644 -675 751 0
-590 -644 -676 751 0
-590 -644 -677 751 0
-590 -644 -678 751 0
-590 -644 -679 751 0
-590 -644 -680 751 0
-590 -644 -681 751 0
-590 -644 -682 751 0
-590 -644 -683 751 0
-590 -644 -684 751 0
-590 -644 -685 751 0
-590 -644 -686 751 0
-590 -644 -687 751 0
-590 -644 -688 751 0
-590 -644 -689 751 0
-590 -644 -690 751 0
-590 -644 -691 751 0
-590 -644 -692 751 0
-590 -644 -693 751 0
-590 -644 -694 751 0
-590 -644 -695 751 0
-590 -644 -696 751 0
-590 -644 -697 751 0
-590 -644 -698 751 0
-590 -644 -699 751 0
-590 -645 -674 751 0
-590 -645 -675 751 0
-590 -645 -676 751 0
-590 -645 -677 751 0
-590 -645 -678 751 0
-590 -645 -679 751 0
-590 -645 -680 751 0
-590 -645 -681 751 0
-590 -645 -682 751 0
-590 -645 -683 751 0
-590 -645 -684 751 0
-590 -645 -685 751 0
-590 -645 -686 751 0
-590 -645 -687 751 0
-590 -645 -688 751 0
-590 -645 -689 751 0
-590 -645 -690 751 0
-590 -645 -691 751 0
-590 -645 -692 751 0
-590 -645 -693 751 0
-590 -645 -694 751 0
-590 -645 -695 751 0
-590 -645 -696 751 0
-590 -645 -697 751 0
-590 -645 -698 751 0
-590 -645 -699 751 0
-590 -646 -674 751 0
-590 -646 -675 751 0
-590 -646 -676 751 0
-590 -646 -677 751 0
-590 -646 -678 751 0
-590 -646 -679 751 0
-590 -646 -680 751 0
-590 -646 -681 751 0
-590 -646 -682 751 0
-590 -646 -683 751 0
-590 -646 -684 751 0
-590 -646 -685 751 0
-590 -646 -686 751 0
-590 -646 -687 751 0
-590 -646 -688 751 0
-590 -646 -689 751 0
-590 -646 -690 751 0
-590 -646 -691 751 0
-590 -646 -692 751 0
-590 -646 -693 751 0
-590 -646 -694 751 0
-590 -646 -695 751 0
-590 -646 -696 751 0
-590 -646 -697 751 0
-590 -646 -698 751 0
-590 -646 -699 751 0
-590 -647 -674 751 0
-590 -647 -675 751 0
-590 -647 -676 751 0
-590 -647 -677 751 0
-590 -647 -678 751 0
-590 -647 -679 751 0
-590 -647 -680 751 0
-590 -647 -681 751 0
-590 -647 -682 751 0
-590 -647 -683 751 0
-590 -647 -684 751 0
-590 -647 -685 751 0
-590 -647 -686 751 0
-590 -647 -687 751 0
-590 -647 -688 751 0
-590 -647 -689 751 0
-590 -647 -690 751 0
-590 -647 -691 751 0
-590 -647 -692 751 0
-590 -647 -693 751 0
-590 -647 -694 751 0
-590 -647 -695 751 0
-590 -647 -696 751 0
-590 -647 -697 751 0
-590 -647 -698 751 0
-590 -647 -699 751 0
-591 -622 -674 750 0
-591 -622 -675 751 0
-591 -622 -676 751 0
-591 -622 -677 751 0
-591 -622 -678 751 0
-591 -622 -679 751 0
-591 -622 -680 751 0
-591 -622 -681 751 0
-591 -622 -682 751 0
-591 -622 -683 751 0
-591 -622 -684 751 0
-591 -622 -685 751 0
-591 -622 -686 751 0
-591 -622 -687 751 0
-591 -622 -688 751 0
-591 -622 -689 751 0
-591 -622 -690 751 0
-591 -622 -691 751 0
-591 -622 -692 751 0
-591 -622 -693 751 0
-591 -622 -694 751 0
-591 -622 -695 751 0
-591 -622 -696 751 0
-591 -622 -697 751 0
-591 -622 -698 751 0
-591 -622 -699 751 0
-591 -623 -674 751 0
-591 -623 -675 751 0
-591 -623 -676 751 0
-591 -623 -677 751 0
-591 -623 -678 751 0
-591 -623 -679 751 0
-591 -623 -680 751 0
-591 -623 -681 751 0
-591 -623 -682 751 0
-591 -623 -683 751 0
-591 -623 -684 751 0
-591 -623 -685 751 0
-591 -623 -686 751 0
-591 -623 -687 751 0
-591 -623 -688 751 0
-591 -623 -689 751 0
-591 -623 -690 751 0
-591 -623 -691 751 0
-591 -623 -692 751 0
-591 -623 -693 751 0
-591 -623 -694 751 0
-591 -623 -695 751 0
-591 -623 -696 751 0
-591 -623 -697 751 0
-591 -623 -698 751 0
-591 -623 -699 751 0
-591 -624 -674 751 0
-591 -624 -675 751 0
-591 -624 -676 751 0
-591 -624 -677 751 0
-591 -624 -678 751 0
-591 -624 -679 751 0
-591 -624 -680 751 0
-591 -624 -681 751 0
-591 -624 -682 751 0
-591 -624 -683 751 0
-591 -624 -684 751 0
-591 -624 -685 751 0
-591 -624 -686 751 0
-591 -624 -687 751 0
-591 -624 -688 751 0
-591 -624 -689 751 0
-591 -624 -690 751 0
-591 -624 -691 751 0
-591 -624 -692 751 0
-591 -624 -693 751 0
-591 -624 -694 751 0
-591 -624 -695 751 0
-591 -624 -696 751 0
-591 -624 -697 751 0
-591 -624 -698 751 0
-591 -624 -699 751 0
-591 -625 -674 751 0
-591 -625 -675 751 0
-591 -625 -676 751 0
-591 -625 -677 751 0
-591 -625 -678 751 0
-591 -625 -679 751 0
-591 -625 -680 751 0
-591 -625 -681 751 0
-591 -625 -682 751 0
-591 -625 -683 751 0
-591 -625 -684 751 0
-591 -625 -685 751 0
-591 -625 -686 751 0
-591 -625 -687 751 0
-591 -625 -688 751 0
-591 -625 -689 751 0
-591 -625 -690 751 0
-591 -625 -691 751 0
-591 -625 -692 751 0
-591 -625 -693 751 0
-591 -625 -694 751 0
-591 -625 -695 751 0
-591 -625 -696 751 0
-591 -625 -697 751 0
-591 -625 -698 751 0
-591 -625 -699 751 0
-591 -626 -674 751 0
-591 -626 -675 751 0
-591 -626 -676 751 0
-591 -626 -677 751 0
-591 -626 -678 751 0
-591 -626 -679 751 0
-591 -626 -680 751 0
-591 -626 -681 751 0
-591 -626 -682 751 0
-591 -626 -683 751 0
-591 -626 -684 751 0
-591 -626 -685 751 0
-591 -626 -686 751 0
-591 -626 -687 751 0
-591 -626 -688 751 0
-591 -626 -689 751 0
-591 -626 -690 751 0
-591 -626 -691 751 0
-591 -626 -692 751 0
-591 -626 -693 751 0
-591 -626 -694 751 0
-591 -626 -695 751 0
-591 -626 -696 751 0
-591 -626 -697 751 0
-591 -626 -698 751 0
-591 -626 -699 751 0
-591 -627 -674 751 0
-591 -627 -675 751 0
-591 -627 -676 751 0
-591 -627 -677 751 0
-591 -627 -678 751 0
-591 -627 -679 751 0
-591 -627 -680 751 0
-591 -627 -681 751 0
-591 -627 -682 751 0
-591 -627 -683 751 0
-591 -627 -684 751 0
-591 -627 -685 751 0
-591 -627 -686 751 0
-591 -627 -687 751 0
-591 -627 -688 751 0
-591 -627 -689 751 0
-591 -627 -690 751 0
-591 -627 -691 751 0
-591 -627 -692 751 0
-591 -627 -693 751 0
-591 -627 -694 751 0
-591 -627 -695 751 0
-591 -627 -696 751 0
-591 -627 -697 751 0
-591 -627 -698 751 0
-591 -627 -699 751 0
-591 -628 -674 751 0
-591 -628 -675 751 0
-591 -628 -676 751 0
-591 -628 -677 751 0
-591 -628 -678 751 0
-591 -628 -679 751 0
-591 -628 -680 751 0
-591 -628 -681 751 0
-591 -628 -682 751 0
-591 -628 -683 751 0
-591 -628 -684 751 0
-591 -628 -685 751 0
-591 -628 -686 751 0
-591 -628 -687 751 0
-591 -628 -688 751 0
-591 -628 -689 751 0
-591 -628 -690 751 0
-591 -628 -691 751 0
-591 -628 -692 751 0
-591 -628 -693 751 0
-591 -628 -694 751 0
-591 -628 -695 751 0
-591 -628 -696 751 0
-591 -628 -697 751 0
-591 -628 -698 751 0
-591 -628 -699 751 0
-591 -629 -674 751 0
-591 -629 -675 751 0
-591 -629 -676 751 0
-591 -629 -677 751 0
-591 -629 -678 751 0
-591 -629 -679 751 0
-591 -629 -680 751 0
-591 -629 -681 751 0
-591 -629 -682 751 0
-591 -629 -683 751 0
-591 -629 -684 751 0
-591 -629 -685 751 0
-591 -629 -686 751 0
-591 -629 -687 751 0
-591 -629 -688 751 0
-591 -629 -689 751 0
-591 -629 -690 751 0
-591 -629 -691 751 0
-591 -629 -692 751 0
-591 -629 -693 751 0
-591 -629 -694 751 0
-591 -629 -695 751 0
-591 -629 -696 751 0
-591 -629 -697 751 0
-591 -629 -698 751 0
-591 -629 -699 751 0
-591 -630 -674 751 0
-591 -630 -675 751 0
-591 -630 -676 751 0
-591 -630 -677 751 0
-591 -630 -678 751 0
-591 -630 -679 751 0
-591 -630 -680 751 0
-591 -630 -681 751 0
-591 -630 -682 751 0
-591 -630 -683 751 0
-591 -630 -684 751 0
-591 -630 -685 751 0
-591 -630 -686 751 0
-591 -630 -687 751 0
-591 -630 -688 751 0
-591 -630 -689 751 0
-591 -630 -690 751 0
-591 -630 -691 751 0
-591 -630 -692 751 0
-591 -630 -693 751 0
-591 -630 -694 751 0
-591 -630 -695 751 0
-591 -630 -696 751 0
-591 -630 -697 751 0
-591 -630 -698 751 0
-591 -630 -699 751 0
-591 -631 -674 751 0
-591 -631 -675 751 0
-591 -631 -676 751 0
-591 -631 -677 751 0
-591 -631 -678 751 0
-591 -631 -679 751 0
-591 -631 -680 751 0
-591 -631 -681 751 0
-591 -631 -682 751 0
-591 -631 -683 751 0
-591 -631 -684 751 0
-591 -631 -685 751 0
-591 -631 -686 751 0
-591 -631 -687 751 0
-591 -631 -688 751 0
-591 -631 -689 751 0
-591 -631 -690 751 0
-591 -631 -691 751 0
-591 -631 -692 751 0
-591 -631 -693 751 0
-591 -631 -694 751 0
-591 -631 -695 751 0
-591 -631 -696 751 0
-591 -631 -697 751 0
-591 -631 -698 751 0
-591 -631 -699 751 0
-591 -632 -674 751 0
-591 -632 -675 751 0
-591 -632 -676 751 0
-591 -632 -677 751 0
-591 -632 -678 751 0
-591 -632 -679 751 0
-591 -632 -680 751 0
-591 -632 -681 751 0
-591 -632 -682 751 0
-591 -632 -683 751 0
-591 -632 -684 751 0
-591 -632 -685 751 0
-591 -632 -686 751 0
-591 -632 -687 751 0
-591 -632 -688 751 0
-591 -632 -689 751 0
-591 -632 -690 751 0
-591 -632 -691 751 0
-591 -632 -692 751 0
-591 -632 -693 751 0
-591 -632 -694 751 0
-591 -632 -695 751 0
-591 -632 -696 751 0
-591 -632 -697 751 0
-591 -632 -698 751 0
-591 -632 -699 751 0
-591 -633 -674 751 0
-591 -633 -675 751 0
-591 -633 -676 751 0
-591 -633 -677 751 0
-591 -633 -678 751 0
-591 -633 -679 751 0
-591 -633 -680 751 0
-591 -633 -681 751 0
-591 -633 -682 751 0
-591 -633 -683 751 0
-591 -633 -684 751 0
-591 -633 -685 751 0
-591 -633 -686 751 0
-591 -633 -687 751 0
-591 -633 -688 751 0
-591 -633 -689 751 0
-591 -633 -690 751 0
-591 -633 -691 751 0
-591 -633 -692 751 0
-591 -633 -693 751 0
-591 -633 -694 751 0
-591 -633 -695 751 0
-591 -633 -696 751 0
-591 -633 -697 751 0
-591 -633 -698 751 0
-591 -633 -699 751 0
-591 -634 -674 751 0
-591 -634 -675 751 0
-591 -634 -676 751 0
-591 -634 -677 751 0
-591 -634 -678 751 0
-591 -634 -679 751 0
-591 -634 -680 751 0
-591 -634 -681 751 0
-591 -634 -682 751 0
-591 -634 -683 751 0
-591 -634 -684 751 0
-591 -634 -685 751 0
-591 -634 -686 751 0
-591 -634 -687 751 0
-591 -634 -688 751 0
-591 -634 -689 751 0
-591 -634 -690 751 0
-591 -634 -691 751 0
-591 -634 -692 751 0
-591 -634 -693 751 0
-591 -634 -694 751 0
-591 -634 -695 751 0
-591 -634 -696 751 0
-591 -634 -697 751 0
-591 -634 -698 751 0
-591 -634 -699 751 0
-591 -635 -674 751 0
-591 -635 -675 751 0
-591 -635 -676 751 0
-591 -635 -677 751 0
-591 -635 -678 751 0
-591 -635 -679 751 0
-591 -635 -680 751 0
-591 -635 -681 751 0
-591 -635 -682 751 0
-591 -635 -683 751 0
-591 -635 -684 751 0
-591 -635 -685 751 0
-591 -635 -686 751 0
-591 -635 -687 751 0
-591 -635 -688 751 0
-591 -635 -689 751 0
-591 -635 -690 751 0
-591 -635 -691 751 0
-591 -635 -692 751 0
-591 -635 -693 751 0
-591 -635 -694 751 0
-591 -635 -695 751 0
-591 -635 -696 751 0
-591 -635 -697 751 0
-591 -635 -698 751 0
-591 -635 -699 751 0
-591 -636 -674 751 0
-591 -636 -675 751 0
-591 -636 -676 751 0
-591 -636 -677 751 0
-591 -636 -678 751 0
-591 -636 -679 751 0
-591 -636 -680 751 0
-591 -636 -681 751 0
-591 -636 -682 751 0
-591 -636 -683 751 0
-591 -636 -684 751 0
-591 -636 -685 751 0
-591 -636 -686 751 0
-591 -636 -687 751 0
-591 -636 -688 751 0
-591 -636 -689 751 0
-591 -636 -690 751 0
-591 -636 -691 751 0
-591 -636 -692 751 0
-591 -636 -693 751 0
-591 -636 -694 751 0
-591 -636 -695 751 0
-591 -636 -696 751 0
-591 -636 -697 751 0
-591 -636 -698 751 0
-591 -636 -699 751 0
-591 -637 -674 751 0
-591 -637 -675 751 0
-591 -637 -676 751 0
-591 -637 -677 751 0
-591 -637 -678 751 0
-591 -637 -679 751 0
-591 -637 -680 751 0
-591 -637 -681 751 0
-591 -637 -682 751 0
-591 -637 -683 751 0
-591 -637 -684 751 0
-591 -637 -685 751 0
-591 -637 -686 751 0
-591 -637 -687 751 0
-591 -637 -688 751 0
-591 -637 -689 751 0
-591 -637 -690 751 0
-591 -637 -691 751 0
-591 -637 -692 751 0
-591 -637 -693 751 0
-591 -637 -694 751 0
-591 -637 -695 751 0
-591 -637 -696 751 0
-591 -637 -697 751 0
-591 -637 -698 751 0
-591 -637 -699 751 0
-591 -638 -674 751 0
-591 -638 -675 751 0
-591 -638 -676 751 0
-591 -638 -677 751 0
-591 -638 -678 751 0
-591 -638 -679 751 0
-591 -638 -680 751 0
-591 -638 -681 751 0
-591 -638 -682 751 0
-591 -638 -683 751 0
-591 -638 -684 751 0
-591 -638 -685 751 0
-591 -638 -686 751 0
-591 -638 -687 751 0
-591 -638 -688 751 0
-591 -638 -689 751 0
-591 -638 -690 751 0
-591 -638 -691 751 0
-591 -638 -692 751 0
-591 -638 -693 751 0
-591 -638 -694 751 0
-591 -638 -695 751 0
-591 -638 -696 751 0
-591 -638 -697 751 0
-591 -638 -698 751 0
-591 -638 -699 751 0
-591 -639 -674 751 0
-591 -639 -675 751 0
-591 -639 -676 751 0
-591 -639 -677 751 0
-591 -639 -678 751 0
-591 -639 -679 751 0
-591 -639 -680 751 0
-591 -639 -681 751 0
-591 -639 -682 751 0
-591 -639 -683 751 0
-591 -639 -684 751 0
-591 -639 -685 751 0
-591 -639 -686 751 0
-591 -639 -687 751 0
-591 -639 -688 751 0
-591 -639 -689 751 0
-591 -639 -690 751 0
-591 -639 -691 751 0
-591 -639 -692 751 0
-591 -639 -693 751 0
-591 -639 -694 751 0
-591 -639 -695 751 0
-591 -639 -696 751 0
-591 -639 -697 751 0
-591 -639 -698 751 0
-591 -639 -699 751 0
-591 -640 -674 751 0
-591 -640 -675 751 0
-591 -640 -676 751 0
-591 -640 -677 751 0
-591 -640 -678 751 0
-591 -640 -679 751 0
-591 -640 -680 751 0
-591 -640 -681 751 0
-591 -640 -682 751 0
-591 -640 -683 751 0
-591 -640 -684 751 0
-591 -640 -685 751 0
-591 -640 -686 751 0
-591 -640 -687 751 0
-591 -640 -688 751 0
-591 -640 -689 751 0
-591 -640 -690 751 0
-591 -640 -691 751 0
-591 -640 -692 751 0
-591 -640 -693 751 0
-591 -640 -694 751 0
-591 -640 -695 751 0
-591 -640 -696 751 0
-591 -640 -697 751 0
-591 -640 -698 751 0
-591 -640 -699 751 0
-591 -641 -674 751 0
-591 -641 -675 751 0
-591 -641 -676 751 0
-591 -641 -677 751 0
-591 -641 -678 751 0
-591 -641 -679 751 0
-591 -641 -680 751 0
-591 -641 -681 751 0
-591 -641 -682 751 0
-591 -641 -683 751 0
-591 -641 -684 751 0
-591 -641 -685 751 0
-591 -641 -686 751 0
-591 -641 -687 751 0
-591 -641 -688 751 0
-591 -641 -689 751 0
-591 -641 -690 751 0
-591 -641 -691 751 0
-591 -641 -692 751 0
-591 -641 -693 751 0
-591 -641 -694 751 0
-591 -641 -695 751 0
-591 -641 -696 751 0
-591 -641 -697 751 0
-591 -641 -698 751 0
-591 -641 -699 751 0
-591 -642 -674 751 0
-591 -642 -675 751 0
-591 -642 -676 751 0
-591 -642 -677 751 0
-591 -642 -678 751 0
-591 -642 -679 751 0
-591 -642 -680 751 0
-591 -642 -681 751 0
-591 -642 -682 751 0
-591 -642 -683 751 0
-591 -642 -684 751 0
-591 -642 -685 751 0
-591 -642 -686 751 0
-591 -642 -687 751 0
-591 -642 -688 751 0
-591 -642 -689 751 0
-591 -642 -690 751 0
-591 -642 -691 751 0
-591 -642 -692 751 0
-591 -642 -693 751 0
-591 -642 -694 751 0
-591 -642 -695 751 0
-591 -642 -696 751 0
-591 -642 -697 751 0
-591 -642 -698 751 0
-591 -642 -699 751 0
-591 -643 -674 751 0
-591 -643 -675 751 0
-591 -643 -676 751 0
-591 -643 -677 751 0
-591 -643 -678 751 0
-591 -643 -679 751 0
-591 -643 -680 751 0
-591 -643 -681 751 0
-591 -643 -682 751 0
-591 -643 -683 751 0
-591 -643 -684 751 0
-591 -643 -685 751 0
-591 -643 -686 751 0
-591 -643 -687 751 0
-591 -643 -688 751 0
-591 -643 -689 751 0
-591 -643 -690 751 0
-591 -643 -691 751 0
-591 -643 -692 751 0
-591 -643 -693 751 0
-591 -643 -694 751 0
-591 -643 -695 751 0
-591 -643 -696 751 0
-591 -643 -697 751 0
-591 -643 -698 751 0
-591 -643 -699 751 0
-591 -644 -674 751 0
-591 -644 -675 751 0
-591 -644 -676 751 0
-591 -644 -677 751 0
-591 -644 -678 751 0
-591 -644 -679 751 0
-591 -644 -680 751 0
-591 -644 -681 751 0
-591 -644 -682 751 0
-591 -644 -683 751 0
-591 -644 -684 751 0
-591 -644 -685 751 0
-591 -644 -686 751 0
-591 -644 -687 751 0
-591 -644 -688 751 0
-591 -644 -689 751 0
-591 -644 -690 751 0
-591 -644 -691 751 0
-591 -644 -692 751 0
-591 -644 -693 751 0
-591 -644 -694 751 0
-591 -644 -695 751 0
-591 -644 -696 751 0
-591 -644 -697 751 0
-591 -644 -698 751 0
-591 -644 -699 751 0
-591 -645 -674 751 0
-591 -645 -675 751 0
-591 -645 -676 751 0
-591 -645 -677 751 0
-591 -645 -678 751 0
-591 -645 -679 751 0
-591 -645 -680 751 0
-591 -645 -681 751 0
-591 -645 -682 751 0
-591 -645 -683 751 0
-591 -645 -684 751 0
-591 -645 -685 751 0
-591 -645 -686 751 0
-591 -645 -687 751 0
-591 -645 -688 751 0
-591 -645 -689 751 0
-591 -645 -690 751 0
-591 -645 -691 751 0
-591 -645 -692 751 0
-591 -645 -693 751 0
-591 -645 -694 751 0
-591 -645 -695 751 0
-591 -645 -696 751 0
-591 -645 -697 751 0
-591 -645 -698 751 0
-591 -645 -699 751 0
-591 -646 -674 751 0
-591 -646 -675 751 0
-591 -646 -676 751 0
-591 -646 -677 751 0
-591 -646 -678 751 0
-591 -646 -679 751 0
-591 -646 -680 751 0
-591 -646 -681 751 0
-591 -646 -682 751 0
-591 -646 -683 751 0
-591 -646 -684 751 0
-591 -646 -685 751 0
-591 -646 -686 751 0
-591 -646 -687 751 0
-591 -646 -688 751 0
-591 -646 -689 751 0
-591 -646 -690 751 0
-591 -646 -691 751 0
-591 -646 -692 751 0
-591 -646 -693 751 0
-591 -646 -694 751 0
-591 -646 -695 751 0
-591 -646 -696 751 0
-591 -646 -697 751 0
-591 -646 -698 751 0
-591 -646 -699 751 0
-591 -647 -674 751 0
-591 -647 -675 751 0
-591 -647 -676 751 0
-591 -647 -677 751 0
-591 -647 -678 751 0
-591 -647 -679 751 0
-591 -647 -680 751 0
-591 -647 -681 751 0
-591 -647 -682 751 0
-591 -647 -683 751 0
-591 -647 -684 751 0
-591 -647 -685 751 0
-591 -647 -686 751 0
-591 -647 -687 751 0
-591 -647 -688 751 0
-591 -647 -689 751 0
-591 -647 -690 751 0
-591 -647 -691 751 0
-591 -647 -692 751 0
-591 -647 -693 751 0
-591 -647 -694 751 0
-591 -647 -695 751 0
-591 -647 -696 751 0
-591 -647 -697 751 0
-591 -647 -698 751 0
-591 -647 -699 751 0
-592 -622 -674 751 0
-592 -622 -675 751 0
-592 -622 -676 751 0
-592 -622 -677 751 0
-592 -622 -678 751 0
-592 -622 -679 751 0
-592 -622 -680 751 0
-592 -622 -681 751 0
-592 -622 -682 751 0
-592 -622 -683 751 0
-592 -622 -684 751 0
-592 -622 -685 751 0
-592 -622 -686 751 0
-592 -622 -687 751 0
-592 -622 -688 751 0
-592 -622 -689 751 0
-592 -622 -690 751 0
-592 -622 -691 751 0
-592 -622 -692 751 0
-592 -622 -693 751 0
-592 -622 -694 751 0
-592 -622 -695 751 0
-592 -622 -696 751 0
-592 -622 -697 751 0
-592 -622 -698 751 0
-592 -622 -699 751 0
-592 -623 -674 751 0
-592 -623 -675 751 0
-592 -623 -676 751 0
-592 -623 -677 751 0
-592 -623 -678 751 0
-592 -623 -679 751 0
-592 -623 -680 751 0
-592 -623 -681 751 0
-592 -623 -682 751 0
-592 -623 -683 751 0
-592 -623 -684 751 0
-592 -623 -685 751 0
-592 -623 -686 751 0
-592 -623 -687 751 0
-592 -623 -688 751 0
-592 -623 -689 751 0
-592 -623 -690 751 0
-592 -623 -691 751 0
-592 -623 -692 751 0
-592 -623 -693 751 0
-592 -623 -694 751 0
-592 -623 -695 751 0
-592 -623 -696 751 0
-592 -623 -697 751 0
-592 -623 -698 751 0
-592 -623 -699 751 0
-592 -624 -674 751 0
-592 -624 -675 751 0
-592 -624 -676 751 0
-592 -624 -677 751 0
-592 -624 -678 751 0
-592 -624 -679 751 0
-592 -624 -680 751 0
-592 -624 -681 751 0
-592 -624 -682 751 0
-592 -624 -683 751 0
-592 -624 -684 751 0
-592 -624 -685 751 0
-592 -624 -686 751 0
-592 -624 -687 751 0
-592 -624 -688 751 0
-592 -624 -689 751 0
-592 -624 -690 751 0
-592 -624 -691 751 0
-592 -624 -692 751 0
-592 -624 -693 751 0
-592 -624 -694 751 0
-592 -624 -695 751 0
-592 -624 -696 751 0
-592 -624 -697 751 0
-592 -624 -698 751 0
-592 -624 -699 751 0
-592 -625 -674 751 0
-592 -625 -675 751 0
-592 -625 -676 751 0
-592 -625 -677 751 0
-592 -625 -678 751 0
-592 -625 -679 751 0
-592 -625 -680 751 0
-592 -625 -681 751 0
-592 -625 -682 751 0
-592 -625 -683 751 0
-592 -625 -684 751 0
-592 -625 -685 751 0
-592 -625 -686 751 0
-592 -625 -687 751 0
-592 -625 -688 751 0
-592 -625 -689 751 0
-592 -625 -690 751 0
-592 -625 -691 751 0
-592 -625 -692 751 0
-592 -625 -693 751 0
-592 -625 -694 751 0
-592 -625 -695 751 0
-592 -625 -696 751 0
-592 -625 -697 751 0
-592 -625 -698 751 0
-592 -625 -699 751 0
-592 -626 -674 751 0
-592 -626 -675 751 0
-592 -626 -676 751 0
-592 -626 -677 751 0
-592 -626 -678 751 0
-592 -626 -679 751 0
-592 -626 -680 751 0
-592 -626 -681 751 0
-592 -626 -682 751 0
-592 -626 -683 751 0
-592 -626 -684 751 0
-592 -626 -685 751 0
-592 -626 -686 751 0
-592 -626 -687 751 0
-592 -626 -688 751 0
-592 -626 -689 751 0
-592 -626 -690 751 0
-592 -626 -691 751 0
-592 -626 -692 751 0
-592 -626 -693 751 0
-592 -626 -694 751 0
-592 -626 -695 751 0
-592 -626 -696 751 0
-592 -626 -697 751 0
-592 -626 -698 751 0
-592 -626 -699 751 0
-592 -627 -674 751 0
-592 -627 -675 751 0
-592 -627 -676 751 0
-592 -627 -677 751 0
-592 -627 -678 751 0
-592 -627 -679 751 0
-592 -627 -680 751 0
-592 -627 -681 751 0
-592 -627 -682 751 0
-592 -627 -683 751 0
-592 -627 -684 751 0
-592 -627 -685 751 0
-592 -627 -686 751 0
-592 -627 -687 751 0
-592 -627 -688 751 0
-592 -627 -689 751 0
-592 -627 -690 751 0
-592 -627 -691 751 0
-592 -627 -692 751 0
-592 -627 -693 751 0
-592 -627 -694 751 0
-592 -627 -695 751 0
-592 -627 -696 751 0
-592 -627 -697 751 0
-592 -627 -698 751 0
-592 -627 -699 751 0
-592 -628 -674 751 0
-592 -628 -675 751 0
-592 -628 -676 751 0
-592 -628 -677 751 0
-592 -628 -678 751 0
-592 -628 -679 751 0
-592 -628 -680 751 0
-592 -628 -681 751 0
-592 -628 -682 751 0
-592 -628 -683 751 0
-592 -628 -684 751 0
-592 -628 -685 751 0
-592 -628 -686 751 0
-592 -628 -687 751 0
-592 -628 -688 751 0
-592 -628 -689 751 0
-592 -628 -690 751 0
-592 -628 -691 751 0
-592 -628 -692 751 0
-592 -628 -693 751 0
-592 -628 -694 751 0
-592 -628 -695 751 0
-592 -628 -696 751 0
-592 -628 -697 751 0
-592 -628 -698 751 0
-592 -628 -699 751 0
-592 -629 -674 751 0
-592 -629 -675 751 0
-592 -629 -676 751 0
-592 -629 -677 751 0
-592 -629 -678 751 0
-592 -629 -679 751 0
-592 -629 -680 751 0
-592 -629 -681 751 0
-592 -629 -682 751 0
-592 -629 -683 751 0
-592 -629 -684 751 0
-592 -629 -685 751 0
-592 -629 -686 751 0
-592 -629 -687 751 0
-592 -629 -688 751 0
-592 -629 -689 751 0
-592 -629 -690 751 0
-592 -629 -691 751 0
-592 -629 -692 751 0
-592 -629 -693 751 0
-592 -629 -694 751 0
-592 -629 -695 751 0
-592 -629 -696 751 0
-592 -629 -697 751 0
-592 -629 -698 751 0
-592 -629 -699 751 0
-592 -630 -674 751 0
-592 -630 -675 751 0
-592 -630 -676 751 0
-592 -630 -677 751 0
-592 -630 -678 751 0
-592 -630 -679 751 0
-592 -630 -680 751 0
-592 -630 -681 751 0
-592 -630 -682 751 0
-592 -630 -683 751 0
-592 -630 -684 751 0
-592 -630 -685 751 0
-592 -630 -686 751 0
-592 -630 -687 751 0
-592 -630 -688 751 0
-592 -630 -689 751 0
-592 -630 -690 751 0
-592 -630 -691 751 0
-592 -630 -692 751 0
-592 -630 -693 751 0
-592 -630 -694 751 0
-592 -630 -695 751 0
-592 -630 -696 751 0
-592 -630 -697 751 0
-592 -630 -698 751 0
-592 -630 -699 751 0
-592 -631 -674 751 0
-592 -631 -675 751 0
-592 -631 -676 751 0
-592 -631 -677 751 0
-592 -631 -678 751 0
-592 -631 -679 751 0
-592 -631 -680 751 0
-592 -631 -681 751 0
-592 -631 -682 751 0
-592 -631 -683 751 0
-592 -631 -684 751 0
-592 -631 -685 751 0
-592 -631 -686 751 0
-592 -631 -687 751 0
-592 -631 -688 751 0
-592 -631 -689 751 0
-592 -631 -690 751 0
-592 -631 -691 751 0
-592 -631 -692 751 0
-592 -631 -693 751 0
-592 -631 -694 751 0
-592 -631 -695 751 0
-592 -631 -696 751 0
-592 -631 -697 751 0
-592 -631 -698 751 0
-592 -631 -699 751 0
-592 -632 -674 751 0
-592 -632 -675 751 0
-592 -632 -676 751 0
-592 -632 -677 751 0
-592 -632 -678 751 0
-592 -632 -679 751 0
-592 -632 -680 751 0
-592 -632 -681 751 0
-592 -632 -682 751 0
-592 -632 -683 751 0
-592 -632 -684 751 0
-592 -632 -685 751 0
-592 -632 -686 751 0
-592 -632 -687 751 0
-592 -632 -688 751 0
-592 -632 -689 751 0
-592 -632 -690 751 0
-592 -632 -691 751 0
-592 -632 -692 751 0
-592 -632 -693 751 0
-592 -632 -694 751 0
-592 -632 -695 751 0
-592 -632 -696 751 0
-592 -632 -697 751 0
-592 -632 -698 751 0
-592 -632 -699 751 0
-592 -633 -674 751 0
-592 -633 -675 751 0
-592 -633 -676 751 0
-592 -633 -677 751 0
-592 -633 -678 751 0
-592 -633 -679 751 0
-592 -633 -680 751 0
-592 -633 -681 751 0
-592 -633 -682 751 0
-592 -633 -683 751 0
-592 -633 -684 751 0
-592 -633 -685 751 0
-592 -633 -686 751 0
-592 -633 -687 751 0
-592 -633 -688 751 0
-592 -633 -689 751 0
-592 -633 -690 751 0
-592 -633 -691 751 0
-592 -633 -692 751 0
-592 -633 -693 751 0
-592 -633 -694 751 0
-592 -633 -695 751 0
-592 -633 -696 751 0
-592 -633 -697 751 0
-592 -633 -698 751 0
-592 -633 -699 751 0
-592 -634 -674 751 0
-592 -634 -675 751 0
-592 -634 -676 751 0
-592 -634 -677 751 0
-592 -634 -678 751 0
-592 -634 -679 751 0
-592 -634 -680 751 0
-592 -634 -681 751 0
-592 -634 -682 751 0
-592 -634 -683 751 0
-592 -634 -684 751 0
-592 -634 -685 751 0
-592 -634 -686 751 0
-592 -634 -687 751 0
-592 -634 -688 751 0
-592 -634 -689 751 0
-592 -634 -690 751 0
-592 -634 -691 751 0
-592 -634 -692 751 0
-592 -634 -693 751 0
-592 -634 -694 751 0
-592 -634 -695 751 0
-592 -634 -696 751 0
-592 -634 -697 751 0
-592 -634 -698 751 0
-592 -634 -699 751 0
-592 -635 -674 751 0
-592 -635 -675 751 0
-592 -635 -676 751 0
-592 -635 -677 751 0
-592 -635 -678 751 0
-592 -635 -679 751 0
-592 -635 -680 751 0
-592 -635 -681 751 0
-592 -635 -682 751 0
-592 -635 -683 751 0
-592 -635 -684 751 0
-592 -635 -685 751 0
-592 -635 -686 751 0
-592 -635 -687 751 0
-592 -635 -688 751 0
-592 -635 -689 751 0
-592 -635 -690 751 0
-592 -635 -691 751 0
-592 -635 -692 751 0
-592 -635 -693 751 0
-592 -635 -694 751 0
-592 -635 -695 751 0
-592 -635 -696 751 0
-592 -635 -697 751 0
-592 -635 -698 751 0
-592 -635 -699 751 0
-592 -636 -674 751 0
-592 -636 -675 751 0
-592 -636 -676 751 0
-592 -636 -677 751 0
-592 -636 -678 751 0
-592 -636 -679 751 0
-592 -636 -680 751 0
-592 -636 -681 751 0
-592 -636 -682 751 0
-592 -636 -683 751 0
-592 -636 -684 751 0
-592 -636 -685 751 0
-592 -636 -686 751 0
-592 -636 -687 751 0
-592 -636 -688 751 0
-592 -636 -689 751 0
-592 -636 -690 751 0
-592 -636 -691 751 0
-592 -636 -692 751 0
-592 -636 -693 751 0
-592 -636 -694 751 0
-592 -636 -695 751 0
-592 -636 -696 751 0
-592 -636 -697 751 0
-592 -636 -698 751 0
-592 -636 -699 751 0
-592 -637 -674 751 0
-592 -637 -675 751 0
-592 -637 -676 751 0
-592 -637 -677 751 0
-592 -637 -678 751 0
-592 -637 -679 751 0
-592 -637 -680 751 0
-592 -637 -681 751 0
-592 -637 -682 751 0
-592 -637 -683 751 0
-592 -637 -684 751 0
-592 -637 -685 751 0
-592 -637 -686 751 0
-592 -637 -687 751 0
-592 -637 -688 751 0
-592 -637 -689 751 0
-592 -637 -690 751 0
-592 -637 -691 751 0
-592 -637 -692 751 0
-592 -637 -693 751 0
-592 -637 -694 751 0
-592 -637 -695 751 0
-592 -637 -696 751 0
-592 -637 -697 751 0
-592 -637 -698 751 0
-592 -637 -699 751 0
-592 -638 -674 751 0
-592 -638 -675 751 0
-592 -638 -676 751 0
-592 -638 -677 751 0
-592 -638 -678 751 0
-592 -638 -679 751 0
-592 -638 -680 751 0
-592 -638 -681 751 0
-592 -638 -682 751 0
-592 -638 -683 751 0
-592 -638 -684 751 0
-592 -638 -685 751 0
-592 -638 -686 751 0
-592 -638 -687 751 0
-592 -638 -688 751 0
-592 -638 -689 751 0
-592 -638 -690 751 0
-592 -638 -691 751 0
-592 -638 -692 751 0
-592 -638 -693 751 0
-592 -638 -694 751 0
-592 -638 -695 751 0
-592 -638 -696 751 0
-592 -638 -697 751 0
-592 -638 -698 751 0
-592 -638 -699 751 0
-592 -639 -674 751 0
-592 -639 -675 751 0
-592 -639 -676 751 0
-592 -639 -677 751 0
-592 -639 -678 751 0
-592 -639 -679 751 0
-592 -639 -680 751 0
-592 -639 -681 751 0
-592 -639 -682 751 0
-592 -639 -683 751 0
-592 -639 -684 751 0
-592 -639 -685 751 0
-592 -639 -686 751 0
-592 -639 -687 751 0
-592 -639 -688 751 0
-592 -639 -689 751 0
-592 -639 -690 751 0
-592 -639 -691 751 0
-592 -639 -692 751 0
-592 -639 -693 751 0
-592 -639 -694 751 0
-592 -639 -695 751 0
-592 -639 -696 751 0
-592 -639 -697 751 0
-592 -639 -698 751 0
-592 -639 -699 751 0
-592 -640 -674 751 0
-592 -640 -675 751 0
-592 -640 -676 751 0
-592 -640 -677 751 0
-592 -640 -678 751 0
-592 -640 -679 751 0
-592 -640 -680 751 0
-592 -640 -681 751 0
-592 -640 -682 751 0
-592 -640 -683 751 0
-592 -640 -684 751 0
-592 -640 -685 751 0
-592 -640 -686 751 0
-592 -640 -687 751 0
-592 -640 -688 751 0
-592 -640 -689 751 0
-592 -640 -690 751 0
-592 -640 -691 751 0
-592 -640 -692 751 0
-592 -640 -693 751 0
-592 -640 -694 751 0
-592 -640 -695 751 0
-592 -640 -696 751 0
-592 -640 -697 751 0
-592 -640 -698 751 0
-592 -640 -699 751 0
-592 -641 -674 751 0
-592 -641 -675 751 0
-592 -641 -676 751 0
-592 -641 -677 751 0
-592 -641 -678 751 0
-592 -641 -679 751 0
-592 -641 -680 751 0
-592 -641 -681 751 0
-592 -641 -682 751 0
-592 -641 -683 751 0
-592 -641 -684 751 0
-592 -641 -685 751 0
-592 -641 -686 751 0
-592 -641 -687 751 0
-592 -641 -688 751 0
-592 -641 -689 751 0
-592 -641 -690 751 0
-592 -641 -691 751 0
-592 -641 -692 751 0
-592 -641 -693 751 0
-592 -641 -694 751 0
-592 -641 -695 751 0
-592 -641 -696 751 0
-592 -641 -697 751 0
-592 -641 -698 751 0
-592 -641 -699 751 0
-592 -642 -674 751 0
-592 -642 -675 751 0
-592 -642 -676 751 0
-592 -642 -677 751 0
-592 -642 -678 751 0
-592 -642 -679 751 0
-592 -642 -680 751 0
-592 -642 -681 751 0
-592 -642 -682 751 0
-592 -642 -683 751 0
-592 -642 -684 751 0
-592 -642 -685 751 0
-592 -642 -686 751 0
-592 -642 -687 751 0
-592 -642 -688 751 0
-592 -642 -689 751 0
-592 -642 -690 751 0
-592 -642 -691 751 0
-592 -642 -692 751 0
-592 -642 -693 751 0
-592 -642 -694 751 0
-592 -642 -695 751 0
-592 -642 -696 751 0
-592 -642 -697 751 0
-592 -642 -698 751 0
-592 -642 -699 751 0
-592 -643 -674 751 0
-592 -643 -675 751 0
-592 -643 -676 751 0
-592 -643 -677 751 0
-592 -643 -678 751 0
-592 -643 -679 751 0
-592 -643 -680 751 0
-592 -643 -681 751 0
-592 -643 -682 751 0
-592 -643 -683 751 0
-592 -643 -684 751 0
-592 -643 -685 751 0
-592 -643 -686 751 0
-592 -643 -687 751 0
-592 -643 -688 751 0
-592 -643 -689 751 0
-592 -643 -690 751 0
-592 -643 -691 751 0
-592 -643 -692 751 0
-592 -643 -693 751 0
-592 -643 -694 751 0
-592 -643 -695 751 0
-592 -643 -696 751 0
-592 -643 -697 751 0
-592 -643 -698 751 0
-592 -643 -699 751 0
-592 -644 -674 751 0
-592 -644 -675 751 0
-592 -644 -676 751 0
-592 -644 -677 751 0
-592 -644 -678 751 0
-592 -644 -679 751 0
-592 -644 -680 751 0
-592 -644 -681 751 0
-592 -644 -682 751 0
-592 -644 -683 751 0
-592 -644 -684 751 0
-592 -644 -685 751 0
-592 -644 -686 751 0
-592 -644 -687 751 0
-592 -644 -688 751 0
-592 -644 -689 751 0
-592 -644 -690 751 0
-592 -644 -691 751 0
-592 -644 -692 751 0
-592 -644 -693 751 0
-592 -644 -694 751 0
-592 -644 -695 751 0
-592 -644 -696 751 0
-592 -644 -697 751 0
-592 -644 -698 751 0
-592 -644 -699 751 0
-592 -645 -674 751 0
-592 -645 -675 751 0
-592 -645 -676 751 0
-592 -645 -677 751 0
-592 -645 -678 751 0
-592 -645 -679 751 0
-592 -645 -680 751 0
-592 -645 -681 751 0
-592 -645 -682 751 0
-592 -645 -683 751 0
-592 -645 -684 751 0
-592 -645 -685 751 0
-592 -645 -686 751 0
-592 -645 -687 751 0
-592 -645 -688 751 0
-592 -645 -689 751 0
-592 -645 -690 751 0
-592 -645 -691 751 0
-592 -645 -692 751 0
-592 -645 -693 751 0
-592 -645 -694 751 0
-592 -645 -695 751 0
-592 -645 -696 751 0
-592 -645 -697 751 0
-592 -645 -698 751 0
-592 -645 -699 751 0
-592 -646 -674 751 0
-592 -646 -675 751 0
-592 -646 -676 751 0
-592 -646 -677 751 0
-592 -646 -678 751 0
-592 -646 -679 751 0
-592 -646 -680 751 0
-592 -646 -681 751 0
-592 -646 -682 751 0
-592 -646 -683 751 0
-592 -646 -684 751 0
-592 -646 -685 751 0
-592 -646 -686 751 0
-592 -646 -687 751 0
-592 -646 -688 751 0
-592 -646 -689 751 0
-592 -646 -690 751 0
-592 -646 -691 751 0
-592 -646 -692 751 0
-592 -646 -693 751 0
-592 -646 -694 751 0
-592 -646 -695 751 0
-592 -646 -696 751 0
-592 -646 -697 751 0
-592 -646 -698 751 0
-592 -646 -699 751 0
-592 -647 -674 751 0
-592 -647 -675 751 0
-592 -647 -676 751 0
-592 -647 -677 751 0
-592 -647 -678 751 0
-592 -647 -679 751 0
-592 -647 -680 751 0
-592 -647 -681 751 0
-592 -647 -682 751 0
-592 -647 -683 751 0
-592 -647 -684 751 0
-592 -647 -685 751 0
-592 -647 -686 751 0
-592 -647 -687 751 0
-592 -647 -688 751 0
-592 -647 -689 751 0
-592 -647 -690 751 0
-592 -647 -691 751 0
-592 -647 -692 751 0
-592 -647 -693 751 0
-592 -647 -694 751 0
-592 -647 -695 751 0
-592 -647 -696 751 0
-592 -647 -697 751 0
-592 -647 -698 751 0
-592 -647 -699 751 0
-593 -622 -674 751 0
-593 -622 -675 751 0
-593 -622 -676 751 0
-593 -622 -677 751 0
-593 -622 -678 751 0
-593 -622 -679 751 0
-593 -622 -680 751 0
-593 -622 -681 751 0
-593 -622 -682 751 0
-593 -622 -683 751 0
-593 -622 -684 751 0
-593 -622 -685 751 0
-593 -622 -686 751 0
-593 -622 -687 751 0
-593 -622 -688 751 0
-593 -622 -689 751 0
-593 -622 -690 751 0
-593 -622 -691 751 0
-593 -622 -692 751 0
-593 -622 -693 751 0
-593 -622 -694 751 0
-593 -622 -695 751 0
-593 -622 -696 751 0
-593 -622 -697 751 0
-593 -622 -698 751 0
-593 -622 -699 751 0
-593 -623 -674 751 0
-593 -623 -675 751 0
-593 -623 -676 751 0
-593 -623 -677 751 0
-593 -623 -678 751 0
-593 -623 -679 751 0
-593 -623 -680 751 0
-593 -623 -681 751 0
-593 -623 -682 751 0
-593 -623 -683 751 0
-593 -623 -684 751 0
-593 -623 -685 751 0
-593 -623 -686 751 0
-593 -623 -687 751 0
-593 -623 -688 751 0
-593 -623 -689 751 0
-593 -623 -690 751 0
-593 -623 -691 751 0
-593 -623 -692 751 0
-593 -623 -693 751 0
-593 -623 -694 751 0
-593 -623 -695 751 0
-593 -623 -696 751 0
-593 -623 -697 751 0
-593 -623 -698 751 0
-593 -623 -699 751 0
-593 -624 -674 751 0
-593 -624 -675 751 0
-593 -624 -676 751 0
-593 -624 -677 751 0
-593 -624 -678 751 0
-593 -624 -679 751 0
-593 -624 -680 751 0
-593 -624 -681 751 0
-593 -624 -682 751 0
-593 -624 -683 751 0
-593 -624 -684 751 0
-593 -624 -685 751 0
-593 -624 -686 751 0
-593 -624 -687 751 0
-593 -624 -688 751 0
-593 -624 -689 751 0
-593 -624 -690 751 0
-593 -624 -691 751 0
-593 -624 -692 751 0
-593 -624 -693 751 0
-593 -624 -694 751 0
-593 -624 -695 751 0
-593 -624 -696 751 0
-593 -624 -697 751 0
-593 -624 -698 751 0
-593 -624 -699 751 0
-593 -625 -674 751 0
-593 -625 -675 751 0
-593 -625 -676 751 0
-593 -625 -677 751 0
-593 -625 -678 751 0
-593 -625 -679 751 0
-593 -625 -680 751 0
-593 -625 -681 751 0
-593 -625 -682 751 0
-593 -625 -683 751 0
-593 -625 -684 751 0
-593 -625 -685 751 0
-593 -625 -686 751 0
-593 -625 -687 751 0
-593 -625 -688 751 0
-593 -625 -689 751 0
-593 -625 -690 751 0
-593 -625 -691 751 0
-593 -625 -692 751 0
-593 -625 -693 751 0
-593 -625 -694 751 0
-593 -625 -695 751 0
-593 -625 -696 751 0
-593 -625 -697 751 0
-593 -625 -698 751 0
-593 -625 -699 751 0
-593 -626 -674 751 0
-593 -626 -675 751 0
-593 -626 -676 751 0
-593 -626 -677 751 0
-593 -626 -678 751 0
-593 -626 -679 751 0
-593 -626 -680 751 0
-593 -626 -681 751 0
-593 -626 -682 751 0
-593 -626 -683 751 0
-593 -626 -684 751 0
-593 -626 -685 751 0
-593 -626 -686 751 0
-593 -626 -687 751 0
-593 -626 -688 751 0
-593 -626 -689 751 0
-593 -626 -690 751 0
-593 -626 -691 751 0
-593 -626 -692 751 0
-593 -626 -693 751 0
-593 -626 -694 751 0
-593 -626 -695 751 0
-593 -626 -696 751 0
-593 -626 -697 751 0
-593 -626 -698 751 0
-593 -626 -699 751 0
-593 -627 -674 751 0
-593 -627 -675 751 0
-593 -627 -676 751 0
-593 -627 -677 751 0
-593 -627 -678 751 0
-593 -627 -679 751 0
-593 -627 -680 751 0
-593 -627 -681 751 0
-593 -627 -682 751 0
-593 -627 -683 751 0
-593 -627 -684 751 0
-593 -627 -685 751 0
-593 -627 -686 751 0
-593 -627 -687 751 0
-593 -627 -688 751 0
-593 -627 -689 751 0
-593 -627 -690 751 0
-593 -627 -691 751 0
-593 -627 -692 751 0
-593 -627 -693 751 0
-593 -627 -694 751 0
-593 -627 -695 751 0
-593 -627 -696 751 0
-593 -627 -697 751 0
-593 -627 -698 751 0
-593 -627 -699 751 0
-593 -628 -674 751 0
-593 -628 -675 751 0
-593 -628 -676 751 0
-593 -628 -677 751 0
-593 -628 -678 751 0
-593 -628 -679 751 0
-593 -628 -680 751 0
-593 -628 -681 751 0
-593 -628 -682 751 0
-593 -628 -683 751 0
-593 -628 -684 751 0
-593 -628 -685 751 0
-593 -628 -686 751 0
-593 -628 -687 751 0
-593 -628 -688 751 0
-593 -628 -689 751 0
-593 -628 -690 751 0
-593 -628 -691 751 0
-593 -628 -692 751 0
-593 -628 -693 751 0
-593 -628 -694 751 0
-593 -628 -695 751 0
-593 -628 -696 751 0
-593 -628 -697 751 0
-593 -628 -698 751 0
-593 -628 -699 751 0
-593 -629 -674 751 0
-593 -629 -675 751 0
-593 -629 -676 751 0
-593 -629 -677 751 0
-593 -629 -678 751 0
-593 -629 -679 751 0
-593 -629 -680 751 0
-593 -629 -681 751 0
-593 -629 -682 751 0
-593 -629 -683 751 0
-593 -629 -684 751 0
-593 -629 -685 751 0
-593 -629 -686 751 0
-593 -629 -687 751 0
-593 -629 -688 751 0
-593 -629 -689 751 0
-593 -629 -690 751 0
-593 -629 -691 751 0
-593 -629 -692 751 0
-593 -629 -693 751 0
-593 -629 -694 751 0
-593 -629 -695 751 0
-593 -629 -696 751 0
-593 -629 -697 751 0
-593 -629 -698 751 0
-593 -629 -699 751 0
-593 -630 -674 751 0
-593 -630 -675 751 0
-593 -630 -676 751 0
-593 -630 -677 751 0
-593 -630 -678 751 0
-593 -630 -679 751 0
-593 -630 -680 751 0
-593 -630 -681 751 0
-593 -630 -682 751 0
-593 -630 -683 751 0
-593 -630 -684 751 0
-593 -630 -685 751 0
-593 -630 -686 751 0
-593 -630 -687 751 0
-593 -630 -688 751 0
-593 -630 -689 751 0
-593 -630 -690 751 0
-593 -630 -691 751 0
-593 -630 -692 751 0
-593 -630 -693 751 0
-593 -630 -694 751 0
-593 -630 -695 751 0
-593 -630 -696 751 0
-593 -630 -697 751 0
-593 -630 -698 751 0
-593 -630 -699 751 0
-593 -631 -674 751 0
-593 -631 -675 751 0
-593 -631 -676 751 0
-593 -631 -677 751 0
-593 -631 -678 751 0
-593 -631 -679 751 0
-593 -631 -680 751 0
-593 -631 -681 751 0
-593 -631 -682 751 0
-593 -631 -683 751 0
-593 -631 -684 751 0
-593 -631 -685 751 0
-593 -631 -686 751 0
-593 -631 -687 751 0
-593 -631 -688 751 0
-593 -631 -689 751 0
-593 -631 -690 751 0
-593 -631 -691 751 0
-593 -631 -692 751 0
-593 -631 -693 751 0
-593 -631 -694 751 0
-593 -631 -695 751 0
-593 -631 -696 751 0
-593 -631 -697 751 0
-593 -631 -698 751 0
-593 -631 -699 751 0
-593 -632 -674 751 0
-593 -632 -675 751 0
-593 -632 -676 751 0
-593 -632 -677 751 0
-593 -632 -678 751 0
-593 -632 -679 751 0
-593 -632 -680 751 0
-593 -632 -681 751 0
-593 -632 -682 751 0
-593 -632 -683 751 0
-593 -632 -684 751 0
-593 -632 -685 751 0
-593 -632 -686 751 0
-593 -632 -687 751 0
-593 -632 -688 751 0
-593 -632 -689 751 0
-593 -632 -690 751 0
-593 -632 -691 751 0
-593 -632 -692 751 0
-593 -632 -693 751 0
-593 -632 -694 751 0
-593 -632 -695 751 0
-593 -632 -696 751 0
-593 -632 -697 751 0
-593 -632 -698 751 0
-593 -632 -699 751 0
-593 -633 -674 751 0
-593 -633 -675 751 0
-593 -633 -676 751 0
-593 -633 -677 751 0
-593 -633 -678 751 0
-593 -633 -679 751 0
-593 -633 -680 751 0
-593 -633 -681 751 0
-593 -633 -682 751 0
-593 -633 -683 751 0
-593 -633 -684 751 0
-593 -633 -685 751 0
-593 -633 -686 751 0
-593 -633 -687 751 0
-593 -633 -688 751 0
-593 -633 -689 751 0
-593 -633 -690 751 0
-593 -633 -691 751 0
-593 -633 -692 751 0
-593 -633 -693 751 0
-593 -633 -694 751 0
-593 -633 -695 751 0
-593 -633 -696 751 0
-593 -633 -697 751 0
-593 -633 -698 751 0
-593 -633 -699 751 0
-593 -634 -674 751 0
-593 -634 -675 751 0
-593 -634 -676 751 0
-593 -634 -677 751 0
-593 -634 -678 751 0
-593 -634 -679 751 0
-593 -634 -680 751 0
-593 -634 -681 751 0
-593 -634 -682 751 0
-593 -634 -683 751 0
-593 -634 -684 751 0
-593 -634 -685 751 0
-593 -634 -686 751 0
-593 -634 -687 751 0
-593 -634 -688 751 0
-593 -634 -689 751 0
-593 -634 -690 751 0
-593 -634 -691 751 0
-593 -634 -692 751 0
-593 -634 -693 751 0
-593 -634 -694 751 0
-593 -634 -695 751 0
-593 -634 -696 751 0
-593 -634 -697 751 0
-593 -634 -698 751 0
-593 -634 -699 751 0
-593 -635 -674 751 0
-593 -635 -675 751 0
-593 -635 -676 751 0
-593 -635 -677 751 0
-593 -635 -678 751 0
-593 -635 -679 751 0
-593 -635 -680 751 0
-593 -635 -681 751 0
-593 -635 -682 751 0
-593 -635 -683 751 0
-593 -635 -684 751 0
-593 -635 -685 751 0
-593 -635 -686 751 0
-593 -635 -687 751 0
-593 -635 -688 751 0
-593 -635 -689 751 0
-593 -635 -690 751 0
-593 -635 -691 751 0
-593 -635 -692 751 0
-593 -635 -693 751 0
-593 -635 -694 751 0
-593 -635 -695 751 0
-593 -635 -696 751 0
-593 -635 -697 751 0
-593 -635 -698 751 0
-593 -635 -699 751 0
-593 -636 -674 751 0
-593 -636 -675 751 0
-593 -636 -676 751 0
-593 -636 -677 751 0
-593 -636 -678 751 0
-593 -636 -679 751 0
-593 -636 -680 751 0
-593 -636 -681 751 0
-593 -636 -682 751 0
-593 -636 -683 751 0
-593 -636 -684 751 0
-593 -636 -685 751 0
-593 -636 -686 751 0
-593 -636 -687 751 0
-593 -636 -688 751 0
-593 -636 -689 751 0
-593 -636 -690 751 0
-593 -636 -691 751 0
-593 -636 -692 751 0
-593 -636 -693 751 0
-593 -636 -694 751 0
-593 -636 -695 751 0
-593 -636 -696 751 0
-593 -636 -697 751 0
-593 -636 -698 751 0
-593 -636 -699 751 0
-593 -637 -674 751 0
-593 -637 -675 751 0
-593 -637 -676 751 0
-593 -637 -677 751 0
-593 -637 -678 751 0
-593 -637 -679 751 0
-593 -637 -680 751 0
-593 -637 -681 751 0
-593 -637 -682 751 0
-593 -637 -683 751 0
-593 -637 -684 751 0
-593 -637 -685 751 0
-593 -637 -686 751 0
-593 -637 -687 751 0
-593 -637 -688 751 0
-593 -637 -689 751 0
-593 -637 -690 751 0
-593 -637 -691 751 0
-593 -637 -692 751 0
-593 -637 -693 751 0
-593 -637 -694 751 0
-593 -637 -695 751 0
-593 -637 -696 751 0
-593 -637 -697 751 0
-593 -637 -698 751 0
-593 -637 -699 751 0
-593 -638 -674 751 0
-593 -638 -675 751 0
-593 -638 -676 751 0
-593 -638 -677 751 0
-593 -638 -678 751 0
-593 -638 -679 751 0
-593 -638 -680 751 0
-593 -638 -681 751 0
-593 -638 -682 751 0
-593 -638 -683 751 0
-593 -638 -684 751 0
-593 -638 -685 751 0
-593 -638 -686 751 0
-593 -638 -687 751 0
-593 -638 -688 751 0
-593 -638 -689 751 0
-593 -638 -690 751 0
-593 -638 -691 751 0
-593 -638 -692 751 0
-593 -638 -693 751 0
-593 -638 -694 751 0
-593 -638 -695 751 0
-593 -638 -696 751 0
-593 -638 -697 751 0
-593 -638 -698 751 0
-593 -638 -699 751 0
-593 -639 -674 751 0
-593 -639 -675 751 0
-593 -639 -676 751 0
-593 -639 -677 751 0
-593 -639 -678 751 0
-593 -639 -679 751 0
-593 -639 -680 751 0
-593 -639 -681 751 0
-593 -639 -682 751 0
-593 -639 -683 751 0
-593 -639 -684 751 0
-593 -639 -685 751 0
-593 -639 -686 751 0
-593 -639 -687 751 0
-593 -639 -688 751 0
-593 -639 -689 751 0
-593 -639 -690 751 0
-593 -639 -691 751 0
-593 -639 -692 751 0
-593 -639 -693 751 0
-593 -639 -694 751 0
-593 -639 -695 751 0
-593 -639 -696 751 0
-593 -639 -697 751 0
-593 -639 -698 751 0
-593 -639 -699 751 0
-593 -640 -674 751 0
-593 -640 -675 751 0
-593 -640 -676 751 0
-593 -640 -677 751 0
-593 -640 -678 751 0
-593 -640 -679 751 0
-593 -640 -680 751 0
-593 -640 -681 751 0
-593 -640 -682 751 0
-593 -640 -683 751 0
-593 -640 -684 751 0
-593 -640 -685 751 0
-593 -640 -686 751 0
-593 -640 -687 751 0
-593 -640 -688 751 0
-593 -640 -689 751 0
-593 -640 -690 751 0
-593 -640 -691 751 0
-593 -640 -692 751 0
-593 -640 -693 751 0
-593 -640 -694 751 0
-593 -640 -695 751 0
-593 -640 -696 751 0
-593 -640 -697 751 0
-593 -640 -698 751 0
-593 -640 -699 751 0
-593 -641 -674 751 0
-593 -641 -675 751 0
-593 -641 -676 751 0
-593 -641 -677 751 0
-593 -641 -678 751 0
-593 -641 -679 751 0
-593 -641 -680 751 0
-593 -641 -681 751 0
-593 -641 -682 751 0
-593 -641 -683 751 0
-593 -641 -684 751 0
-593 -641 -685 751 0
-593 -641 -686 751 0
-593 -641 -687 751 0
-593 -641 -688 751 0
-593 -641 -689 751 0
-593 -641 -690 751 0
-593 -641 -691 751 0
-593 -641 -692 751 0
-593 -641 -693 751 0
-593 -641 -694 751 0
-593 -641 -695 751 0
-593 -641 -696 751 0
-593 -641 -697 751 0
-593 -641 -698 751 0
-593 -641 -699 751 0
-593 -642 -674 751 0
-593 -642 -675 751 0
-593 -642 -676 751 0
-593 -642 -677 751 0
-593 -642 -678 751 0
-593 -642 -679 751 0
-593 -642 -680 751 0
-593 -642 -681 751 0
-593 -642 -682 751 0
-593 -642 -683 751 0
-593 -642 -684 751 0
-593 -642 -685 751 0
-593 -642 -686 751 0
-593 -642 -687 751 0
-593 -642 -688 751 0
-593 -642 -689 751 0
-593 -642 -690 751 0
-593 -642 -691 751 0
-593 -642 -692 751 0
-593 -642 -693 751 0
-593 -642 -694 751 0
-593 -642 -695 751 0
-593 -642 -696 751 0
-593 -642 -697 751 0
-593 -642 -698 751 0
-593 -642 -699 751 0
-593 -643 -674 751 0
-593 -643 -675 751 0
-593 -643 -676 751 0
-593 -643 -677 751 0
-593 -643 -678 751 0
-593 -643 -679 751 0
-593 -643 -680 751 0
-593 -643 -681 751 0
-593 -643 -682 751 0
-593 -643 -683 751 0
-593 -643 -684 751 0
-593 -643 -685 751 0
-593 -643 -686 751 0
-593 -643 -687 751 0
-593 -643 -688 751 0
-593 -643 -689 751 0
-593 -643 -690 751 0
-593 -643 -691 751 0
-593 -643 -692 751 0
-593 -643 -693 751 0
-593 -643 -694 751 0
-593 -643 -695 751 0
-593 -643 -696 751 0
-593 -643 -697 751 0
-593 -643 -698 751 0
-593 -643 -699 751 0
-593 -644 -674 751 0
-593 -644 -675 751 0
-593 -644 -676 751 0
-593 -644 -677 751 0
-593 -644 -678 751 0
-593 -644 -679 751 0
-593 -644 -680 751 0
-593 -644 -681 751 0
-593 -644 -682 751 0
-593 -644 -683 751 0
-593 -644 -684 751 0
-593 -644 -685 751 0
-593 -644 -686 751 0
-593 -644 -687 751 0
-593 -644 -688 751 0
-593 -644 -689 751 0
-593 -644 -690 751 0
-593 -644 -691 751 0
-593 -644 -692 751 0
-593 -644 -693 751 0
-593 -644 -694 751 0
-593 -644 -695 751 0
-593 -644 -696 751 0
-593 -644 -697 751 0
-593 -644 -698 751 0
-593 -644 -699 751 0
-593 -645 -674 751 0
-593 -645 -675 751 0
-593 -645 -676 751 0
-593 -645 -677 751 0
-593 -645 -678 751 0
-593 -645 -679 751 0
-593 -645 -680 751 0
-593 -645 -681 751 0
-593 -645 -682 751 0
-593 -645 -683 751 0
-593 -645 -684 751 0
-593 -645 -685 751 0
-593 -645 -686 751 0
-593 -645 -687 751 0
-593 -645 -688 751 0
-593 -645 -689 751 0
-593 -645 -690 751 0
-593 -645 -691 751 0
-593 -645 -692 751 0
-593 -645 -693 751 0
-593 -645 -694 751 0
-593 -645 -695 751 0
-593 -645 -696 751 0
-593 -645 -697 751 0
-593 -645 -698 751 0
-593 -645 -699 751 0
-593 -646 -674 751 0
-593 -646 -675 751 0
-593 -646 -676 751 0
-593 -646 -677 751 0
-593 -646 -678 751 0
-593 -646 -679 751 0
-593 -646 -680 751 0
-593 -646 -681 751 0
-593 -646 -682 751 0
-593 -646 -683 751 0
-593 -646 -684 751 0
-593 -646 -685 751 0
-593 -646 -686 751 0
-593 -646 -687 751 0
-593 -646 -688 751 0
-593 -646 -689 751 0
-593 -646 -690 751 0
-593 -646 -691 751 0
-593 -646 -692 751 0
-593 -646 -693 751 0
-593 -646 -694 751 0
-593 -646 -695 751 0
-593 -646 -696 751 0
-593 -646 -697 751 0
-593 -646 -698 751 0
-593 -646 -699 751 0
-593 -647 -674 751 0
-593 -647 -675 751 0
-593 -647 -676 751 0
-593 -647 -677 751 0
-593 -647 -678 751 0
-593 -647 -679 751 0
-593 -647 -680 751 0
-593 -647 -681 751 0
-593 -647 -682 751 0
-593 -647 -683 751 0
-593 -647 -684 751 0
-593 -647 -685 751 0
-593 -647 -686 751 0
-593 -647 -687 751 0
-593 -647 -688 751 0
-593 -647 -689 751 0
-593 -647 -690 751 0
-593 -647 -691 751 0
-593 -647 -692 751 0
-593 -647 -693 751 0
-593 -647 -694 751 0
-593 -647 -695 751 0
-593 -647 -696 751 0
-593 -647 -697 751 0
-593 -647 -698 751 0
-593 -647 -699 751 0
-594 -622 -674 751 0
-594 -622 -675 751 0
-594 -622 -676 751 0
-594 -622 -677 751 0
-594 -622 -678 751 0
-594 -622 -679 751 0
-594 -622 -680 751 0
-594 -622 -681 751 0
-594 -622 -682 751 0
-594 -622 -683 751 0
-594 -622 -684 751 0
-594 -622 -685 751 0
-594 -622 -686 751 0
-594 -622 -687 751 0
-594 -622 -688 751 0
-594 -622 -689 751 0
-594 -622 -690 751 0
-594 -622 -691 751 0
-594 -622 -692 751 0
-594 -622 -693 751 0
-594 -622 -694 751 0
-594 -622 -695 751 0
-594 -622 -696 751 0
-594 -622 -697 751 0
-594 -622 -698 751 0
-594 -622 -699 751 0
-594 -623 -674 751 0
-594 -623 -675 751 0
-594 -623 -676 751 0
-594 -623 -677 751 0
-594 -623 -678 751 0
-594 -623 -679 751 0
-594 -623 -680 751 0
-594 -623 -681 751 0
-594 -623 -682 751 0
-594 -623 -683 751 0
-594 -623 -684 751 0
-594 -623 -685 751 0
-594 -623 -686 751 0
-594 -623 -687 751 0
-594 -623 -688 751 0
-594 -623 -689 751 0
-594 -623 -690 751 0
-594 -623 -691 751 0
-594 -623 -692 751 0
-594 -623 -693 751 0
-594 -623 -694 751 0
-594 -623 -695 751 0
-594 -623 -696 751 0
-594 -623 -697 751 0
-594 -623 -698 751 0
-594 -623 -699 751 0
-594 -624 -674 751 0
-594 -624 -675 751 0
-594 -624 -676 751 0
-594 -624 -677 751 0
-594 -624 -678 751 0
-594 -624 -679 751 0
-594 -624 -680 751 0
-594 -624 -681 751 0
-594 -624 -682 751 0
-594 -624 -683 751 0
-594 -624 -684 751 0
-594 -624 -685 751 0
-594 -624 -686 751 0
-594 -624 -687 751 0
-594 -624 -688 751 0
-594 -624 -689 751 0
-594 -624 -690 751 0
-594 -624 -691 751 0
-594 -624 -692 751 0
-594 -624 -693 751 0
-594 -624 -694 751 0
-594 -624 -695 751 0
-594 -624 -696 751 0
-594 -624 -697 751 0
-594 -624 -698 751 0
-594 -624 -699 751 0
-594 -625 -674 751 0
-594 -625 -675 751 0
-594 -625 -676 751 0
-594 -625 -677 751 0
-594 -625 -678 751 0
-594 -625 -679 751 0
-594 -625 -680 751 0
-594 -625 -681 751 0
-594 -625 -682 751 0
-594 -625 -683 751 0
-594 -625 -684 751 0
-594 -625 -685 751 0
-594 -625 -686 751 0
-594 -625 -687 751 0
-594 -625 -688 751 0
-594 -625 -689 751 0
-594 -625 -690 751 0
-594 -625 -691 751 0
-594 -625 -692 751 0
-594 -625 -693 751 0
-594 -625 -694 751 0
-594 -625 -695 751 0
-594 -625 -696 751 0
-594 -625 -697 751 0
-594 -625 -698 751 0
-594 -625 -699 751 0
-594 -626 -674 751 0
-594 -626 -675 751 0
-594 -626 -676 751 0
-594 -626 -677 751 0
-594 -626 -678 751 0
-594 -626 -679 751 0
-594 -626 -680 751 0
-594 -626 -681 751 0
-594 -626 -682 751 0
-594 -626 -683 751 0
-594 -626 -684 751 0
-594 -626 -685 751 0
-594 -626 -686 751 0
-594 -626 -687 751 0
-594 -626 -688 751 0
-594 -626 -689 751 0
-594 -626 -690 751 0
-594 -626 -691 751 0
-594 -626 -692 751 0
-594 -626 -693 751 0
-594 -626 -694 751 0
-594 -626 -695 751 0
-594 -626 -696 751 0
-594 -626 -697 751 0
-594 -626 -698 751 0
-594 -626 -699 751 0
-594 -627 -674 751 0
-594 -627 -675 751 0
-594 -627 -676 751 0
-594 -627 -677 751 0
-594 -627 -678 751 0
-594 -627 -679 751 0
-594 -627 -680 751 0
-594 -627 -681 751 0
-594 -627 -682 751 0
-594 -627 -683 751 0
-594 -627 -684 751 0
-594 -627 -685 751 0
-594 -627 -686 751 0
-594 -627 -687 751 0
-594 -627 -688 751 0
-594 -627 -689 751 0
-594 -627 -690 751 0
-594 -627 -691 751 0
-594 -627 -692 751 0
-594 -627 -693 751 0
-594 -627 -694 751 0
-594 -627 -695 751 0
-594 -627 -696 751 0
-594 -627 -697 751 0
-594 -627 -698 751 0
-594 -627 -699 751 0
-594 -628 -674 751 0
-594 -628 -675 751 0
-594 -628 -676 751 0
-594 -628 -677 751 0
-594 -628 -678 751 0
-594 -628 -679 751 0
-594 -628 -680 751 0
-594 -628 -681 751 0
-594 -628 -682 751 0
-594 -628 -683 751 0
-594 -628 -684 751 0
-594 -628 -685 751 0
-594 -628 -686 751 0
-594 -628 -687 751 0
-594 -628 -688 751 0
-594 -628 -689 751 0
-594 -628 -690 751 0
-594 -628 -691 751 0
-594 -628 -692 751 0
-594 -628 -693 751 0
-594 -628 -694 751 0
-594 -628 -695 751 0
-594 -628 -696 751 0
-594 -628 -697 751 0
-594 -628 -698 751 0
-594 -628 -699 751 0
-594 -629 -674 751 0
-594 -629 -675 751 0
-594 -629 -676 751 0
-594 -629 -677 751 0
-594 -629 -678 751 0
-594 -629 -679 751 0
-594 -629 -680 751 0
-594 -629 -681 751 0
-594 -629 -682 751 0
-594 -629 -683 751 0
-594 -629 -684 751 0
-594 -629 -685 751 0
-594 -629 -686 751 0
-594 -629 -687 751 0
-594 -629 -688 751 0
-594 -629 -689 751 0
-594 -629 -690 751 0
-594 -629 -691 751 0
-594 -629 -692 751 0
-594 -629 -693 751 0
-594 -629 -694 751 0
-594 -629 -695 751 0
-594 -629 -696 751 0
-594 -629 -697 751 0
-594 -629 -698 751 0
-594 -629 -699 751 0
-594 -630 -674 751 0
-594 -630 -675 751 0
-594 -630 -676 751 0
-594 -630 -677 751 0
-594 -630 -678 751 0
-594 -630 -679 751 0
-594 -630 -680 751 0
-594 -630 -681 751 0
-594 -630 -682 751 0
-594 -630 -683 751 0
-594 -630 -684 751 0
-594 -630 -685 751 0
-594 -630 -686 751 0
-594 -630 -687 751 0
-594 -630 -688 751 0
-594 -630 -689 751 0
-594 -630 -690 751 0
-594 -630 -691 751 0
-594 -630 -692 751 0
-594 -630 -693 751 0
-594 -630 -694 751 0
-594 -630 -695 751 0
-594 -630 -696 751 0
-594 -630 -697 751 0
-594 -630 -698 751 0
-594 -630 -699 751 0
-594 -631 -674 751 0
-594 -631 -675 751 0
-594 -631 -676 751 0
-594 -631 -677 751 0
-594 -631 -678 751 0
-594 -631 -679 751 0
-594 -631 -680 751 0
-594 -631 -681 751 0
-594 -631 -682 751 0
-594 -631 -683 751 0
-594 -631 -684 751 0
-594 -631 -685 751 0
-594 -631 -686 751 0
-594 -631 -687 751 0
-594 -631 -688 751 0
-594 -631 -689 751 0
-594 -631 -690 751 0
-594 -631 -691 751 0
-594 -631 -692 751 0
-594 -631 -693 751 0
-594 -631 -694 751 0
-594 -631 -695 751 0
-594 -631 -696 751 0
-594 -631 -697 751 0
-594 -631 -698 751 0
-594 -631 -699 751 0
-594 -632 -674 751 0
-594 -632 -675 751 0
-594 -632 -676 751 0
-594 -632 -677 751 0
-594 -632 -678 751 0
-594 -632 -679 751 0
-594 -632 -680 751 0
-594 -632 -681 751 0
-594 -632 -682 751 0
-594 -632 -683 751 0
-594 -632 -684 751 0
-594 -632 -685 751 0
-594 -632 -686 751 0
-594 -632 -687 751 0
-594 -632 -688 751 0
-594 -632 -689 751 0
-594 -632 -690 751 0
-594 -632 -691 751 0
-594 -632 -692 751 0
-594 -632 -693 751 0
-594 -632 -694 751 0
-594 -632 -695 751 0
-594 -632 -696 751 0
-594 -632 -697 751 0
-594 -632 -698 751 0
-594 -632 -699 751 0
-594 -633 -674 751 0
-594 -633 -675 751 0
-594 -633 -676 751 0
-594 -633 -677 751 0
-594 -633 -678 751 0
-594 -633 -679 751 0
-594 -633 -680 751 0
-594 -633 -681 751 0
-594 -633 -682 751 0
-594 -633 -683 751 0
-594 -633 -684 751 0
-594 -633 -685 751 0
-594 -633 -686 751 0
-594 -633 -687 751 0
-594 -633 -688 751 0
-594 -633 -689 751 0
-594 -633 -690 751 0
-594 -633 -691 751 0
-594 -633 -692 751 0
-594 -633 -693 751 0
-594 -633 -694 751 0
-594 -633 -695 751 0
-594 -633 -696 751 0
-594 -633 -697 751 0
-594 -633 -698 751 0
-594 -633 -699 751 0
-594 -634 -674 751 0
-594 -634 -675 751 0
-594 -634 -676 751 0
-594 -634 -677 751 0
-594 -634 -678 751 0
-594 -634 -679 751 0
-594 -634 -680 751 0
-594 -634 -681 751 0
-594 -634 -682 751 0
-594 -634 -683 751 0
-594 -634 -684 751 0
-594 -634 -685 751 0
-594 -634 -686 751 0
-594 -634 -687 751 0
-594 -634 -688 751 0
-594 -634 -689 751 0
-594 -634 -690 751 0
-594 -634 -691 751 0
-594 -634 -692 751 0
-594 -634 -693 751 0
-594 -634 -694 751 0
-594 -634 -695 751 0
-594 -634 -696 751 0
-594 -634 -697 751 0
-594 -634 -698 751 0
-594 -634 -699 751 0
-594 -635 -674 751 0
-594 -635 -675 751 0
-594 -635 -676 751 0
-594 -635 -677 751 0
-594 -635 -678 751 0
-594 -635 -679 751 0
-594 -635 -680 751 0
-594 -635 -681 751 0
-594 -635 -682 751 0
-594 -635 -683 751 0
-594 -635 -684 751 0
-594 -635 -685 751 0
-594 -635 -686 751 0
-594 -635 -687 751 0
-594 -635 -688 751 0
-594 -635 -689 751 0
-594 -635 -690 751 0
-594 -635 -691 751 0
-594 -635 -692 751 0
-594 -635 -693 751 0
-594 -635 -694 751 0
-594 -635 -695 751 0
-594 -635 -696 751 0
-594 -635 -697 751 0
-594 -635 -698 751 0
-594 -635 -699 751 0
-594 -636 -674 751 0
-594 -636 -675 751 0
-594 -636 -676 751 0
-594 -636 -677 751 0
-594 -636 -678 751 0
-594 -636 -679 751 0
-594 -636 -680 751 0
-594 -636 -681 751 0
-594 -636 -682 751 0
-594 -636 -683 751 0
-594 -636 -684 751 0
-594 -636 -685 751 0
-594 -636 -686 751 0
-594 -636 -687 751 0
-594 -636 -688 751 0
-594 -636 -689 751 0
-594 -636 -690 751 0
-594 -636 -691 751 0
-594 -636 -692 751 0
-594 -636 -693 751 0
-594 -636 -694 751 0
-594 -636 -695 751 0
-594 -636 -696 751 0
-594 -636 -697 751 0
-594 -636 -698 751 0
-594 -636 -699 751 0
-594 -637 -674 751 0
-594 -637 -675 751 0
-594 -637 -676 751 0
-594 -637 -677 751 0
-594 -637 -678 751 0
-594 -637 -679 751 0
-594 -637 -680 751 0
-594 -637 -681 751 0
-594 -637 -682 751 0
-594 -637 -683 751 0
-594 -637 -684 751 0
-594 -637 -685 751 0
-594 -637 -686 751 0
-594 -637 -687 751 0
-594 -637 -688 751 0
-594 -637 -689 751 0
-594 -637 -690 751 0
-594 -637 -691 751 0
-594 -637 -692 751 0
-594 -637 -693 751 0
-594 -637 -694 751 0
-594 -637 -695 751 0
-594 -637 -696 751 0
-594 -637 -697 751 0
-594 -637 -698 751 0
-594 -637 -699 751 0
-594 -638 -674 751 0
-594 -638 -675 751 0
-594 -638 -676 751 0
-594 -638 -677 751 0
-594 -638 -678 751 0
-594 -638 -679 751 0
-594 -638 -680 751 0
-594 -638 -681 751 0
-594 -638 -682 751 0
-594 -638 -683 751 0
-594 -638 -684 751 0
-594 -638 -685 751 0
-594 -638 -686 751 0
-594 -638 -687 751 0
-594 -638 -688 751 0
-594 -638 -689 751 0
-594 -638 -690 751 0
-594 -638 -691 751 0
-594 -638 -692 751 0
-594 -638 -693 751 0
-594 -638 -694 751 0
-594 -638 -695 751 0
-594 -638 -696 751 0
-594 -638 -697 751 0
-594 -638 -698 751 0
-594 -638 -699 751 0
-594 -639 -674 751 0
-594 -639 -675 751 0
-594 -639 -676 751 0
-594 -639 -677 751 0
-594 -639 -678 751 0
-594 -639 -679 751 0
-594 -639 -680 751 0
-594 -639 -681 751 0
-594 -639 -682 751 0
-594 -639 -683 751 0
-594 -639 -684 751 0
-594 -639 -685 751 0
-594 -639 -686 751 0
-594 -639 -687 751 0
-594 -639 -688 751 0
-594 -639 -689 751 0
-594 -639 -690 751 0
-594 -639 -691 751 0
-594 -639 -692 751 0
-594 -639 -693 751 0
-594 -639 -694 751 0
-594 -639 -695 751 0
-594 -639 -696 751 0
-594 -639 -697 751 0
-594 -639 -698 751 0
-594 -639 -699 751 0
-594 -640 -674 751 0
-594 -640 -675 751 0
-594 -640 -676 751 0
-594 -640 -677 751 0
-594 -640 -678 751 0
-594 -640 -679 751 0
-594 -640 -680 751 0
-594 -640 -681 751 0
-594 -640 -682 751 0
-594 -640 -683 751 0
-594 -640 -684 751 0
-594 -640 -685 751 0
-594 -640 -686 751 0
-594 -640 -687 751 0
-594 -640 -688 751 0
-594 -640 -689 751 0
-594 -640 -690 751 0
-594 -640 -691 751 0
-594 -640 -692 751 0
-594 -640 -693 751 0
-594 -640 -694 751 0
-594 -640 -695 751 0
-594 -640 -696 751 0
-594 -640 -697 751 0
-594 -640 -698 751 0
-594 -640 -699 751 0
-594 -641 -674 751 0
-594 -641 -675 751 0
-594 -641 -676 751 0
-594 -641 -677 751 0
-594 -641 -678 751 0
-594 -641 -679 751 0
-594 -641 -680 751 0
-594 -641 -681 751 0
-594 -641 -682 751 0
-594 -641 -683 751 0
-594 -641 -684 751 0
-594 -641 -685 751 0
-594 -641 -686 751 0
-594 -641 -687 751 0
-594 -641 -688 751 0
-594 -641 -689 751 0
-594 -641 -690 751 0
-594 -641 -691 751 0
-594 -641 -692 751 0
-594 -641 -693 751 0
-594 -641 -694 751 0
-594 -641 -695 751 0
-594 -641 -696 751 0
-594 -641 -697 751 0
-594 -641 -698 751 0
-594 -641 -699 751 0
-594 -642 -674 751 0
-594 -642 -675 751 0
-594 -642 -676 751 0
-594 -642 -677 751 0
-594 -642 -678 751 0
-594 -642 -679 751 0
-594 -642 -680 751 0
-594 -642 -681 751 0
-594 -642 -682 751 0
-594 -642 -683 751 0
-594 -642 -684 751 0
-594 -642 -685 751 0
-594 -642 -686 751 0
-594 -642 -687 751 0
-594 -642 -688 751 0
-594 -642 -689 751 0
-594 -642 -690 751 0
-594 -642 -691 751 0
-594 -642 -692 751 0
-594 -642 -693 751 0
-594 -642 -694 751 0
-594 -642 -695 751 0
-594 -642 -696 751 0
-594 -642 -697 751 0
-594 -642 -698 751 0
-594 -642 -699 751 0
-594 -643 -674 751 0
-594 -643 -675 751 0
-594 -643 -676 751 0
-594 -643 -677 751 0
-594 -643 -678 751 0
-594 -643 -679 751 0
-594 -643 -680 751 0
-594 -643 -681 751 0
-594 -643 -682 751 0
-594 -643 -683 751 0
-594 -643 -684 751 0
-594 -643 -685 751 0
-594 -643 -686 751 0
-594 -643 -687 751 0
-594 -643 -688 751 0
-594 -643 -689 751 0
-594 -643 -690 751 0
-594 -643 -691 751 0
-594 -643 -692 751 0
-594 -643 -693 751 0
-594 -643 -694 751 0
-594 -643 -695 751 0
-594 -643 -696 751 0
-594 -643 -697 751 0
-594 -643 -698 751 0
-594 -643 -699 751 0
-594 -644 -674 751 0
-594 -644 -675 751 0
-594 -644 -676 751 0
-594 -644 -677 751 0
-594 -644 -678 751 0
-594 -644 -679 751 0
-594 -644 -680 751 0
-594 -644 -681 751 0
-594 -644 -682 751 0
-594 -644 -683 751 0
-594 -644 -684 751 0
-594 -644 -685 751 0
-594 -644 -686 751 0
-594 -644 -687 751 0
-594 -644 -688 751 0
-594 -644 -689 751 0
-594 -644 -690 751 0
-594 -644 -691 751 0
-594 -644 -692 751 0
-594 -644 -693 751 0
-594 -644 -694 751 0
-594 -644 -695 751 0
-594 -644 -696 751 0
-594 -644 -697 751 0
-594 -644 -698 751 0
-594 -644 -699 751 0
-594 -645 -674 751 0
-594 -645 -675 751 0
-594 -645 -676 751 0
-594 -645 -677 751 0
-594 -645 -678 751 0
-594 -645 -679 751 0
-594 -645 -680 751 0
-594 -645 -681 751 0
-594 -645 -682 751 0
-594 -645 -683 751 0
-594 -645 -684 751 0
-594 -645 -685 751 0
-594 -645 -686 751 0
-594 -645 -687 751 0
-594 -645 -688 751 0
-594 -645 -689 751 0
-594 -645 -690 751 0
-594 -645 -691 751 0
-594 -645 -692 751 0
-594 -645 -693 751 0
-594 -645 -694 751 0
-594 -645 -695 751 0
-594 -645 -696 751 0
-594 -645 -697 751 0
-594 -645 -698 751 0
-594 -645 -699 751 0
-594 -646 -674 751 0
-594 -646 -675 751 0
-594 -646 -676 751 0
-594 -646 -677 751 0
-594 -646 -678 751 0
-594 -646 -679 751 0
-594 -646 -680 751 0
-594 -646 -681 751 0
-594 -646 -682 751 0
-594 -646 -683 751 0
-594 -646 -684 751 0
-594 -646 -685 751 0
-594 -646 -686 751 0
-594 -646 -687 751 0
-594 -646 -688 751 0
-594 -646 -689 751 0
-594 -646 -690 751 0
-594 -646 -691 751 0
-594 -646 -692 751 0
-594 -646 -693 751 0
-594 -646 -694 751 0
-594 -646 -695 751 0
-594 -646 -696 751 0
-594 -646 -697 751 0
-594 -646 -698 751 0
-594 -646 -699 751 0
-594 -647 -674 751 0
-594 -647 -675 751 0
-594 -647 -676 751 0
-594 -647 -677 751 0
-594 -647 -678 751 0
-594 -647 -679 751 0
-594 -647 -680 751 0
-594 -647 -681 751 0
-594 -647 -682 751 0
-594 -647 -683 751 0
-594 -647 -684 751 0
-594 -647 -685 751 0
-594 -647 -686 751 0
-594 -647 -687 751 0
-594 -647 -688 751 0
-594 -647 -689 751 0
-594 -647 -690 751 0
-594 -647 -691 751 0
-594 -647 -692 751 0
-594 -647 -693 751 0
-594 -647 -694 751 0
-594 -647 -695 751 0
-594 -647 -696 751 0
-594 -647 -697 751 0
-594 -647 -698 751 0
-594 -647 -699 751 0
-595 -622 -674 751 0
-595 -622 -675 751 0
-595 -622 -676 751 0
-595 -622 -677 751 0
-595 -622 -678 751 0
-595 -622 -679 751 0
-595 -622 -680 751 0
-595 -622 -681 751 0
-595 -622 -682 751 0
-595 -622 -683 751 0
-595 -622 -684 751 0
-595 -622 -685 751 0
-595 -622 -686 751 0
-595 -622 -687 751 0
-595 -622 -688 751 0
-595 -622 -689 751 0
-595 -622 -690 751 0
-595 -622 -691 751 0
-595 -622 -692 751 0
-595 -622 -693 751 0
-595 -622 -694 751 0
-595 -622 -695 751 0
-595 -622 -696 751 0
-595 -622 -697 751 0
-595 -622 -698 751 0
-595 -622 -699 751 0
-595 -623 -674 751 0
-595 -623 -675 751 0
-595 -623 -676 751 0
-595 -623 -677 751 0
-595 -623 -678 751 0
-595 -623 -679 751 0
-595 -623 -680 751 0
-595 -623 -681 751 0
-595 -623 -682 751 0
-595 -623 -683 751 0
-595 -623 -684 751 0
-595 -623 -685 751 0
-595 -623 -686 751 0
-595 -623 -687 751 0
-595 -623 -688 751 0
-595 -623 -689 751 0
-595 -623 -690 751 0
-595 -623 -691 751 0
-595 -623 -692 751 0
-595 -623 -693 751 0
-595 -623 -694 751 0
-595 -623 -695 751 0
-595 -623 -696 751 0
-595 -623 -697 751 0
-595 -623 -698 751 0
-595 -623 -699 751 0
-595 -624 -674 751 0
-595 -624 -675 751 0
-595 -624 -676 751 0
-595 -624 -677 751 0
-595 -624 -678 751 0
-595 -624 -679 751 0
-595 -624 -680 751 0
-595 -624 -681 751 0
-595 -624 -682 751 0
-595 -624 -683 751 0
-595 -624 -684 751 0
-595 -624 -685 751 0
-595 -624 -686 751 0
-595 -624 -687 751 0
-595 -624 -688 751 0
-595 -624 -689 751 0
-595 -624 -690 751 0
-595 -624 -691 751 0
-595 -624 -692 751 0
-595 -624 -693 751 0
-595 -624 -694 751 0
-595 -624 -695 751 0
-595 -624 -696 751 0
-595 -624 -697 751 0
-595 -624 -698 751 0
-595 -624 -699 751 0
-595 -625 -674 751 0
-595 -625 -675 751 0
-595 -625 -676 751 0
-595 -625 -677 751 0
-595 -625 -678 751 0
-595 -625 -679 751 0
-595 -625 -680 751 0
-595 -625 -681 751 0
-595 -625 -682 751 0
-595 -625 -683 751 0
-595 -625 -684 751 0
-595 -625 -685 751 0
-595 -625 -686 751 0
-595 -625 -687 751 0
-595 -625 -688 751 0
-595 -625 -689 751 0
-595 -625 -690 751 0
-595 -625 -691 751 0
-595 -625 -692 751 0
-595 -625 -693 751 0
-595 -625 -694 751 0
-595 -625 -695 751 0
-595 -625 -696 751 0
-595 -625 -697 751 0
-595 -625 -698 751 0
-595 -625 -699 751 0
-595 -626 -674 751 0
-595 -626 -675 751 0
-595 -626 -676 751 0
-595 -626 -677 751 0
-595 -626 -678 751 0
-595 -626 -679 751 0
-595 -626 -680 751 0
-595 -626 -681 751 0
-595 -626 -682 751 0
-595 -626 -683 751 0
-595 -626 -684 751 0
-595 -626 -685 751 0
-595 -626 -686 751 0
-595 -626 -687 751 0
-595 -626 -688 751 0
-595 -626 -689 751 0
-595 -626 -690 751 0
-595 -626 -691 751 0
-595 -626 -692 751 0
-595 -626 -693 751 0
-595 -626 -694 751 0
-595 -626 -695 751 0
-595 -626 -696 751 0
-595 -626 -697 751 0
-595 -626 -698 751 0
-595 -626 -699 751 0
-595 -627 -674 751 0
-595 -627 -675 751 0
-595 -627 -676 751 0
-595 -627 -677 751 0
-595 -627 -678 751 0
-595 -627 -679 751 0
-595 -627 -680 751 0
-595 -627 -681 751 0
-595 -627 -682 751 0
-595 -627 -683 751 0
-595 -627 -684 751 0
-595 -627 -685 751 0
-595 -627 -686 751 0
-595 -627 -687 751 0
-595 -627 -688 751 0
-595 -627 -689 751 0
-595 -627 -690 751 0
-595 -627 -691 751 0
-595 -627 -692 751 0
-595 -627 -693 751 0
-595 -627 -694 751 0
-595 -627 -695 751 0
-595 -627 -696 751 0
-595 -627 -697 751 0
-595 -627 -698 751 0
-595 -627 -699 751 0
-595 -628 -674 751 0
-595 -628 -675 751 0
-595 -628 -676 751 0
-595 -628 -677 751 0
-595 -628 -678 751 0
-595 -628 -679 751 0
-595 -628 -680 751 0
-595 -628 -681 751 0
-595 -628 -682 751 0
-595 -628 -683 751 0
-595 -628 -684 751 0
-595 -628 -685 751 0
-595 -628 -686 751 0
-595 -628 -687 751 0
-595 -628 -688 751 0
-595 -628 -689 751 0
-595 -628 -690 751 0
-595 -628 -691 751 0
-595 -628 -692 751 0
-595 -628 -693 751 0
-595 -628 -694 751 0
-595 -628 -695 751 0
-595 -628 -696 751 0
-595 -628 -697 751 0
-595 -628 -698 751 0
-595 -628 -699 751 0
-595 -629 -674 751 0
-595 -629 -675 751 0
-595 -629 -676 751 0
-595 -629 -677 751 0
-595 -629 -678 751 0
-595 -629 -679 751 0
-595 -629 -680 751 0
-595 -629 -681 751 0
-595 -629 -682 751 0
-595 -629 -683 751 0
-595 -629 -684 751 0
-595 -629 -685 751 0
-595 -629 -686 751 0
-595 -629 -687 751 0
-595 -629 -688 751 0
-595 -629 -689 751 0
-595 -629 -690 751 0
-595 -629 -691 751 0
-595 -629 -692 751 0
-595 -629 -693 751 0
-595 -629 -694 751 0
-595 -629 -695 751 0
-595 -629 -696 751 0
-595 -629 -697 751 0
-595 -629 -698 751 0
-595 -629 -699 751 0
-595 -630 -674 751 0
-595 -630 -675 751 0
-595 -630 -676 751 0
-595 -630 -677 751 0
-595 -630 -678 751 0
-595 -630 -679 751 0
-595 -630 -680 751 0
-595 -630 -681 751 0
-595 -630 -682 751 0
-595 -630 -683 751 0
-595 -630 -684 751 0
-595 -630 -685 751 0
-595 -630 -686 751 0
-595 -630 -687 751 0
-595 -630 -688 751 0
-595 -630 -689 751 0
-595 -630 -690 751 0
-595 -630 -691 751 0
-595 -630 -692 751 0
-595 -630 -693 751 0
-595 -630 -694 751 0
-595 -630 -695 751 0
-595 -630 -696 751 0
-595 -630 -697 751 0
-595 -630 -698 751 0
-595 -630 -699 751 0
-595 -631 -674 751 0
-595 -631 -675 751 0
-595 -631 -676 751 0
-595 -631 -677 751 0
-595 -631 -678 751 0
-595 -631 -679 751 0
-595 -631 -680 751 0
-595 -631 -681 751 0
-595 -631 -682 751 0
-595 -631 -683 751 0
-595 -631 -684 751 0
-595 -631 -685 751 0
-595 -631 -686 751 0
-595 -631 -687 751 0
-595 -631 -688 751 0
-595 -631 -689 751 0
-595 -631 -690 751 0
-595 -631 -691 751 0
-595 -631 -692 751 0
-595 -631 -693 751 0
-595 -631 -694 751 0
-595 -631 -695 751 0
-595 -631 -696 751 0
-595 -631 -697 751 0
-595 -631 -698 751 0
-595 -631 -699 751 0
-595 -632 -674 751 0
-595 -632 -675 751 0
-595 -632 -676 751 0
-595 -632 -677 751 0
-595 -632 -678 751 0
-595 -632 -679 751 0
-595 -632 -680 751 0
-595 -632 -681 751 0
-595 -632 -682 751 0
-595 -632 -683 751 0
-595 -632 -684 751 0
-595 -632 -685 751 0
-595 -632 -686 751 0
-595 -632 -687 751 0
-595 -632 -688 751 0
-595 -632 -689 751 0
-595 -632 -690 751 0
-595 -632 -691 751 0
-595 -632 -692 751 0
-595 -632 -693 751 0
-595 -632 -694 751 0
-595 -632 -695 751 0
-595 -632 -696 751 0
-595 -632 -697 751 0
-595 -632 -698 751 0
-595 -632 -699 751 0
-595 -633 -674 751 0
-595 -633 -675 751 0
-595 -633 -676 751 0
-595 -633 -677 751 0
-595 -633 -678 751 0
-595 -633 -679 751 0
-595 -633 -680 751 0
-595 -633 -681 751 0
-595 -633 -682 751 0
-595 -633 -683 751 0
-595 -633 -684 751 0
-595 -633 -685 751 0
-595 -633 -686 751 0
-595 -633 -687 751 0
-595 -633 -688 751 0
-595 -633 -689 751 0
-595 -633 -690 751 0
-595 -633 -691 751 0
-595 -633 -692 751 0
-595 -633 -693 751 0
-595 -633 -694 751 0
-595 -633 -695 751 0
-595 -633 -696 751 0
-595 -633 -697 751 0
-595 -633 -698 751 0
-595 -633 -699 751 0
-595 -634 -674 751 0
-595 -634 -675 751 0
-595 -634 -676 751 0
-595 -634 -677 751 0
-595 -634 -678 751 0
-595 -634 -679 751 0
-595 -634 -680 751 0
-595 -634 -681 751 0
-595 -634 -682 751 0
-595 -634 -683 751 0
-595 -634 -684 751 0
-595 -634 -685 751 0
-595 -634 -686 751 0
-595 -634 -687 751 0
-595 -634 -688 751 0
-595 -634 -689 751 0
-595 -634 -690 751 0
-595 -634 -691 751 0
-595 -634 -692 751 0
-595 -634 -693 751 0
-595 -634 -694 751 0
-595 -634 -695 751 0
-595 -634 -696 751 0
-595 -634 -697 751 0
-595 -634 -698 751 0
-595 -634 -699 751 0
-595 -635 -674 751 0
-595 -635 -675 751 0
-595 -635 -676 751 0
-595 -635 -677 751 0
-595 -635 -678 751 0
-595 -635 -679 751 0
-595 -635 -680 751 0
-595 -635 -681 751 0
-595 -635 -682 751 0
-595 -635 -683 751 0
-595 -635 -684 751 0
-595 -635 -685 751 0
-595 -635 -686 751 0
-595 -635 -687 751 0
-595 -635 -688 751 0
-595 -635 -689 751 0
-595 -635 -690 751 0
-595 -635 -691 751 0
-595 -635 -692 751 0
-595 -635 -693 751 0
-595 -635 -694 751 0
-595 -635 -695 751 0
-595 -635 -696 751 0
-595 -635 -697 751 0
-595 -635 -698 751 0
-595 -635 -699 751 0
-595 -636 -674 751 0
-595 -636 -675 751 0
-595 -636 -676 751 0
-595 -636 -677 751 0
-595 -636 -678 751 0
-595 -636 -679 751 0
-595 -636 -680 751 0
-595 -636 -681 751 0
-595 -636 -682 751 0
-595 -636 -683 751 0
-595 -636 -684 751 0
-595 -636 -685 751 0
-595 -636 -686 751 0
-595 -636 -687 751 0
-595 -636 -688 751 0
-595 -636 -689 751 0
-595 -636 -690 751 0
-595 -636 -691 751 0
-595 -636 -692 751 0
-595 -636 -693 751 0
-595 -636 -694 751 0
-595 -636 -695 751 0
-595 -636 -696 751 0
-595 -636 -697 751 0
-595 -636 -698 751 0
-595 -636 -699 751 0
-595 -637 -674 751 0
-595 -637 -675 751 0
-595 -637 -676 751 0
-595 -637 -677 751 0
-595 -637 -678 751 0
-595 -637 -679 751 0
-595 -637 -680 751 0
-595 -637 -681 751 0
-595 -637 -682 751 0
-595 -637 -683 751 0
-595 -637 -684 751 0
-595 -637 -685 751 0
-595 -637 -686 751 0
-595 -637 -687 751 0
-595 -637 -688 751 0
-595 -637 -689 751 0
-595 -637 -690 751 0
-595 -637 -691 751 0
-595 -637 -692 751 0
-595 -637 -693 751 0
-595 -637 -694 751 0
-595 -637 -695 751 0
-595 -637 -696 751 0
-595 -637 -697 751 0
-595 -637 -698 751 0
-595 -637 -699 751 0
-595 -638 -674 751 0
-595 -638 -675 751 0
-595 -638 -676 751 0
-595 -638 -677 751 0
-595 -638 -678 751 0
-595 -638 -679 751 0
-595 -638 -680 751 0
-595 -638 -681 751 0
-595 -638 -682 751 0
-595 -638 -683 751 0
-595 -638 -684 751 0
-595 -638 -685 751 0
-595 -638 -686 751 0
-595 -638 -687 751 0
-595 -638 -688 751 0
-595 -638 -689 751 0
-595 -638 -690 751 0
-595 -638 -691 751 0
-595 -638 -692 751 0
-595 -638 -693 751 0
-595 -638 -694 751 0
-595 -638 -695 751 0
-595 -638 -696 751 0
-595 -638 -697 751 0
-595 -638 -698 751 0
-595 -638 -699 751 0
-595 -639 -674 751 0
-595 -639 -675 751 0
-595 -639 -676 751 0
-595 -639 -677 751 0
-595 -639 -678 751 0
-595 -639 -679 751 0
-595 -639 -680 751 0
-595 -639 -681 751 0
-595 -639 -682 751 0
-595 -639 -683 751 0
-595 -639 -684 751 0
-595 -639 -685 751 0
-595 -639 -686 751 0
-595 -639 -687 751 0
-595 -639 -688 751 0
-595 -639 -689 751 0
-595 -639 -690 751 0
-595 -639 -691 751 0
-595 -639 -692 751 0
-595 -639 -693 751 0
-595 -639 -694 751 0
-595 -639 -695 751 0
-595 -639 -696 751 0
-595 -639 -697 751 0
-595 -639 -698 751 0
-595 -639 -699 751 0
-595 -640 -674 751 0
-595 -640 -675 751 0
-595 -640 -676 751 0
-595 -640 -677 751 0
-595 -640 -678 751 0
-595 -640 -679 751 0
-595 -640 -680 751 0
-595 -640 -681 751 0
-595 -640 -682 751 0
-595 -640 -683 751 0
-595 -640 -684 751 0
-595 -640 -685 751 0
-595 -640 -686 751 0
-595 -640 -687 751 0
-595 -640 -688 751 0
-595 -640 -689 751 0
-595 -640 -690 751 0
-595 -640 -691 751 0
-595 -640 -692 751 0
-595 -640 -693 751 0
-595 -640 -694 751 0
-595 -640 -695 751 0
-595 -640 -696 751 0
-595 -640 -697 751 0
-595 -640 -698 751 0
-595 -640 -699 751 0
-595 -641 -674 751 0
-595 -641 -675 751 0
-595 -641 -676 751 0
-595 -641 -677 751 0
-595 -641 -678 751 0
-595 -641 -679 751 0
-595 -641 -680 751 0
-595 -641 -681 751 0
-595 -641 -682 751 0
-595 -641 -683 751 0
-595 -641 -684 751 0
-595 -641 -685 751 0
-595 -641 -686 751 0
-595 -641 -687 751 0
-595 -641 -688 751 0
-595 -641 -689 751 0
-595 -641 -690 751 0
-595 -641 -691 751 0
-595 -641 -692 751 0
-595 -641 -693 751 0
-595 -641 -694 751 0
-595 -641 -695 751 0
-595 -641 -696 751 0
-595 -641 -697 751 0
-595 -641 -698 751 0
-595 -641 -699 751 0
-595 -642 -674 751 0
-595 -642 -675 751 0
-595 -642 -676 751 0
-595 -642 -677 751 0
-595 -642 -678 751 0
-595 -642 -679 751 0
-595 -642 -680 751 0
-595 -642 -681 751 0
-595 -642 -682 751 0
-595 -642 -683 751 0
-595 -642 -684 751 0
-595 -642 -685 751 0
-595 -642 -686 751 0
-595 -642 -687 751 0
-595 -642 -688 751 0
-595 -642 -689 751 0
-595 -642 -690 751 0
-595 -642 -691 751 0
-595 -642 -692 751 0
-595 -642 -693 751 0
-595 -642 -694 751 0
-595 -642 -695 751 0
-595 -642 -696 751 0
-595 -642 -697 751 0
-595 -642 -698 751 0
-595 -642 -699 751 0
-595 -643 -674 751 0
-595 -643 -675 751 0
-595 -643 -676 751 0
-595 -643 -677 751 0
-595 -643 -678 751 0
-595 -643 -679 751 0
-595 -643 -680 751 0
-595 -643 -681 751 0
-595 -643 -682 751 0
-595 -643 -683 751 0
-595 -643 -684 751 0
-595 -643 -685 751 0
-595 -643 -686 751 0
-595 -643 -687 751 0
-595 -643 -688 751 0
-595 -643 -689 751 0
-595 -643 -690 751 0
-595 -643 -691 751 0
-595 -643 -692 751 0
-595 -643 -693 751 0
-595 -643 -694 751 0
-595 -643 -695 751 0
-595 -643 -696 751 0
-595 -643 -697 751 0
-595 -643 -698 751 0
-595 -643 -699 751 0
-595 -644 -674 751 0
-595 -644 -675 751 0
-595 -644 -676 751 0
-595 -644 -677 751 0
-595 -644 -678 751 0
-595 -644 -679 751 0
-595 -644 -680 751 0
-595 -644 -681 751 0
-595 -644 -682 751 0
-595 -644 -683 751 0
-595 -644 -684 751 0
-595 -644 -685 751 0
-595 -644 -686 751 0
-595 -644 -687 751 0
-595 -644 -688 751 0
-595 -644 -689 751 0
-595 -644 -690 751 0
-595 -644 -691 751 0
-595 -644 -692 751 0
-595 -644 -693 751 0
-595 -644 -694 751 0
-595 -644 -695 751 0
-595 -644 -696 751 0
-595 -644 -697 751 0
-595 -644 -698 751 0
-595 -644 -699 751 0
-595 -645 -674 751 0
-595 -645 -675 751 0
-595 -645 -676 751 0
-595 -645 -677 751 0
-595 -645 -678 751 0
-595 -645 -679 751 0
-595 -645 -680 751 0
-595 -645 -681 751 0
-595 -645 -682 751 0
-595 -645 -683 751 0
-595 -645 -684 751 0
-595 -645 -685 751 0
-595 -645 -686 751 0
-595 -645 -687 751 0
-595 -645 -688 751 0
-595 -645 -689 751 0
-595 -645 -690 751 0
-595 -645 -691 751 0
-595 -645 -692 751 0
-595 -645 -693 751 0
-595 -645 -694 751 0
-595 -645 -695 751 0
-595 -645 -696 751 0
-595 -645 -697 751 0
-595 -645 -698 751 0
-595 -645 -699 751 0
-595 -646 -674 751 0
-595 -646 -675 751 0
-595 -646 -676 751 0
-595 -646 -677 751 0
-595 -646 -678 751 0
-595 -646 -679 751 0
-595 -646 -680 751 0
-595 -646 -681 751 0
-595 -646 -682 751 0
-595 -646 -683 751 0
-595 -646 -684 751 0
-595 -646 -685 751 0
-595 -646 -686 751 0
-595 -646 -687 751 0
-595 -646 -688 751 0
-595 -646 -689 751 0
-595 -646 -690 751 0
-595 -646 -691 751 0
-595 -646 -692 751 0
-595 -646 -693 751 0
-595 -646 -694 751 0
-595 -646 -695 751 0
-595 -646 -696 751 0
-595 -646 -697 751 0
-595 -646 -698 751 0
-595 -646 -699 751 0
-595 -647 -674 751 0
-595 -647 -675 751 0
-595 -647 -676 751 0
-595 -647 -677 751 0
-595 -647 -678 751 0
-595 -647 -679 751 0
-595 -647 -680 751 0
-595 -647 -681 751 0
-595 -647 -682 751 0
-595 -647 -683 751 0
-595 -647 -684 751 0
-595 -647 -685 751 0
-595 -647 -686 751 0
-595 -647 -687 751 0
-595 -647 -688 751 0
-595 -647 -689 751 0
-595 -647 -690 751 0
-595 -647 -691 751 0
-595 -647 -692 751 0
-595 -647 -693 751 0
-595 -647 -694 751 0
-595 -647 -695 751 0
-595 -647 -696 751 0
-595 -647 -697 751 0
-595 -647 -698 751 0
-595 -647 -699 751 0
-726 0
-727 0
-728 0
-729 0
-730 0
-731 0
-732 0
-733 0
-734 0
-735 0
-736 0
-737 0
-726 0
-727 0
-728 0
-729 0
-730 0
-731 0
-732 0
-733 0
-734 0
-735 0
-736 0
-737 0
-738 0
-739 0
-622 0
-623 0
-674 0
-675 0
-676 0
-570 0
-571 0
-572 0
778 779 780 0
-778 -570 0
-778 -571 0
-778 -572 0
-778 -573 0
-779 573 0
-779 -622 0
-779 -623 0
-779 -624 0
-780 573 0
-780 624 0
-780 -674 0
-780 -675 0
-780 -676 0
-780 -677 0
-60 -674 0
-63 -674 0
-66 -674 0
-69 -674 0
-72 -674 0
-60 -63 -675 0
-60 -66 -675 0
-60 -69 -675 0
-60 -72 -675 0
-63 -66 -675 0
-63 -69 -675 0
-63 -72 -675 0
-66 -69 -675 0
-66 -72 -675 0
-69 -72 -675 0
-60 -63 -66 -676 0
-60 -63 -69 -676 0
-60 -63 -72 -676 0
-60 -66 -69 -676 0
-60 -66 -72 -676 0
-60 -69 -72 -676 0
-63 -66 -69 -676 0
-63 -66 -72 -676 0
-63 -69 -72 -676 0
-66 -69 -72 -676 0
-60 -63 -66 -69 -677 0
-60 -63 -66 -72 -677 0
-60 -63 -69 -72 -677 0
-60 -66 -69 -72 -677 0
-63 -66 -69 -72 -677 0
-60 -63 -66 -69 -72 -678 0
-8 781 0
-6 782 0
-781 782 0
-6 -781 0
-4 783 0
-782 783 0
-4 -782 0
-7 784 0
-783 784 0
-7 -783 0
-3 785 0
-5 786 0
-785 786 0
-5 -785 0
-1 787 0
-786 787 0
-1 -786 0
-2 788 0
-787 788 0
-2 -787 0
-12 789 0
-10 790 0
-789 790 0
-10 -789 0
-9 791 0
-790 791 0
-9 -790 0
-11 792 0
-791 792 0
-11 -791 0
-13 793 0
-14 794 0
-793 794 0
-14 -793 0
-8 795 0
-12 796 0
-795 796 0
-12 -795 0
-31 797 0
-35 798 0
-797 798 0
-35 -797 0
-19 799 0
-798 799 0
-19 -798 0
-24 800 0
-799 800 0
-24 -799 0
-6 801 0
-10 802 0
-801 802 0
-10 -801 0
-29 803 0
-33 804 0
-803 804 0
-33 -803 0
-17 805 0
-804 805 0
-17 -804 0
-22 806 0
-805 806 0
-22 -805 0
-4 807 0
-9 808 0
-807 808 0
-9 -807 0
-28 809 0
-32 810 0
-809 810 0
-32 -809 0
-16 811 0
-810 811 0
-16 -810 0
-21 812 0
-811 812 0
-21 -811 0
-7 813 0
-11 814 0
-813 814 0
-11 -813 0
-30 815 0
-34 816 0
-815 816 0
-34 -815 0
-18 817 0
-816 817 0
-18 -816 0
-23 818 0
-817 818 0
-23 -817 0
-27 819 0
-25 820 0
-819 820 0
-25 -819 0
-26 821 0
-820 821 0
-26 -820 0
-15 822 0
-20 823 0
-822 823 0
-20 -822 0
-31 824 0
-29 825 0
-824 825 0
-29 -824 0
-28 826 0
-825 826 0
-28 -825 0
-30 827 0
-826 827 0
-30 -826 0
-35 828 0
-33 829 0
-828 829 0
-33 -828 0
-32 830 0
-829 830 0
-32 -829 0
-34 831 0
-830 831 0
-34 -830 0
-1 832 0
-13 833 0
-832 833 0
-13 -832 0
-19 834 0
-17 835 0
-834 835 0
-17 -834 0
-16 836 0
-835 836 0
-16 -835 0
-18 837 0
-836 837 0
-18 -836 0
-2 838 0
-14 839 0
-838 839 0
-14 -838 0
-24 840 0
-22 841 0
-840 841 0
-22 -840 0
-21 842 0
-841 842 0
-21 -841 0
-23 843 0
-842 843 0
-23 -842 0
-8 -6 0
-8 -4 0
-8 -7 0
-6 -4 0
-6 -7 0
-4 -7 0
-3 -5 0
-3 -1 0
-3 -2 0
-5 -1 0
-5 -2 0
-1 -2 0
-12 -10 0
-12 -9 0
-12 -11 0
-10 -9 0
-10 -11 0
-9 -11 0
-13 -14 0
-8 -12 0
-8 -27 0
-12 -27 0
-12 -31 0
-12 -35 0
-12 -19 0
-12 -24 0
-27 -31 0
-27 -35 0
-31 -35 0
-31 -19 0
-31 -24 0
-35 -19 0
-35 -24 0
-19 -24 0
-6 -10 0
-10 -29 0
-10 -33 0
-10 -17 0
-10 -22 0
-29 -33 0
-29 -17 0
-29 -22 0
-33 -17 0
-33 -22 0
-17 -22 0
-4 -9 0
-4 -25 0
-9 -25 0
-9 -28 0
-9 -32 0
-9 -16 0
-9 -21 0
-25 -28 0
-25 -32 0
-28 -32 0
-28 -16 0
-28 -21 0
-32 -16 0
-32 -21 0
-16 -21 0
-7 -11 0
-7 -26 0
-11 -26 0
-11 -30 0
-11 -34 0
-11 -18 0
-11 -23 0
-26 -30 0
-26 -34 0
-30 -34 0
-30 -18 0
-30 -23 0
-34 -18 0
-34 -23 0
-18 -23 0
-27 -25 0
-27 -26 0
-25 -26 0
-15 -20 0
-31 -29 0
-31 -28 0
-31 -30 0
-29 -28 0
-29 -30 0
-28 -30 0
-35 -33 0
-35 -32 0
-35 -34 0
-33 -32 0
-33 -34 0
-32 -34 0
-1 -13 0
-1 -15 0
-13 -19 0
-13 -17 0
-13 -16 0
-13 -18 0
-13 -15 0
-19 -17 0
-19 -16 0
-19 -18 0
-17 -16 0
-17 -18 0
-17 -15 0
-16 -18 0
-2 -14 0
-2 -20 0
-14 -24 0
-14 -22 0
-14 -21 0
-14 -23 0
-14 -20 0
-24 -22 0
-24 -21 0
-24 -23 0
-22 -21 0
-22 -23 0
-22 -20 0
-21 -23 0
-1 -49 82 0
-1 49 -82 0
-1 -50 83 0
-1 50 -83 0
-1 -51 84 0
-1 51 -84 0
-1 -36 47 0
-1 36 -47 0
-1 -88 99 0
-1 88 -99 0
-1 -101 112 0
-1 101 -112 0
-1 -114 136 0
-1 114 -136 0
-1 -115 137 0
-1 115 -137 0
-1 -185 196 0
-1 185 -196 0
-1 -199 210 0
-1 199 -210 0
-1 -213 224 0
-1 213 -224 0
-1 -227 238 0
-1 227 -238 0
-1 -241 252 0
-1 241 -252 0
-1 -255 266 0
-1 255 -266 0
-1 -269 280 0
-1 269 -280 0
-1 -283 294 0
-1 283 -294 0
-2 -49 85 0
-2 49 -85 0
-2 -50 86 0
-2 50 -86 0
-2 -51 87 0
-2 51 -87 0
-2 -36 48 0
-2 36 -48 0
-2 -88 100 0
-2 88 -100 0
-2 -101 113 0
-2 101 -113 0
-2 -114 138 0
-2 114 -138 0
-2 -115 139 0
-2 115 -139 0
-2 -185 197 0
-2 185 -197 0
-2 -199 211 0
-2 199 -211 0
-2 -213 225 0
-2 213 -225 0
-2 -227 239 0
-2 227 -239 0
-2 -241 253 0
-2 241 -253 0
-2 -255 267 0
-2 255 -267 0
-2 -269 281 0
-2 269 -281 0
-2 -283 295 0
-2 283 -295 0
-3 -49 76 0
-3 49 -76 0
-3 -50 77 0
-3 50 -77 0
-3 -51 78 0
-3 51 -78 0
-3 -36 45 0
-3 36 -45 0
-3 -88 97 0
-3 88 -97 0
-3 -101 110 0
-3 101 -110 0
-3 -114 132 0
-3 114 -132 0
-3 -115 133 0
-3 115 -133 0
-3 -185 194 0
-3 185 -194 0
-3 -199 208 0
-3 199 -208 0
-3 -213 222 0
-3 213 -222 0
-3 -227 236 0
-3 227 -236 0
-3 -241 250 0
-3 241 -250 0
-3 -255 264 0
-3 255 -264 0
-3 -269 278 0
-3 269 -278 0
-3 -283 292 0
-3 283 -292 0
-4 -49 67 0
-4 49 -67 0
-4 -50 68 0
-4 50 -68 0
-4 -51 69 0
-4 51 -69 0
-4 -36 42 0
-4 36 -42 0
-4 -88 94 0
-4 88 -94 0
-4 -101 107 0
-4 101 -107 0
-4 -114 126 0
-4 114 -126 0
-4 -115 127 0
-4 115 -127 0
-4 -185 191 0
-4 185 -191 0
-4 -199 205 0
-4 199 -205 0
-4 -213 219 0
-4 213 -219 0
-4 -227 233 0
-4 227 -233 0
-4 -241 247 0
-4 241 -247 0
-4 -255 261 0
-4 255 -261 0
-4 -269 275 0
-4 269 -275 0
-4 -283 289 0
-4 283 -289 0
-5 -49 79 0
-5 49 -79 0
-5 -50 80 0
-5 50 -80 0
-5 -51 81 0
-5 51 -81 0
-5 -36 46 0
-5 36 -46 0
-5 -88 98 0
-5 88 -98 0
-5 -101 111 0
-5 101 -111 0
-5 -114 134 0
-5 114 -134 0
-5 -115 135 0
-5 115 -135 0
-5 -185 195 0
-5 185 -195 0
-5 -199 209 0
-5 199 -209 0
-5 -213 223 0
-5 213 -223 0
-5 -227 237 0
-5 227 -237 0
-5 -241 251 0
-5 241 -251 0
-5 -255 265 0
-5 255 -265 0
-5 -269 279 0
-5 269 -279 0
-5 -283 293 0
-5 283 -293 0
-6 -49 64 0
-6 49 -64 0
-6 -50 65 0
-6 50 -65 0
-6 -51 66 0
-6 51 -66 0
-6 -36 41 0
-6 36 -41 0
-6 -88 93 0
-6 88 -93 0
-6 -101 106 0
-6 101 -106 0
-6 -114 124 0
-6 114 -124 0
-6 -115 125 0
-6 115 -125 0
-6 -185 190 0
-6 185 -190 0
-6 -199 204 0
-6 199 -204 0
-6 -213 218 0
-6 213 -218 0
-6 -227 232 0
-6 227 -232 0
-6 -241 246 0
-6 241 -246 0
-6 -255 260 0
-6 255 -260 0
-6 -269 274 0
-6 269 -274 0
-6 -283 288 0
-6 283 -288 0
-7 -49 70 0
-7 49 -70 0
-7 -50 71 0
-7 50 -71 0
-7 -51 72 0
-7 51 -72 0
-7 -36 43 0
-7 36 -43 0
-7 -88 95 0
-7 88 -95 0
-7 -101 108 0
-7 101 -108 0
-7 -114 128 0
-7 114 -128 0
-7 -115 129 0
-7 115 -129 0
-7 -185 192 0
-7 185 -192 0
-7 -199 206 0
-7 199 -206 0
-7 -213 220 0
-7 213 -220 0
-7 -227 234 0
-7 227 -234 0
-7 -241 248 0
-7 241 -248 0
-7 -255 262 0
-7 255 -262 0
-7 -269 276 0
-7 269 -276 0
-7 -283 290 0
-7 283 -290 0
-8 -49 58 0
-8 49 -58 0
-8 -50 59 0
-8 50 -59 0
-8 -51 60 0
-8 51 -60 0
-8 -36 39 0
-8 36 -39 0
-8 -88 91 0
-8 88 -91 0
-8 -101 104 0
-8 101 -104 0
-8 -114 120 0
-8 114 -120 0
-8 -115 121 0
-8 115 -121 0
-8 -185 188 0
-8 185 -188 0
-8 -199 202 0
-8 199 -202 0
-8 -213 216 0
-8 213 -216 0
-8 -227 230 0
-8 227 -230 0
-8 -241 244 0
-8 241 -244 0
-8 -255 258 0
-8 255 -258 0
-8 -269 272 0
-8 269 -272 0
-8 -283 286 0
-8 283 -286 0
-9 -52 67 0
-9 52 -67 0
-9 -53 68 0
-9 53 -68 0
-9 -54 69 0
-9 54 -69 0
-9 -37 42 0
-9 37 -42 0
-9 -89 94 0
-9 89 -94 0
-9 -102 107 0
-9 102 -107 0
-9 -116 126 0
-9 116 -126 0
-9 -117 127 0
-9 117 -127 0
-9 -186 191 0
-9 186 -191 0
-9 -200 205 0
-9 200 -205 0
-9 -214 219 0
-9 214 -219 0
-9 -228 233 0
-9 228 -233 0
-9 -242 247 0
-9 242 -247 0
-9 -256 261 0
-9 256 -261 0
-9 -270 275 0
-9 270 -275 0
-9 -284 289 0
-9 284 -289 0
-10 -52 64 0
-10 52 -64 0
-10 -53 65 0
-10 53 -65 0
-10 -54 66 0
-10 54 -66 0
-10 -37 41 0
-10 37 -41 0
-10 -89 93 0
-10 89 -93 0
-10 -102 106 0
-10 102 -106 0
-10 -116 124 0
-10 116 -124 0
-10 -117 125 0
-10 117 -125 0
-10 -186 190 0
-10 186 -190 0
-10 -200 204 0
-10 200 -204 0
-10 -214 218 0
-10 214 -218 0
-10 -228 232 0
-10 228 -232 0
-10 -242 246 0
-10 242 -246 0
-10 -256 260 0
-10 256 -260 0
-10 -270 274 0
-10 270 -274 0
-10 -284 288 0
-10 284 -288 0
-11 -52 70 0
-11 52 -70 0
-11 -53 71 0
-11 53 -71 0
-11 -54 72 0
-11 54 -72 0
-11 -37 43 0
-11 37 -43 0
-11 -89 95 0
-11 89 -95 0
-11 -102 108 0
-11 102 -108 0
-11 -116 128 0
-11 116 -128 0
-11 -117 129 0
-11 117 -129 0
-11 -186 192 0
-11 186 -192 0
-11 -200 206 0
-11 200 -206 0
-11 -214 220 0
-11 214 -220 0
-11 -228 234 0
-11 228 -234 0
-11 -242 248 0
-11 242 -248 0
-11 -256 262 0
-11 256 -262 0
-11 -270 276 0
-11 270 -276 0
-11 -284 290 0
-11 284 -290 0
-12 -52 58 0
-12 52 -58 0
-12 -53 59 0
-12 53 -59 0
-12 -54 60 0
-12 54 -60 0
-12 -37 39 0
-12 37 -39 0
-12 -89 91 0
-12 89 -91 0
-12 -102 104 0
-12 102 -104 0
-12 -116 120 0
-12 116 -120 0
-12 -117 121 0
-12 117 -121 0
-12 -186 188 0
-12 186 -188 0
-12 -200 202 0
-12 200 -202 0
-12 -214 216 0
-12 214 -216 0
-12 -228 230 0
-12 228 -230 0
-12 -242 244 0
-12 242 -244 0
-12 -256 258 0
-12 256 -258 0
-12 -270 272 0
-12 270 -272 0
-12 -284 286 0
-12 284 -286 0
-13 -55 82 0
-13 55 -82 0
-13 -56 83 0
-13 56 -83 0
-13 -57 84 0
-13 57 -84 0
-13 -38 47 0
-13 38 -47 0
-13 -90 99 0
-13 90 -99 0
-13 -103 112 0
-13 103 -112 0
-13 -118 136 0
-13 118 -136 0
-13 -119 137 0
-13 119 -137 0
-13 -187 196 0
-13 187 -196 0
-13 -201 210 0
-13 201 -210 0
-13 -215 224 0
-13 215 -224 0
-13 -229 238 0
-13 229 -238 0
-13 -243 252 0
-13 243 -252 0
-13 -257 266 0
-13 257 -266 0
-13 -271 280 0
-13 271 -280 0
-13 -285 294 0
-13 285 -294 0
-14 -55 85 0
-14 55 -85 0
-14 -56 86 0
-14 56 -86 0
-14 -57 87 0
-14 57 -87 0
-14 -38 48 0
-14 38 -48 0
-14 -90 100 0
-14 90 -100 0
-14 -103 113 0
-14 103 -113 0
-14 -118 138 0
-14 118 -138 0
-14 -119 139 0
-14 119 -139 0
-14 -187 197 0
-14 187 -197 0
-14 -201 211 0
-14 201 -211 0
-14 -215 225 0
-14 215 -225 0
-14 -229 239 0
-14 229 -239 0
-14 -243 253 0
-14 243 -253 0
-14 -257 267 0
-14 257 -267 0
-14 -271 281 0
-14 271 -281 0
-14 -285 295 0
-14 285 -295 0
-15 -82 73 0
-15 82 -73 0
-15 -83 74 0
-15 83 -74 0
-15 -84 75 0
-15 84 -75 0
-15 -47 44 0
-15 47 -44 0
-15 -99 96 0
-15 99 -96 0
-15 -112 109 0
-15 112 -109 0
-15 -136 130 0
-15 136 -130 0
-15 -137 131 0
-15 137 -131 0
-15 -196 193 0
-15 196 -193 0
-15 -210 207 0
-15 210 -207 0
-15 -224 221 0
-15 224 -221 0
-15 -238 235 0
-15 238 -235 0
-15 -252 249 0
-15 252 -249 0
-15 -266 263 0
-15 266 -263 0
-15 -280 277 0
-15 280 -277 0
-15 -294 291 0
-15 294 -291 0
-16 -82 67 0
-16 82 -67 0
-16 -83 68 0
-16 83 -68 0
-16 -84 69 0
-16 84 -69 0
-16 -47 42 0
-16 47 -42 0
-16 -99 94 0
-16 99 -94 0
-16 -112 107 0
-16 112 -107 0
-16 -136 126 0
-16 136 -126 0
-16 -137 127 0
-16 137 -127 0
-16 -429 425 0
-16 429 -425 0
-16 -438 434 0
-16 438 -434 0
-16 -447 443 0
-16 447 -443 0
-16 -456 452 0
-16 456 -452 0
-16 -196 191 0
-16 196 -191 0
-16 -210 205 0
-16 210 -205 0
-16 -224 219 0
-16 224 -219 0
-16 -238 233 0
-16 238 -233 0
-16 -252 247 0
-16 252 -247 0
-16 -266 261 0
-16 266 -261 0
-16 -280 275 0
-16 280 -275 0
-16 -294 289 0
-16 294 -289 0
-17 -82 64 0
-17 82 -64 0
-17 -83 65 0
-17 83 -65 0
-17 -84 66 0
-17 84 -66 0
-17 -47 41 0
-17 47 -41 0
-17 -99 93 0
-17 99 -93 0
-17 -112 106 0
-17 112 -106 0
-17 -136 124 0
-17 136 -124 0
-17 -137 125 0
-17 137 -125 0
-17 -429 424 0
-17 429 -424 0
-17 -438 433 0
-17 438 -433 0
-17 -447 442 0
-17 447 -442 0
-17 -456 451 0
-17 456 -451 0
-17 -196 190 0
-17 196 -190 0
-17 -210 204 0
-17 210 -204 0
-17 -224 218 0
-17 224 -218 0
-17 -238 232 0
-17 238 -232 0
-17 -252 246 0
-17 252 -246 0
-17 -266 260 0
-17 266 -260 0
-17 -280 274 0
-17 280 -274 0
-17 -294 288 0
-17 294 -288 0
-18 -82 70 0
-18 82 -70 0
-18 -83 71 0
-18 83 -71 0
-18 -84 72 0
-18 84 -72 0
-18 -47 43 0
-18 47 -43 0
-18 -99 95 0
-18 99 -95 0
-18 -112 108 0
-18 112 -108 0
-18 -136 128 0
-18 136 -128 0
-18 -137 129 0
-18 137 -129 0
-18 -429 426 0
-18 429 -426 0
-18 -438 435 0
-18 438 -435 0
-18 -447 444 0
-18 447 -444 0
-18 -456 453 0
-18 456 -453 0
-18 -196 192 0
-18 196 -192 0
-18 -210 206 0
-18 210 -206 0
-18 -224 220 0
-18 224 -220 0
-18 -238 234 0
-18 238 -234 0
-18 -252 248 0
-18 252 -248 0
-18 -266 262 0
-18 266 -262 0
-18 -280 276 0
-18 280 -276 0
-18 -294 290 0
-18 294 -290 0
-19 -82 58 0
-19 82 -58 0
-19 -83 59 0
-19 83 -59 0
-19 -84 60 0
-19 84 -60 0
-19 -47 39 0
-19 47 -39 0
-19 -99 91 0
-19 99 -91 0
-19 -112 104 0
-19 112 -104 0
-19 -136 120 0
-19 136 -120 0
-19 -137 121 0
-19 137 -121 0
-19 -429 422 0
-19 429 -422 0
-19 -438 431 0
-19 438 -431 0
-19 -447 440 0
-19 447 -440 0
-19 -456 449 0
-19 456 -449 0
-19 -196 188 0
-19 196 -188 0
-19 -210 202 0
-19 210 -202 0
-19 -224 216 0
-19 224 -216 0
-19 -238 230 0
-19 238 -230 0
-19 -252 244 0
-19 252 -244 0
-19 -266 258 0
-19 266 -258 0
-19 -280 272 0
-19 280 -272 0
-19 -294 286 0
-19 294 -286 0
-20 -85 73 0
-20 85 -73 0
-20 -86 74 0
-20 86 -74 0
-20 -87 75 0
-20 87 -75 0
-20 -48 44 0
-20 48 -44 0
-20 -100 96 0
-20 100 -96 0
-20 -113 109 0
-20 113 -109 0
-20 -138 130 0
-20 138 -130 0
-20 -139 131 0
-20 139 -131 0
-20 -197 193 0
-20 197 -193 0
-20 -211 207 0
-20 211 -207 0
-20 -225 221 0
-20 225 -221 0
-20 -239 235 0
-20 239 -235 0
-20 -253 249 0
-20 253 -249 0
-20 -267 263 0
-20 267 -263 0
-20 -281 277 0
-20 281 -277 0
-20 -295 291 0
-20 295 -291 0
-21 -85 67 0
-21 85 -67 0
-21 -86 68 0
-21 86 -68 0
-21 -87 69 0
-21 87 -69 0
-21 -48 42 0
-21 48 -42 0
-21 -100 94 0
-21 100 -94 0
-21 -113 107 0
-21 113 -107 0
-21 -138 126 0
-21 138 -126 0
-21 -139 127 0
-21 139 -127 0
-21 -430 425 0
-21 430 -425 0
-21 -439 434 0
-21 439 -434 0
-21 -448 443 0
-21 448 -443 0
-21 -457 452 0
-21 457 -452 0
-21 -197 191 0
-21 197 -191 0
-21 -211 205 0
-21 211 -205 0
-21 -225 219 0
-21 225 -219 0
-21 -239 233 0
-21 239 -233 0
-21 -253 247 0
-21 253 -247 0
-21 -267 261 0
-21 267 -261 0
-21 -281 275 0
-21 281 -275 0
-21 -295 289 0
-21 295 -289 0
-22 -85 64 0
-22 85 -64 0
-22 -86 65 0
-22 86 -65 0
-22 -87 66 0
-22 87 -66 0
-22 -48 41 0
-22 48 -41 0
-22 -100 93 0
-22 100 -93 0
-22 -113 106 0
-22 113 -106 0
-22 -138 124 0
-22 138 -124 0
-22 -139 125 0
-22 139 -125 0
-22 -430 424 0
-22 430 -424 0
-22 -439 433 0
-22 439 -433 0
-22 -448 442 0
-22 448 -442 0
-22 -457 451 0
-22 457 -451 0
-22 -197 190 0
-22 197 -190 0
-22 -211 204 0
-22 211 -204 0
-22 -225 218 0
-22 225 -218 0
-22 -239 232 0
-22 239 -232 0
-22 -253 246 0
-22 253 -246 0
-22 -267 260 0
-22 267 -260 0
-22 -281 274 0
-22 281 -274 0
-22 -295 288 0
-22 295 -288 0
-23 -85 70 0
-23 85 -70 0
-23 -86 71 0
-23 86 -71 0
-23 -87 72 0
-23 87 -72 0
-23 -48 43 0
-23 48 -43 0
-23 -100 95 0
-23 100 -95 0
-23 -113 108 0
-23 113 -108 0
-23 -138 128 0
-23 138 -128 0
-23 -139 129 0
-23 139 -129 0
-23 -430 426 0
-23 430 -426 0
-23 -439 435 0
-23 439 -435 0
-23 -448 444 0
-23 448 -444 0
-23 -457 453 0
-23 457 -453 0
-23 -197 192 0
-23 197 -192 0
-23 -211 206 0
-23 211 -206 0
-23 -225 220 0
-23 225 -220 0
-23 -239 234 0
-23 239 -234 0
-23 -253 248 0
-23 253 -248 0
-23 -267 262 0
-23 267 -262 0
-23 -281 276 0
-23 281 -276 0
-23 -295 290 0
-23 295 -290 0
-24 -85 58 0
-24 85 -58 0
-24 -86 59 0
-24 86 -59 0
-24 -87 60 0
-24 87 -60 0
-24 -48 39 0
-24 48 -39 0
-24 -100 91 0
-24 100 -91 0
-24 -113 104 0
-24 113 -104 0
-24 -138 120 0
-24 138 -120 0
-24 -139 121 0
-24 139 -121 0
-24 -430 422 0
-24 430 -422 0
-24 -439 431 0
-24 439 -431 0
-24 -448 440 0
-24 448 -440 0
-24 -457 449 0
-24 457 -449 0
-24 -197 188 0
-24 197 -188 0
-24 -211 202 0
-24 211 -202 0
-24 -225 216 0
-24 225 -216 0
-24 -239 230 0
-24 239 -230 0
-24 -253 244 0
-24 253 -244 0
-24 -267 258 0
-24 267 -258 0
-24 -281 272 0
-24 281 -272 0
-24 -295 286 0
-24 295 -286 0
-25 -73 67 0
-25 73 -67 0
-25 -74 68 0
-25 74 -68 0
-25 -75 69 0
-25 75 -69 0
-25 -44 42 0
-25 44 -42 0
-25 -96 94 0
-25 96 -94 0
-25 -109 107 0
-25 109 -107 0
-25 -130 126 0
-25 130 -126 0
-25 -131 127 0
-25 131 -127 0
-25 -255 199 0
-25 255 -199 0
-25 -256 200 0
-25 256 -200 0
-25 -257 201 0
-25 257 -201 0
-25 -258 202 0
-25 258 -202 0
-25 -259 203 0
-25 259 -203 0
-25 -260 204 0
-25 260 -204 0
-25 -261 205 0
-25 261 -205 0
-25 -262 206 0
-25 262 -206 0
-25 -263 207 0
-25 263 -207 0
-25 -264 208 0
-25 264 -208 0
-25 -265 209 0
-25 265 -209 0
-25 -266 210 0
-25 266 -210 0
-25 -267 211 0
-25 267 -211 0
-25 -268 212 0
-25 268 -212 0
-25 -193 191 0
-25 193 -191 0
-25 -207 205 0
-25 207 -205 0
-25 -221 219 0
-25 221 -219 0
-25 -235 233 0
-25 235 -233 0
-25 -249 247 0
-25 249 -247 0
-25 -263 261 0
-25 263 -261 0
-25 -277 275 0
-25 277 -275 0
-25 -291 289 0
-25 291 -289 0
-26 -73 70 0
-26 73 -70 0
-26 -74 71 0
-26 74 -71 0
-26 -75 72 0
-26 75 -72 0
-26 -44 43 0
-26 44 -43 0
-26 -96 95 0
-26 96 -95 0
-26 -109 108 0
-26 109 -108 0
-26 -130 128 0
-26 130 -128 0
-26 -131 129 0
-26 131 -129 0
-26 -255 241 0
-26 255 -241 0
-26 -256 242 0
-26 256 -242 0
-26 -257 243 0
-26 257 -243 0
-26 -258 244 0
-26 258 -244 0
-26 -259 245 0
-26 259 -245 0
-26 -260 246 0
-26 260 -246 0
-26 -261 247 0
-26 261 -247 0
-26 -262 248 0
-26 262 -248 0
-26 -263 249 0
-26 263 -249 0
-26 -264 250 0
-26 264 -250 0
-26 -265 251 0
-26 265 -251 0
-26 -266 252 0
-26 266 -252 0
-26 -267 253 0
-26 267 -253 0
-26 -268 254 0
-26 268 -254 0
-26 -193 192 0
-26 193 -192 0
-26 -207 206 0
-26 207 -206 0
-26 -221 220 0
-26 221 -220 0
-26 -235 234 0
-26 235 -234 0
-26 -249 248 0
-26 249 -248 0
-26 -263 262 0
-26 263 -262 0
-26 -277 276 0
-26 277 -276 0
-26 -291 290 0
-26 291 -290 0
-27 -73 58 0
-27 73 -58 0
-27 -74 59 0
-27 74 -59 0
-27 -75 60 0
-27 75 -60 0
-27 -44 39 0
-27 44 -39 0
-27 -96 91 0
-27 96 -91 0
-27 -109 104 0
-27 109 -104 0
-27 -130 120 0
-27 130 -120 0
-27 -131 121 0
-27 131 -121 0
-27 -255 213 0
-27 255 -213 0
-27 -256 214 0
-27 256 -214 0
-27 -257 215 0
-27 257 -215 0
-27 -258 216 0
-27 258 -216 0
-27 -259 217 0
-27 259 -217 0
-27 -260 218 0
-27 260 -218 0
-27 -261 219 0
-27 261 -219 0
-27 -262 220 0
-27 262 -220 0
-27 -263 221 0
-27 263 -221 0
-27 -264 222 0
-27 264 -222 0
-27 -265 223 0
-27 265 -223 0
-27 -266 224 0
-27 266 -224 0
-27 -267 225 0
-27 267 -225 0
-27 -268 226 0
-27 268 -226 0
-27 -193 188 0
-27 193 -188 0
-27 -207 202 0
-27 207 -202 0
-27 -221 216 0
-27 221 -216 0
-27 -235 230 0
-27 235 -230 0
-27 -249 244 0
-27 249 -244 0
-27 -263 258 0
-27 263 -258 0
-27 -277 272 0
-27 277 -272 0
-27 -291 286 0
-27 291 -286 0
-28 -76 67 0
-28 76 -67 0
-28 -77 68 0
-28 77 -68 0
-28 -78 69 0
-28 78 -69 0
-28 -45 42 0
-28 45 -42 0
-28 -97 94 0
-28 97 -94 0
-28 -110 107 0
-28 110 -107 0
-28 -132 126 0
-28 132 -126 0
-28 -133 127 0
-28 133 -127 0
-28 -427 425 0
-28 427 -425 0
-28 -436 434 0
-28 436 -434 0
-28 -445 443 0
-28 445 -443 0
-28 -454 452 0
-28 454 -452 0
-28 -269 199 0
-28 269 -199 0
-28 -270 200 0
-28 270 -200 0
-28 -271 201 0
-28 271 -201 0
-28 -272 202 0
-28 272 -202 0
-28 -273 203 0
-28 273 -203 0
-28 -274 204 0
-28 274 -204 0
-28 -275 205 0
-28 275 -205 0
-28 -276 206 0
-28 276 -206 0
-28 -277 207 0
-28 277 -207 0
-28 -278 208 0
-28 278 -208 0
-28 -279 209 0
-28 279 -209 0
-28 -280 210 0
-28 280 -210 0
-28 -281 211 0
-28 281 -211 0
-28 -282 212 0
-28 282 -212 0
-28 -194 191 0
-28 194 -191 0
-28 -208 205 0
-28 208 -205 0
-28 -222 219 0
-28 222 -219 0
-28 -236 233 0
-28 236 -233 0
-28 -250 247 0
-28 250 -247 0
-28 -264 261 0
-28 264 -261 0
-28 -278 275 0
-28 278 -275 0
-28 -292 289 0
-28 292 -289 0
-29 -76 64 0
-29 76 -64 0
-29 -77 65 0
-29 77 -65 0
-29 -78 66 0
-29 78 -66 0
-29 -45 41 0
-29 45 -41 0
-29 -97 93 0
-29 97 -93 0
-29 -110 106 0
-29 110 -106 0
-29 -132 124 0
-29 132 -124 0
-29 -133 125 0
-29 133 -125 0
-29 -427 424 0
-29 427 -424 0
-29 -436 433 0
-29 436 -433 0
-29 -445 442 0
-29 445 -442 0
-29 -454 451 0
-29 454 -451 0
-29 -269 227 0
-29 269 -227 0
-29 -270 228 0
-29 270 -228 0
-29 -271 229 0
-29 271 -229 0
-29 -272 230 0
-29 272 -230 0
-29 -273 231 0
-29 273 -231 0
-29 -274 232 0
-29 274 -232 0
-29 -275 233 0
-29 275 -233 0
-29 -276 234 0
-29 276 -234 0
-29 -277 235 0
-29 277 -235 0
-29 -278 236 0
-29 278 -236 0
-29 -279 237 0
-29 279 -237 0
-29 -280 238 0
-29 280 -238 0
-29 -281 239 0
-29 281 -239 0
-29 -282 240 0
-29 282 -240 0
-29 -194 190 0
-29 194 -190 0
-29 -208 204 0
-29 208 -204 0
-29 -222 218 0
-29 222 -218 0
-29 -236 232 0
-29 236 -232 0
-29 -250 246 0
-29 250 -246 0
-29 -264 260 0
-29 264 -260 0
-29 -278 274 0
-29 278 -274 0
-29 -292 288 0
-29 292 -288 0
-30 -76 70 0
-30 76 -70 0
-30 -77 71 0
-30 77 -71 0
-30 -78 72 0
-30 78 -72 0
-30 -45 43 0
-30 45 -43 0
-30 -97 95 0
-30 97 -95 0
-30 -110 108 0
-30 110 -108 0
-30 -132 128 0
-30 132 -128 0
-30 -133 129 0
-30 133 -129 0
-30 -427 426 0
-30 427 -426 0
-30 -436 435 0
-30 436 -435 0
-30 -445 444 0
-30 445 -444 0
-30 -454 453 0
-30 454 -453 0
-30 -269 241 0
-30 269 -241 0
-30 -270 242 0
-30 270 -242 0
-30 -271 243 0
-30 271 -243 0
-30 -272 244 0
-30 272 -244 0
-30 -273 245 0
-30 273 -245 0
-30 -274 246 0
-30 274 -246 0
-30 -275 247 0
-30 275 -247 0
-30 -276 248 0
-30 276 -248 0
-30 -277 249 0
-30 277 -249 0
-30 -278 250 0
-30 278 -250 0
-30 -279 251 0
-30 279 -251 0
-30 -280 252 0
-30 280 -252 0
-30 -281 253 0
-30 281 -253 0
-30 -282 254 0
-30 282 -254 0
-30 -194 192 0
-30 194 -192 0
-30 -208 206 0
-30 208 -206 0
-30 -222 220 0
-30 222 -220 0
-30 -236 234 0
-30 236 -234 0
-30 -250 248 0
-30 250 -248 0
-30 -264 262 0
-30 264 -262 0
-30 -278 276 0
-30 278 -276 0
-30 -292 290 0
-30 292 -290 0
-31 -76 58 0
-31 76 -58 0
-31 -77 59 0
-31 77 -59 0
-31 -78 60 0
-31 78 -60 0
-31 -45 39 0
-31 45 -39 0
-31 -97 91 0
-31 97 -91 0
-31 -110 104 0
-31 110 -104 0
-31 -132 120 0
-31 132 -120 0
-31 -133 121 0
-31 133 -121 0
-31 -427 422 0
-31 427 -422 0
-31 -436 431 0
-31 436 -431 0
-31 -445 440 0
-31 445 -440 0
-31 -454 449 0
-31 454 -449 0
-31 -269 213 0
-31 269 -213 0
-31 -270 214 0
-31 270 -214 0
-31 -271 215 0
-31 271 -215 0
-31 -272 216 0
-31 272 -216 0
-31 -273 217 0
-31 273 -217 0
-31 -274 218 0
-31 274 -218 0
-31 -275 219 0
-31 275 -219 0
-31 -276 220 0
-31 276 -220 0
-31 -277 221 0
-31 277 -221 0
-31 -278 222 0
-31 278 -222 0
-31 -279 223 0
-31 279 -223 0
-31 -280 224 0
-31 280 -224 0
-31 -281 225 0
-31 281 -225 0
-31 -282 226 0
-31 282 -226 0
-31 -194 188 0
-31 194 -188 0
-31 -208 202 0
-31 208 -202 0
-31 -222 216 0
-31 222 -216 0
-31 -236 230 0
-31 236 -230 0
-31 -250 244 0
-31 250 -244 0
-31 -264 258 0
-31 264 -258 0
-31 -278 272 0
-31 278 -272 0
-31 -292 286 0
-31 292 -286 0
-32 -67 79 0
-32 67 -79 0
-32 -68 80 0
-32 68 -80 0
-32 -69 81 0
-32 69 -81 0
-32 -42 46 0
-32 42 -46 0
-32 -94 98 0
-32 94 -98 0
-32 -107 111 0
-32 107 -111 0
-32 -126 134 0
-32 126 -134 0
-32 -127 135 0
-32 127 -135 0
-32 -425 428 0
-32 425 -428 0
-32 -434 437 0
-32 434 -437 0
-32 -443 446 0
-32 443 -446 0
-32 -452 455 0
-32 452 -455 0
-32 -199 283 0
-32 199 -283 0
-32 -200 284 0
-32 200 -284 0
-32 -201 285 0
-32 201 -285 0
-32 -202 286 0
-32 202 -286 0
-32 -203 287 0
-32 203 -287 0
-32 -204 288 0
-32 204 -288 0
-32 -205 289 0
-32 205 -289 0
-32 -206 290 0
-32 206 -290 0
-32 -207 291 0
-32 207 -291 0
-32 -208 292 0
-32 208 -292 0
-32 -209 293 0
-32 209 -293 0
-32 -210 294 0
-32 210 -294 0
-32 -211 295 0
-32 211 -295 0
-32 -212 296 0
-32 212 -296 0
-32 -191 195 0
-32 191 -195 0
-32 -205 209 0
-32 205 -209 0
-32 -219 223 0
-32 219 -223 0
-32 -233 237 0
-32 233 -237 0
-32 -247 251 0
-32 247 -251 0
-32 -261 265 0
-32 261 -265 0
-32 -275 279 0
-32 275 -279 0
-32 -289 293 0
-32 289 -293 0
-33 -79 64 0
-33 79 -64 0
-33 -80 65 0
-33 80 -65 0
-33 -81 66 0
-33 81 -66 0
-33 -46 41 0
-33 46 -41 0
-33 -98 93 0
-33 98 -93 0
-33 -111 106 0
-33 111 -106 0
-33 -134 124 0
-33 134 -124 0
-33 -135 125 0
-33 135 -125 0
-33 -428 424 0
-33 428 -424 0
-33 -437 433 0
-33 437 -433 0
-33 -446 442 0
-33 446 -442 0
-33 -455 451 0
-33 455 -451 0
-33 -283 227 0
-33 283 -227 0
-33 -284 228 0
-33 284 -228 0
-33 -285 229 0
-33 285 -229 0
-33 -286 230 0
-33 286 -230 0
-33 -287 231 0
-33 287 -231 0
-33 -288 232 0
-33 288 -232 0
-33 -289 233 0
-33 289 -233 0
-33 -290 234 0
-33 290 -234 0
-33 -291 235 0
-33 291 -235 0
-33 -292 236 0
-33 292 -236 0
-33 -293 237 0
-33 293 -237 0
-33 -294 238 0
-33 294 -238 0
-33 -295 239 0
-33 295 -239 0
-33 -296 240 0
-33 296 -240 0
-33 -195 190 0
-33 195 -190 0
-33 -209 204 0
-33 209 -204 0
-33 -223 218 0
-33 223 -218 0
-33 -237 232 0
-33 237 -232 0
-33 -251 246 0
-33 251 -246 0
-33 -265 260 0
-33 265 -260 0
-33 -279 274 0
-33 279 -274 0
-33 -293 288 0
-33 293 -288 0
-34 -79 70 0
-34 79 -70 0
-34 -80 71 0
-34 80 -71 0
-34 -81 72 0
-34 81 -72 0
-34 -46 43 0
-34 46 -43 0
-34 -98 95 0
-34 98 -95 0
-34 -111 108 0
-34 111 -108 0
-34 -134 128 0
-34 134 -128 0
-34 -135 129 0
-34 135 -129 0
-34 -428 426 0
-34 428 -426 0
-34 -437 435 0
-34 437 -435 0
-34 -446 444 0
-34 446 -444 0
-34 -455 453 0
-34 455 -453 0
-34 -283 241 0
-34 283 -241 0
-34 -284 242 0
-34 284 -242 0
-34 -285 243 0
-34 285 -243 0
-34 -286 244 0
-34 286 -244 0
-34 -287 245 0
-34 287 -245 0
-34 -288 246 0
-34 288 -246 0
-34 -289 247 0
-34 289 -247 0
-34 -290 248 0
-34 290 -248 0
-34 -291 249 0
-34 291 -249 0
-34 -292 250 0
-34 292 -250 0
-34 -293 251 0
-34 293 -251 0
-34 -294 252 0
-34 294 -252 0
-34 -295 253 0
-34 295 -253 0
-34 -296 254 0
-34 296 -254 0
-34 -195 192 0
-34 195 -192 0
-34 -209 206 0
-34 209 -206 0
-34 -223 220 0
-34 223 -220 0
-34 -237 234 0
-34 237 -234 0
-34 -251 248 0
-34 251 -248 0
-34 -265 262 0
-34 265 -262 0
-34 -279 276 0
-34 279 -276 0
-34 -293 290 0
-34 293 -290 0
-35 -79 58 0
-35 79 -58 0
-35 -80 59 0
-35 80 -59 0
-35 -81 60 0
-35 81 -60 0
-35 -46 39 0
-35 46 -39 0
-35 -98 91 0
-35 98 -91 0
-35 -111 104 0
-35 111 -104 0
-35 -134 120 0
-35 134 -120 0
-35 -135 121 0
-35 135 -121 0
-35 -428 422 0
-35 428 -422 0
-35 -437 431 0
-35 437 -431 0
-35 -446 440 0
-35 446 -440 0
-35 -455 449 0
-35 455 -449 0
-35 -283 213 0
-35 283 -213 0
-35 -284 214 0
-35 284 -214 0
-35 -285 215 0
-35 285 -215 0
-35 -286 216 0
-35 286 -216 0
-35 -287 217 0
-35 287 -217 0
-35 -288 218 0
-35 288 -218 0
-35 -289 219 0
-35 289 -219 0
-35 -290 220 0
-35 290 -220 0
-35 -291 221 0
-35 291 -221 0
-35 -292 222 0
-35 292 -222 0
-35 -293 223 0
-35 293 -223 0
-35 -294 224 0
-35 294 -224 0
-35 -295 225 0
-35 295 -225 0
-35 -296 226 0
-35 296 -226 0
-35 -195 188 0
-35 195 -188 0
-35 -209 202 0
-35 209 -202 0
-35 -223 216 0
-35 223 -216 0
-35 -237 230 0
-35 237 -230 0
-35 -251 244 0
-35 251 -244 0
-35 -265 258 0
-35 265 -258 0
-35 -279 272 0
-35 279 -272 0
-35 -293 286 0
-35 293 -286 0
-8 -31 3 0
-31 -3 8 0
-3 -8 31 0
-8 -35 5 0
-35 -5 8 0
-5 -8 35 0
-8 -19 1 0
-19 -1 8 0
-1 -8 19 0
-8 -24 2 0
-24 -2 8 0
-2 -8 24 0
-6 -29 3 0
-29 -3 6 0
-3 -6 29 0
-6 -33 5 0
-33 -5 6 0
-5 -6 33 0
-6 -17 1 0
-17 -1 6 0
-1 -6 17 0
-6 -22 2 0
-22 -2 6 0
-2 -6 22 0
-4 -28 3 0
-28 -3 4 0
-3 -4 28 0
-4 -32 5 0
-32 -5 4 0
-5 -4 32 0
-4 -16 1 0
-16 -1 4 0
-1 -4 16 0
-4 -21 2 0
-21 -2 4 0
-2 -4 21 0
-7 -30 3 0
-30 -3 7 0
-3 -7 30 0
-7 -34 5 0
-34 -5 7 0
-5 -7 34 0
-7 -18 1 0
-18 -1 7 0
-1 -7 18 0
-7 -23 2 0
-23 -2 7 0
-2 -7 23 0
-27 -15 19 0
-15 -19 27 0
-19 -27 15 0
-27 -20 24 0
-20 -24 27 0
-24 -27 20 0
-25 -15 16 0
-15 -16 25 0
-16 -25 15 0
-25 -20 21 0
-20 -21 25 0
-21 -25 20 0
-26 -15 18 0
-15 -18 26 0
-18 -26 15 0
-26 -20 23 0
-20 -23 26 0
-23 -26 20 0
-132 -134 -185 50 0
-132 -134 -187 56 0
-132 -134 -188 59 12 0
-132 -134 -189 62 0
-132 -134 -190 65 10 0
-132 -134 -191 68 9 0
-132 -134 -192 71 11 0
-132 -134 -193 74 0
-132 -134 -194 77 0
-132 -134 -195 80 0
-132 -134 -196 83 0
-132 -134 -197 86 0
-133 -135 -199 50 0
-133 -135 -201 56 0
-133 -135 -202 59 12 0
-133 -135 -203 62 0
-133 -135 -204 65 10 0
-133 -135 -205 68 9 0
-133 -135 -206 71 11 0
-133 -135 -207 74 0
-133 -135 -208 77 0
-133 -135 -209 80 0
-133 -135 -210 83 0
-133 -135 -211 86 0
-436 -437 0
-454 -455 0
-427 -428 -185 50 0
-445 -446 -199 50 0
-427 -428 -187 56 0
-445 -446 -201 56 0
-427 -428 -188 59 12 0
-445 -446 -202 59 12 0
-427 -428 -189 62 0
-445 -446 -203 62 0
-427 -428 -190 65 10 0
-445 -446 -204 65 10 0
-427 -428 -191 68 9 0
-445 -446 -205 68 9 0
-427 -428 -192 71 11 0
-445 -446 -206 71 11 0
-427 -428 -193 74 0
-445 -446 -207 74 0
-427 -428 -194 77 0
-445 -446 -208 77 0
-427 -428 -195 80 0
-445 -446 -209 80 0
-427 -428 -196 83 0
-445 -446 -210 83 0
-427 -428 -197 86 0
-445 -446 -211 86 0
-188 -422 0
-202 -440 0
-189 -423 0
-203 -441 0
-190 -424 0
-204 -442 0
-191 -425 0
-205 -443 0
-192 -426 0
-206 -444 0
-194 -427 0
-208 -445 0
-195 -428 0
-209 -446 0
-196 -429 0
-210 -447 0
-197 -430 0
-211 -448 0
-438 -13 0
-456 -13 0
-439 -14 0
-457 -14 0
-844 -422 120 0
-844 422 -120 0
844 -422 -120 0
-846 -440 121 0
-846 440 -121 0
846 -440 -121 0
-845 -431 104 0
845 -431 -104 0
-847 -449 104 0
847 -449 -104 0
-844 -423 122 0
-844 423 -122 0
844 -423 -122 0
-846 -441 123 0
-846 441 -123 0
846 -441 -123 0
-845 -432 105 0
845 -432 -105 0
-847 -450 105 0
847 -450 -105 0
-844 -424 124 0
-844 424 -124 0
844 -424 -124 0
-846 -442 125 0
-846 442 -125 0
846 -442 -125 0
-845 -433 106 0
845 -433 -106 0
-847 -451 106 0
847 -451 -106 0
-844 -425 126 0
-844 425 -126 0
844 -425 -126 0
-846 -443 127 0
-846 443 -127 0
846 -443 -127 0
-845 -434 107 0
845 -434 -107 0
-847 -452 107 0
847 -452 -107 0
-844 -426 128 0
-844 426 -128 0
844 -426 -128 0
-846 -444 129 0
-846 444 -129 0
846 -444 -129 0
-845 -435 108 0
845 -435 -108 0
-847 -453 108 0
847 -453 -108 0
-844 -427 132 0
-844 427 -132 0
844 -427 -132 0
-846 -445 133 0
-846 445 -133 0
846 -445 -133 0
-845 -436 110 0
845 -436 -110 0
-847 -454 110 0
847 -454 -110 0
-844 -428 134 0
-844 428 -134 0
844 -428 -134 0
-846 -446 135 0
-846 446 -135 0
846 -446 -135 0
-845 -437 111 0
845 -437 -111 0
-847 -455 111 0
847 -455 -111 0
-844 -429 136 0
-844 429 -136 0
844 -429 -136 0
-846 -447 137 0
-846 447 -137 0
846 -447 -137 0
-845 -438 112 0
845 -438 -112 0
-847 -456 112 0
847 -456 -112 0
-844 -430 138 0
-844 430 -138 0
844 -430 -138 0
-846 -448 139 0
-846 448 -139 0
846 -448 -139 0
-845 -439 113 0
845 -439 -113 0
-847 -457 113 0
847 -457 -113 0
-845 432 0
-847 450 0
-845 433 0
-847 451 0
-845 434 0
-847 452 0
-845 435 0
-847 453 0
-122 848 0
-132 852 0
-848 852 0
-132 -848 853 0
-849 853 0
-132 -849 854 0
-850 854 0
-132 -850 855 0
-851 855 0
-132 -851 0
-134 856 0
-852 856 0
-134 -852 857 0
-853 857 0
-134 -853 858 0
-854 858 0
-134 -854 859 0
-855 859 0
-134 -855 0
-136 860 0
-856 860 0
-136 -856 861 0
-857 861 0
-136 -857 862 0
-858 862 0
-136 -858 863 0
-859 863 0
-136 -859 0
-138 864 0
-860 864 0
-138 -860 865 0
-861 865 0
-138 -861 866 0
-862 866 0
-138 -862 867 0
-863 867 0
-138 -863 0
868 869 870 871 0
-868 869 870 871 0
-869 868 870 871 0
-870 868 869 871 0
-871 868 869 870 0
-868 872 0
-869 874 0
-872 874 0
-869 -872 875 0
-873 875 0
-869 -873 0
-870 876 0
-874 876 0
-870 -874 877 0
-875 877 0
-870 -875 0
-871 878 0
-876 878 0
-871 -876 879 0
-877 879 0
-871 -877 0
-868 -76 0
-868 -110 0
-869 -79 0
-869 -111 0
-870 -82 0
-870 -112 0
-871 -85 0
-871 -113 0
-870 -13 0
-871 -14 0
-180 181 182 183 184 0
-181 180 182 183 184 0
-182 180 181 183 184 0
-183 180 181 182 184 0
-184 180 181 182 183 0
-180 880 0
-181 882 0
-880 882 0
-181 -880 883 0
-881 883 0
-181 -881 0
-182 884 0
-882 884 0
-182 -882 885 0
-883 885 0
-182 -883 0
-183 886 0
-884 886 0
-183 -884 887 0
-885 887 0
-183 -885 0
-184 888 0
-886 888 0
-184 -886 889 0
-887 889 0
-184 -887 0
132 0
134 0
