p cnf 162 263
1 0
2 0
3 0
4 0
5 0
6 0
7 0
8 0
9 0
10 0
-15 0
-51 0
10 51 0
11 60 0
12 69 0
13 78 0
14 87 0
15 96 0
16 105 0
17 114 0
18 123 0
20 0
-25 0
-61 0
19 52 0
20 61 0
21 70 0
22 79 0
23 88 0
24 97 0
25 106 0
26 115 0
27 124 0
30 0
-35 0
-71 0
28 53 0
29 62 0
30 71 0
31 80 0
32 89 0
33 98 0
34 107 0
35 116 0
36 125 0
40 0
-45 0
-81 0
37 54 0
38 63 0
39 72 0
40 81 0
41 90 0
42 99 0
43 108 0
44 117 0
45 126 0
154 155 156 0
-154 -1 8 0
-154 1 -8 0
-154 -10 17 0
-154 10 -17 0
-154 -19 26 0
-154 19 -26 0
-154 -28 35 0
-154 28 -35 0
-154 -37 44 0
-154 37 -44 0
-154 -46 109 0
-154 46 -109 0
-154 -47 110 0
-154 47 -110 0
-154 -48 111 0
-154 48 -111 0
-154 -49 112 0
-154 49 -112 0
-154 -50 113 0
-154 50 -113 0
-154 -51 114 0
-154 51 -114 0
-154 -52 115 0
-154 52 -115 0
-154 -53 116 0
-154 53 -116 0
-154 -54 117 0
-154 54 -117 0
-154 -46 53 0
-154 46 -53 0
-154 -55 62 0
-154 55 -62 0
-154 -64 71 0
-154 64 -71 0
-154 -73 80 0
-154 73 -80 0
-154 -82 89 0
-154 82 -89 0
-154 -91 98 0
-154 91 -98 0
-154 -100 107 0
-154 100 -107 0
-154 -109 116 0
-154 109 -116 0
-154 -118 125 0
-154 118 -125 0
-154 -28 0
-155 -1 9 0
-155 1 -9 0
-155 -10 18 0
-155 10 -18 0
-155 -19 27 0
-155 19 -27 0
-155 -28 36 0
-155 28 -36 0
-155 -37 45 0
-155 37 -45 0
-155 -46 118 0
-155 46 -118 0
-155 -47 119 0
-155 47 -119 0
-155 -48 120 0
-155 48 -120 0
-155 -49 121 0
-155 49 -121 0
-155 -50 122 0
-155 50 -122 0
-155 -51 123 0
-155 51 -123 0
-155 -52 124 0
-155 52 -124 0
-155 -53 125 0
-155 53 -125 0
-155 -54 126 0
-155 54 -126 0
-155 -46 54 0
-155 46 -54 0
-155 -55 63 0
-155 55 -63 0
-155 -64 72 0
-155 64 -72 0
-155 -73 81 0
-155 73 -81 0
-155 -82 90 0
-155 82 -90 0
-155 -91 99 0
-155 91 -99 0
-155 -100 108 0
-155 100 -108 0
-155 -109 117 0
-155 109 -117 0
-155 -118 126 0
-155 118 -126 0
-155 -37 0
-156 -1 7 0
-156 1 -7 0
-156 -10 16 0
-156 10 -16 0
-156 -19 25 0
-156 19 -25 0
-156 -28 34 0
-156 28 -34 0
-156 -37 43 0
-156 37 -43 0
-156 -46 100 0
-156 46 -100 0
-156 -47 101 0
-156 47 -101 0
-156 -48 102 0
-156 48 -102 0
-156 -49 103 0
-156 49 -103 0
-156 -50 104 0
-156 50 -104 0
-156 -51 105 0
-156 51 -105 0
-156 -52 106 0
-156 52 -106 0
-156 -53 107 0
-156 53 -107 0
-156 -54 108 0
-156 54 -108 0
-156 -46 52 0
-156 46 -52 0
-156 -55 61 0
-156 55 -61 0
-156 -64 70 0
-156 64 -70 0
-156 -73 79 0
-156 73 -79 0
-156 -82 88 0
-156 82 -88 0
-156 -91 97 0
-156 91 -97 0
-156 -100 106 0
-156 100 -106 0
-156 -109 115 0
-156 109 -115 0
-156 -118 124 0
-156 118 -124 0
-156 -19 0
-127 28 0
127 -28 0
-128 29 0
128 -29 0
-129 30 0
129 -30 0
-130 31 0
130 -31 0
-131 32 0
131 -32 0
-132 33 0
132 -33 0
-133 34 0
133 -34 0
-134 35 0
134 -35 0
-135 36 0
135 -36 0
-136 37 0
136 -37 0
-137 38 0
137 -38 0
-138 39 0
138 -39 0
-139 40 0
139 -40 0
-140 41 0
140 -41 0
-141 42 0
141 -42 0
-142 43 0
142 -43 0
-143 44 0
143 -44 0
-144 45 0
144 -45 0
-145 19 0
145 -19 0
-146 20 0
146 -20 0
-147 21 0
147 -21 0
-148 22 0
148 -22 0
-149 23 0
149 -23 0
-150 24 0
150 -24 0
-151 25 0
151 -25 0
-152 26 0
152 -26 0
-153 27 0
153 -27 0
157 158 0
-157 -12 0
-157 -28 0
-157 69 0
-157 53 0
-158 -13 0
-158 -37 0
-158 78 0
-158 54 0
156 0
