p cnf 162 67
1 0
2 0
3 0
4 0
5 0
6 0
7 0
8 0
9 0
10 0
-15 0
-51 0
10 51 0
11 60 0
12 69 0
13 78 0
14 87 0
15 96 0
16 105 0
17 114 0
18 123 0
20 0
-25 0
-61 0
19 52 0
20 61 0
21 70 0
22 79 0
23 88 0
24 97 0
25 106 0
26 115 0
27 124 0
30 0
-35 0
-71 0
28 53 0
29 62 0
30 71 0
31 80 0
32 89 0
33 98 0
34 107 0
35 116 0
36 125 0
40 0
-45 0
-81 0
37 54 0
38 63 0
39 72 0
40 81 0
41 90 0
42 99 0
43 108 0
44 117 0
45 126 0
159 160 161 162 0
-159 50 0
-159 87 0
-160 53 0
-160 114 0
-161 54 0
-161 123 0
-162 52 0
-162 105 0
162 0
