p cnf 2557 19048
-124 -116 111 0
-117 111 -125 0
-118 111 -126 0
-119 -127 111 0
-117 -132 112 0
-118 112 -133 0
-119 112 -134 0
-116 -137 113 0
115 -114 -141 0
-114 116 -142 0
-116 -142 114 0
-114 119 -145 0
-118 115 -148 0
-117 -118 153 0
-120 124 -131 0
-124 -120 131 0
-124 120 -131 0
-132 -120 125 0
-120 132 -125 0
-132 120 -125 0
-120 126 -133 0
-126 120 -133 0
-127 -134 120 0
-124 -137 121 0
-138 121 -125 0
121 -126 -139 0
-127 -140 121 0
123 -122 -141 0
124 -122 -142 0
-124 -142 122 0
-143 -125 122 0
127 -145 -122 0
-127 -145 122 0
-123 -125 147 0
-124 150 -125 0
-124 -127 152 0
-153 126 -125 0
-126 153 -125 0
-127 -126 155 0
-137 128 -131 0
-132 -138 128 0
128 -139 -133 0
-140 128 -134 0
130 -129 -141 0
-142 131 -129 0
129 -142 -131 0
-132 -129 143 0
-132 129 -143 0
134 -145 -129 0
-145 -134 129 0
132 -130 -147 0
-134 152 -131 0
-153 -132 133 0
-132 153 -133 0
-153 132 -133 0
-132 154 -134 0
-134 155 -133 0
136 -135 -141 0
137 -142 -135 0
-137 -135 142 0
-138 -135 143 0
-138 135 -143 0
144 -135 -139 0
-140 -145 135 0
-138 -137 150 0
-137 -140 152 0
-153 -138 139 0
-138 -139 153 0
-154 -138 140 0
-138 -140 154 0
-154 -140 138 0
-140 -139 155 0
-155 -140 139 0
142 -146 -141 0
147 -143 -141 0
144 -148 -141 0
149 -145 -141 0
-156 -166 158 0
-158 -166 156 0
-156 -167 159 0
-156 -159 167 0
-156 -160 168 0
-156 -169 161 0
-161 -169 156 0
-156 -170 162 0
-162 -170 156 0
-156 -171 163 0
-171 -163 156 0
-156 -172 164 0
-156 -164 172 0
-172 -164 156 0
-157 159 -174 0
-157 -175 160 0
-157 -160 175 0
-161 -176 157 0
-157 -177 162 0
-162 -177 157 0
-157 -178 163 0
-157 -163 178 0
-178 157 -163 0
-157 -179 164 0
-157 -164 179 0
-179 -164 157 0
-180 -159 158 0
-181 -160 158 0
-161 -182 158 0
-158 -162 183 0
-158 -163 184 0
-184 -163 158 0
-158 -164 185 0
-185 -164 158 0
-159 -160 186 0
-161 187 -159 0
-162 -159 188 0
-159 -163 189 0
-164 -159 190 0
-191 -160 161 0
-161 191 -160 0
-161 -191 160 0
-162 -160 192 0
-162 -192 160 0
-193 -160 163 0
-160 -163 193 0
-193 -163 160 0
-194 -160 164 0
-164 -160 194 0
-161 -195 162 0
-161 -162 195 0
-162 -195 161 0
-161 -196 163 0
-161 -163 196 0
-196 -163 161 0
-161 -197 164 0
-161 -164 197 0
-164 -197 161 0
-162 -198 163 0
-162 -163 198 0
-198 -163 162 0
-162 -199 164 0
-162 -164 199 0
-199 -164 162 0
-200 -163 164 0
-164 -163 200 0
-200 -164 163 0
-166 -165 173 0
-173 -166 165 0
-165 -174 167 0
-167 -165 174 0
-168 -165 175 0
-165 169 -176 0
-165 -169 176 0
-176 -169 165 0
-177 -165 170 0
-165 -170 177 0
-178 -165 171 0
-171 -165 178 0
-171 -178 165 0
-179 -165 172 0
-172 -165 179 0
-179 -172 165 0
-180 -166 167 0
-180 -167 166 0
-181 -166 168 0
-181 -168 166 0
-166 -169 182 0
-182 -169 166 0
-166 -170 183 0
-183 -170 166 0
-171 -166 184 0
-184 -171 166 0
-172 -166 185 0
-168 -167 186 0
-167 -169 187 0
-187 -169 167 0
-167 -188 170 0
-188 -170 167 0
-189 -167 171 0
-171 -167 189 0
-171 -189 167 0
-172 -167 190 0
-172 -190 167 0
-168 -191 169 0
-168 -169 191 0
-191 -169 168 0
-168 -170 192 0
-192 -170 168 0
-171 -168 193 0
-171 -193 168 0
-168 -172 194 0
-194 -172 168 0
-195 -169 170 0
195 -170 -169 0
-195 169 -170 0
-196 -169 171 0
-171 196 -169 0
-196 -171 169 0
-197 -169 172 0
-172 -197 169 0
-198 -170 171 0
-171 -170 198 0
-171 -198 170 0
-199 -170 172 0
-172 -170 199 0
-199 -172 170 0
-171 -200 172 0
-200 -172 171 0
-173 -180 174 0
-173 -181 175 0
-173 -175 181 0
-173 -182 176 0
-173 -176 182 0
-182 -176 173 0
-173 -183 177 0
-173 -177 183 0
-183 -177 173 0
-173 -178 184 0
-184 -178 173 0
-173 -179 185 0
-185 -179 173 0
-175 -174 186 0
-176 -174 187 0
-187 -176 174 0
-177 -174 188 0
-177 -188 174 0
-178 -174 189 0
-178 -189 174 0
-179 -190 174 0
-191 -175 176 0
-176 -175 191 0
-191 -176 175 0
-192 -175 177 0
-177 -175 192 0
-177 -192 175 0
-193 -175 178 0
-178 -175 193 0
-178 -193 175 0
-179 -194 175 0
-195 -176 177 0
-177 195 -176 0
-195 -177 176 0
-196 -176 178 0
-178 196 -176 0
-196 -178 176 0
-197 -176 179 0
-179 197 -176 0
-179 -197 176 0
-177 -198 178 0
-177 -178 198 0
-178 -198 177 0
-199 -177 179 0
-177 -179 199 0
-199 -179 177 0
-178 -200 179 0
-179 -200 178 0
-181 -180 186 0
-180 -187 182 0
-180 -182 187 0
-187 -182 180 0
-183 -180 188 0
-189 -180 184 0
-184 -180 189 0
-190 -180 185 0
-181 -191 182 0
-181 -182 191 0
-191 -182 181 0
-181 -192 183 0
-183 -181 192 0
-183 -192 181 0
-193 -181 184 0
-184 -181 193 0
-185 -194 181 0
-195 -182 183 0
-183 195 -182 0
-183 -195 182 0
-196 -182 184 0
-184 -196 182 0
-197 -182 185 0
-183 -198 184 0
-183 -184 198 0
-184 -198 183 0
-183 -199 185 0
-183 -185 199 0
-185 -199 183 0
-184 -200 185 0
-184 -185 200 0
-185 -200 184 0
-191 -187 186 0
-192 -188 186 0
-190 -194 186 0
-195 -187 188 0
195 -188 -187 0
-195 -188 187 0
-196 -187 189 0
-189 196 -187 0
-196 -189 187 0
-197 -187 190 0
-190 197 -187 0
-198 -188 189 0
-189 -188 198 0
-198 -189 188 0
-199 -188 190 0
-199 -190 188 0
-200 -189 190 0
-190 -189 200 0
-190 -200 189 0
-195 -191 192 0
-191 -192 195 0
-195 -192 191 0
-196 -191 193 0
-193 -191 196 0
-196 -193 191 0
-197 -191 194 0
-194 -197 191 0
-198 -192 193 0
-193 -192 198 0
-193 -198 192 0
-199 -192 194 0
-194 -192 199 0
-199 -194 192 0
-193 -200 194 0
-193 -194 200 0
-194 -200 193 0
-195 -198 196 0
-195 -196 198 0
-196 -198 195 0
-195 -199 197 0
-195 -197 199 0
-199 -197 195 0
-196 -200 197 0
-196 -197 200 0
-200 -197 196 0
-200 -198 199 0
-199 -198 200 0
-199 -200 198 0
-210 201 -202 0
-211 -201 203 0
211 -201 -203 0
-211 201 -203 0
-201 -212 204 0
-201 -204 212 0
-212 -204 201 0
-201 -213 205 0
-201 -205 213 0
-213 201 -205 0
-201 -214 206 0
-201 -206 214 0
-214 -206 201 0
-215 -201 207 0
-201 215 -207 0
-215 201 -207 0
-216 -201 208 0
-201 216 -208 0
-216 201 -208 0
-217 -201 209 0
-201 217 -209 0
-217 201 -209 0
218 -202 -203 0
202 -218 -203 0
-204 -202 219 0
-220 -202 205 0
-205 -202 220 0
202 -205 -220 0
-221 -202 206 0
-206 221 -202 0
202 -206 -221 0
-222 -202 207 0
-202 222 -207 0
-202 -223 208 0
-202 -208 223 0
202 -223 -208 0
-224 -202 209 0
-224 202 -209 0
-225 -203 204 0
-204 -203 225 0
-204 -225 203 0
-226 -203 205 0
-205 -226 203 0
-227 -203 206 0
-206 227 -203 0
-206 -227 203 0
-228 207 -203 0
228 -203 -207 0
-228 203 -207 0
-229 -203 208 0
-203 -208 229 0
-229 203 -208 0
-230 -203 209 0
230 -209 -203 0
203 -230 -209 0
-205 -204 231 0
-204 -232 206 0
-206 -204 232 0
-206 -232 204 0
-204 -233 207 0
-204 233 -207 0
-233 204 -207 0
-204 -234 208 0
-204 -208 234 0
204 -234 -208 0
-204 -235 209 0
-204 235 -209 0
-235 -209 204 0
-205 -236 206 0
-206 -205 236 0
-206 -236 205 0
-205 -237 207 0
-205 237 -207 0
-237 205 -207 0
-205 -238 208 0
-205 -208 238 0
-238 205 -208 0
-205 -239 209 0
-205 239 -209 0
-239 -209 205 0
-240 -206 207 0
-206 240 -207 0
-240 206 -207 0
-241 -206 208 0
-206 241 -208 0
-241 -208 206 0
-242 -206 209 0
-206 242 -209 0
-242 -209 206 0
-243 208 -207 0
243 -208 -207 0
-243 207 -208 0
-244 209 -207 0
-209 244 -207 0
-244 -209 207 0
-245 -208 209 0
245 -209 -208 0
-245 -209 208 0
211 -210 -218 0
210 -211 -218 0
-210 -212 219 0
210 -212 -219 0
-210 -213 220 0
210 -213 -220 0
-210 214 -221 0
-210 -214 221 0
210 -214 -221 0
-210 215 -222 0
-210 -215 222 0
210 -215 -222 0
-210 216 -223 0
-210 -216 223 0
210 -216 -223 0
-210 217 -224 0
-210 -217 224 0
210 -217 -224 0
-211 -225 212 0
-211 -212 225 0
-211 -226 213 0
-211 -213 226 0
211 -213 -226 0
-211 214 -227 0
-211 -214 227 0
211 -214 -227 0
-211 215 -228 0
-211 -215 228 0
211 -215 -228 0
-211 216 -229 0
-211 -216 229 0
211 -216 -229 0
-211 217 -230 0
-211 -217 230 0
211 -217 -230 0
-212 -213 231 0
-212 -214 232 0
-214 -232 212 0
-212 215 -233 0
-215 -212 233 0
-215 -233 212 0
-212 -234 216 0
-212 -216 234 0
-216 212 -234 0
-212 -235 217 0
-217 -212 235 0
-217 -235 212 0
-213 214 -236 0
-214 -236 213 0
-213 215 -237 0
-215 -213 237 0
-215 -237 213 0
-213 216 -238 0
-216 -213 238 0
-216 -238 213 0
-213 -239 217 0
-217 -213 239 0
-217 -239 213 0
-214 -240 215 0
-215 -214 240 0
-215 -240 214 0
-214 -241 216 0
-214 -216 241 0
-216 -241 214 0
-242 -214 217 0
-217 -214 242 0
-242 -217 214 0
-215 216 -243 0
-215 -216 243 0
-216 215 -243 0
-215 -244 217 0
-215 -217 244 0
-217 -244 215 0
-216 217 -245 0
-217 -216 245 0
-217 216 -245 0
-225 -218 219 0
-219 -218 225 0
-225 -219 218 0
-226 -218 220 0
-220 -218 226 0
-226 -220 218 0
-218 -227 221 0
-218 -221 227 0
-227 -221 218 0
-218 -228 222 0
-218 -222 228 0
-222 218 -228 0
-218 -229 223 0
-218 -223 229 0
218 -223 -229 0
-218 -230 224 0
-218 -224 230 0
218 -230 -224 0
-220 -219 231 0
-219 221 -232 0
-219 -221 232 0
-232 -221 219 0
-219 222 -233 0
-219 -222 233 0
-233 -222 219 0
-219 -234 223 0
-219 -223 234 0
-234 -223 219 0
-235 -219 224 0
-219 -224 235 0
-235 -224 219 0
-236 -220 221 0
-220 -221 236 0
-236 -221 220 0
-220 -237 222 0
-220 -222 237 0
-237 -222 220 0
-220 -238 223 0
-220 -223 238 0
-238 -223 220 0
-239 -220 224 0
-220 -224 239 0
-239 -224 220 0
-240 -221 222 0
240 -222 -221 0
-240 -222 221 0
-241 -221 223 0
241 -221 -223 0
-241 -223 221 0
-242 -221 224 0
242 -221 -224 0
-242 -224 221 0
-222 -243 223 0
-222 243 -223 0
-223 -243 222 0
-244 -222 224 0
-222 -224 244 0
-244 -224 222 0
-223 -245 224 0
-224 -223 245 0
-224 -245 223 0
-226 -225 231 0
-225 -232 227 0
-225 -227 232 0
-232 -227 225 0
-225 -233 228 0
-225 -228 233 0
-233 -228 225 0
-225 -234 229 0
-225 -229 234 0
-234 -229 225 0
-235 -225 230 0
-225 -230 235 0
-235 -230 225 0
-236 -226 227 0
-226 -227 236 0
-236 -227 226 0
-226 -237 228 0
-226 237 -228 0
-237 -228 226 0
-226 -238 229 0
-226 -229 238 0
-238 -229 226 0
-239 -226 230 0
-226 -230 239 0
-239 -230 226 0
-240 -227 228 0
240 -227 -228 0
-240 -228 227 0
-241 -227 229 0
241 -227 -229 0
-241 -229 227 0
-242 -227 230 0
242 -227 -230 0
-242 -230 227 0
-228 -243 229 0
-228 243 -229 0
-243 228 -229 0
-244 -228 230 0
-230 244 -228 0
-244 228 -230 0
-245 -229 230 0
245 -230 -229 0
-230 -245 229 0
-236 -232 231 0
-237 -233 231 0
-238 -234 231 0
-239 -235 231 0
-240 -232 233 0
240 -233 -232 0
-240 -233 232 0
-241 -232 234 0
241 -234 -232 0
-241 -234 232 0
-242 -232 235 0
242 -235 -232 0
-242 -235 232 0
-233 -243 234 0
-234 -233 243 0
-234 -243 233 0
-244 -233 235 0
-235 -233 244 0
-244 -235 233 0
-234 235 -245 0
-235 -234 245 0
-235 -245 234 0
-240 -236 237 0
-236 240 -237 0
-240 -237 236 0
-241 -236 238 0
-236 241 -238 0
-241 -238 236 0
-242 -236 239 0
242 -239 -236 0
-242 -239 236 0
-237 -243 238 0
-238 -237 243 0
-238 237 -243 0
-244 -237 239 0
-239 -237 244 0
-244 -239 237 0
-238 239 -245 0
-239 -238 245 0
-239 -245 238 0
-240 241 -243 0
-241 -240 243 0
-241 240 -243 0
-244 -240 242 0
-242 -240 244 0
-242 -244 240 0
-241 242 -245 0
-242 -241 245 0
-242 241 -245 0
-245 244 -243 0
-244 245 -243 0
-244 243 -245 0
-246 -255 247 0
-247 -246 255 0
-247 -255 246 0
-256 -246 248 0
-246 256 -248 0
-256 246 -248 0
-246 -257 249 0
-246 -249 257 0
-249 -257 246 0
-246 -258 250 0
-246 -250 258 0
246 -250 -258 0
-246 -259 251 0
-246 259 -251 0
-259 246 -251 0
-246 -260 252 0
-246 260 -252 0
-260 246 -252 0
-246 -261 253 0
-246 261 -253 0
-261 246 -253 0
-246 -262 254 0
-246 262 -254 0
-262 246 -254 0
-247 248 -263 0
-249 -264 247 0
-247 -265 250 0
-247 -250 265 0
-250 -265 247 0
-247 -266 251 0
-247 266 -251 0
-266 247 -251 0
-247 -267 252 0
-247 267 -252 0
-267 -252 247 0
-247 -268 253 0
-247 268 -253 0
-268 247 -253 0
-247 -269 254 0
-247 269 -254 0
-269 247 -254 0
-270 -248 249 0
-249 -248 270 0
-249 -270 248 0
-271 -248 250 0
-250 -248 271 0
-250 -271 248 0
251 -272 -248 0
-248 272 -251 0
-272 248 -251 0
-273 -248 252 0
273 -248 -252 0
-273 248 -252 0
-274 -248 253 0
-248 274 -253 0
248 -274 -253 0
-275 -248 254 0
275 -248 -254 0
-275 248 -254 0
-250 -249 276 0
-249 -277 251 0
-249 277 -251 0
-277 249 -251 0
-249 -278 252 0
-249 -252 278 0
-278 -252 249 0
-249 -279 253 0
-249 279 -253 0
249 -279 -253 0
-249 -280 254 0
-249 280 -254 0
-280 -254 249 0
-250 -281 251 0
-250 281 -251 0
-281 250 -251 0
-250 -282 252 0
-250 282 -252 0
-282 -252 250 0
-250 -283 253 0
-250 283 -253 0
250 -283 -253 0
-250 -284 254 0
-250 284 -254 0
-284 -254 250 0
-285 -251 252 0
285 -252 -251 0
-285 -252 251 0
-286 253 -251 0
286 -253 -251 0
-286 251 -253 0
-287 254 -251 0
287 -254 -251 0
-287 251 -254 0
-288 -252 253 0
288 -252 -253 0
-288 -253 252 0
-289 -252 254 0
289 -252 -254 0
-289 -254 252 0
-290 254 -253 0
290 -254 -253 0
-290 253 -254 0
256 -263 -255 0
-255 -257 264 0
255 -257 -264 0
-255 258 -265 0
-258 -255 265 0
-258 255 -265 0
-266 259 -255 0
-259 266 -255 0
-259 -266 255 0
-267 260 -255 0
-260 -255 267 0
-260 -267 255 0
-255 261 -268 0
-255 -261 268 0
255 -261 -268 0
-269 -255 262 0
-262 -255 269 0
-262 -269 255 0
-256 -257 270 0
-256 -258 271 0
-256 259 -272 0
-256 -259 272 0
-259 256 -272 0
-256 260 -273 0
-256 -260 273 0
-260 256 -273 0
-256 261 -274 0
-256 -261 274 0
256 -261 -274 0
-256 262 -275 0
-256 -262 275 0
-262 256 -275 0
-258 -257 276 0
259 -277 -257 0
-259 -257 277 0
-259 -277 257 0
-260 -257 278 0
-257 261 -279 0
-261 -257 279 0
-280 262 -257 0
-262 -257 280 0
-262 -280 257 0
259 -281 -258 0
-259 -258 281 0
-259 -281 258 0
260 -282 -258 0
-260 -258 282 0
-260 -282 258 0
261 -258 -283 0
-261 258 -283 0
-284 -258 262 0
-262 -258 284 0
-262 -284 258 0
-259 -285 260 0
-259 -260 285 0
-260 -285 259 0
-259 -286 261 0
-259 286 -261 0
-286 259 -261 0
-287 -259 262 0
-259 -262 287 0
-287 -262 259 0
-260 261 -288 0
-260 -261 288 0
260 -261 -288 0
-260 262 -289 0
-260 -262 289 0
-262 260 -289 0
262 -261 -290 0
-262 -261 290 0
-262 261 -290 0
-263 -270 264 0
-263 -264 270 0
-263 -265 271 0
263 -271 -265 0
-263 266 -272 0
-266 -263 272 0
263 -266 -272 0
-263 -273 267 0
-267 -263 273 0
263 -267 -273 0
-263 -274 268 0
-263 -268 274 0
263 -274 -268 0
-263 -275 269 0
263 -269 -275 0
-265 -264 276 0
-266 -264 277 0
-266 -277 264 0
-278 -264 267 0
-267 -264 278 0
-264 -268 279 0
-280 -264 269 0
-269 280 -264 0
266 -281 -265 0
-266 -265 281 0
-266 -281 265 0
-282 -265 267 0
-267 282 -265 0
-267 -282 265 0
-265 -283 268 0
-265 -268 283 0
265 -283 -268 0
-284 -265 269 0
-269 -265 284 0
-269 -284 265 0
-285 -266 267 0
-267 -266 285 0
-285 -267 266 0
-286 -266 268 0
-266 286 -268 0
-286 266 -268 0
-287 -266 269 0
-269 -266 287 0
-287 -269 266 0
-267 -288 268 0
-267 288 -268 0
267 -288 -268 0
-267 -289 269 0
-269 -267 289 0
-269 -289 267 0
-290 -268 269 0
-269 -268 290 0
-269 -290 268 0
-271 -270 276 0
-270 -277 272 0
-270 -272 277 0
-277 -272 270 0
-270 -278 273 0
-270 -273 278 0
-278 -273 270 0
-270 -279 274 0
-270 -274 279 0
-274 -279 270 0
-280 -270 275 0
-270 -275 280 0
-280 -275 270 0
-281 -271 272 0
-271 -272 281 0
-281 -272 271 0
-271 -282 273 0
-271 -273 282 0
-282 -273 271 0
-271 -283 274 0
-271 -274 283 0
-274 -283 271 0
-284 -271 275 0
-271 -275 284 0
-284 -275 271 0
-285 -272 273 0
-272 285 -273 0
-285 -273 272 0
-286 -272 274 0
-272 286 -274 0
-286 -274 272 0
-287 -272 275 0
287 -272 -275 0
-287 -275 272 0
-288 -273 274 0
-274 288 -273 0
-288 273 -274 0
-289 -273 275 0
-275 -273 289 0
-289 -275 273 0
-290 -274 275 0
-275 -274 290 0
-290 -275 274 0
-281 -277 276 0
-282 -278 276 0
-283 -279 276 0
-284 -280 276 0
-285 -277 278 0
-278 -277 285 0
-285 -278 277 0
-286 -277 279 0
-277 286 -279 0
-286 -279 277 0
-287 -277 280 0
287 -280 -277 0
-287 -280 277 0
-278 -288 279 0
-278 -279 288 0
-288 -279 278 0
-278 -289 280 0
-280 -278 289 0
-280 -289 278 0
-290 -279 280 0
-280 290 -279 0
-280 -290 279 0
-285 -281 282 0
-281 285 -282 0
-285 -282 281 0
-286 -281 283 0
-281 286 -283 0
-286 -283 281 0
-287 -281 284 0
287 -284 -281 0
-287 -284 281 0
-282 -288 283 0
-282 -283 288 0
282 -288 -283 0
-282 -289 284 0
-284 -282 289 0
-284 -289 282 0
-290 -283 284 0
-284 -283 290 0
-284 -290 283 0
-285 286 -288 0
-286 -285 288 0
-286 285 -288 0
-285 287 -289 0
-287 -285 289 0
-287 285 -289 0
-286 287 -290 0
-287 -286 290 0
-287 286 -290 0
-290 -288 289 0
-289 -288 290 0
-290 -289 288 0
-303 291 -295 0
-291 304 -296 0
-291 -305 297 0
-291 305 -297 0
-305 291 -297 0
-291 306 -298 0
-306 291 -298 0
-291 -307 299 0
-291 307 -299 0
-307 291 -299 0
-294 -309 292 0
-295 -310 292 0
-311 -296 292 0
-292 -312 297 0
-292 312 -297 0
-312 -297 292 0
-313 292 -298 0
-292 -314 299 0
-292 314 -299 0
-314 -299 292 0
-294 -315 293 0
-295 -316 293 0
-317 -296 293 0
-293 -318 297 0
-293 318 -297 0
-318 -297 293 0
-293 -319 298 0
-293 319 -298 0
-319 -298 293 0
-293 -320 299 0
-320 -299 293 0
-295 -294 321 0
-322 -294 296 0
-294 322 -296 0
-294 -323 297 0
-294 -297 323 0
-323 -297 294 0
-294 -324 298 0
-294 -298 324 0
-324 294 -298 0
-294 -325 299 0
-294 325 -299 0
-325 -299 294 0
-326 -295 296 0
-295 -296 326 0
-295 -327 297 0
-295 327 -297 0
-327 -297 295 0
-295 -328 298 0
-295 -298 328 0
-295 -329 299 0
-295 329 -299 0
-329 -299 295 0
-330 -296 297 0
330 -297 -296 0
-330 -297 296 0
-331 -296 298 0
331 -296 -298 0
-331 -298 296 0
-332 -296 299 0
332 -296 -299 0
-332 -299 296 0
-333 -297 298 0
333 -297 -298 0
-333 -298 297 0
-334 -297 299 0
334 -297 -299 0
-334 -299 297 0
-335 -298 299 0
335 -299 -298 0
-335 -299 298 0
-304 -311 300 0
-300 305 -312 0
-300 -305 312 0
-305 300 -312 0
-300 306 -313 0
-306 300 -313 0
-300 307 -314 0
-300 -307 314 0
-307 300 -314 0
-301 -317 304 0
-304 -317 301 0
-301 305 -318 0
-301 -305 318 0
-305 301 -318 0
-306 301 -319 0
-301 307 -320 0
-301 -307 320 0
-307 301 -320 0
-302 305 -323 0
-305 302 -323 0
-306 -302 324 0
-306 302 -324 0
-302 307 -325 0
-307 302 -325 0
-303 305 -327 0
-303 -305 327 0
-305 303 -327 0
-303 306 -328 0
-306 303 -328 0
-303 -307 329 0
-307 303 -329 0
-304 -330 305 0
-304 -305 330 0
-305 -330 304 0
-304 -331 306 0
-304 -306 331 0
-306 -331 304 0
-304 -332 307 0
-304 -307 332 0
-307 -332 304 0
-305 306 -333 0
-305 -306 333 0
-306 305 -333 0
-305 307 -334 0
-305 -307 334 0
-307 305 -334 0
-306 -335 307 0
-306 -307 335 0
-307 -335 306 0
-308 -317 311 0
-311 -317 308 0
-318 308 -312 0
-308 -319 313 0
-308 319 -313 0
-319 -313 308 0
-308 -320 314 0
-308 320 -314 0
308 -320 -314 0
-311 -309 322 0
312 -323 -309 0
-309 -312 323 0
-312 309 -323 0
-325 314 -309 0
-314 309 -325 0
-311 -326 310 0
312 -327 -310 0
-310 327 -312 0
310 -327 -312 0
-328 -310 313 0
-313 -310 328 0
310 -328 -313 0
-329 314 -310 0
-314 -329 310 0
-311 -330 312 0
-311 330 -312 0
-330 311 -312 0
-311 -331 313 0
-311 331 -313 0
-331 311 -313 0
-311 -332 314 0
-311 332 -314 0
-332 311 -314 0
-312 -333 313 0
333 -313 -312 0
312 -333 -313 0
-334 314 -312 0
-314 334 -312 0
-314 312 -334 0
-335 -313 314 0
-313 -314 335 0
-314 -335 313 0
-317 -315 322 0
-315 319 -324 0
-319 -315 324 0
-320 -315 325 0
315 -320 -325 0
-317 -316 326 0
318 -316 -327 0
-319 -316 328 0
316 -319 -328 0
320 -316 -329 0
-316 -320 329 0
316 -320 -329 0
-317 -330 318 0
-317 330 -318 0
-330 317 -318 0
-317 -331 319 0
-317 331 -319 0
-331 317 -319 0
-317 -332 320 0
-317 332 -320 0
-332 317 -320 0
319 -318 -333 0
-319 -318 333 0
318 -319 -333 0
-318 320 -334 0
-320 -318 334 0
-320 318 -334 0
-335 -319 320 0
-319 -320 335 0
-320 -335 319 0
-322 -326 321 0
-327 -323 321 0
-328 -324 321 0
-329 -325 321 0
-322 -330 323 0
-322 330 -323 0
-330 -323 322 0
-322 -331 324 0
-322 331 -324 0
-331 -324 322 0
-322 -332 325 0
-332 -325 322 0
-333 -323 324 0
-324 333 -323 0
-333 -324 323 0
-334 325 -323 0
334 -325 -323 0
-325 -334 323 0
-335 -324 325 0
335 -324 -325 0
-335 -325 324 0
-326 -330 327 0
-326 330 -327 0
-330 -327 326 0
-326 -331 328 0
-331 -328 326 0
-326 -332 329 0
-332 -329 326 0
-327 -333 328 0
333 -328 -327 0
327 -328 -333 0
329 -327 -334 0
-329 -334 327 0
-335 -328 329 0
-329 -328 335 0
-335 -329 328 0
-330 331 -333 0
-331 -330 333 0
-331 330 -333 0
-330 332 -334 0
-332 -330 334 0
-332 330 -334 0
-331 -335 332 0
-332 -331 335 0
-332 -335 331 0
-333 -335 334 0
-334 -333 335 0
-335 -334 333 0
-345 -336 337 0
-337 345 -336 0
-345 336 -337 0
-346 -336 338 0
-338 346 -336 0
-346 336 -338 0
-347 -336 339 0
-339 347 -336 0
-347 -339 336 0
-336 340 -348 0
-336 348 -340 0
-348 336 -340 0
-349 -336 341 0
-341 349 -336 0
-341 -349 336 0
-350 -336 342 0
-342 350 -336 0
-342 -350 336 0
-351 -336 343 0
351 -343 -336 0
336 -351 -343 0
-352 -336 344 0
-344 352 -336 0
-344 -352 336 0
-353 -337 338 0
-337 353 -338 0
-353 -338 337 0
-354 -337 339 0
-339 -337 354 0
-354 -339 337 0
-355 -337 340 0
-337 355 -340 0
-355 -340 337 0
-337 -356 341 0
-341 -337 356 0
-341 -356 337 0
-337 -357 342 0
-342 -337 357 0
-342 -357 337 0
-337 -358 343 0
-337 358 -343 0
-358 -343 337 0
-337 -359 344 0
-344 -337 359 0
-344 -359 337 0
-360 -338 339 0
-339 -338 360 0
-360 -339 338 0
-338 340 -361 0
-338 361 -340 0
-361 -340 338 0
-362 -338 341 0
-341 362 -338 0
-341 -362 338 0
-363 -338 342 0
-342 -338 363 0
-342 -363 338 0
-364 -338 343 0
-343 -338 364 0
-364 -343 338 0
-365 -338 344 0
-344 -338 365 0
-344 -365 338 0
-339 366 -340 0
-366 -340 339 0
-367 -339 341 0
-341 -339 367 0
-341 -367 339 0
-339 -368 342 0
-342 -339 368 0
-342 -368 339 0
-339 -369 343 0
-339 -343 369 0
-369 -343 339 0
-370 -339 344 0
-344 -339 370 0
-370 -344 339 0
-371 -340 341 0
-341 371 -340 0
-341 -371 340 0
-372 -340 342 0
-342 -340 372 0
-342 -372 340 0
-373 -340 343 0
-343 -340 373 0
-343 340 -373 0
-374 -340 344 0
-344 -340 374 0
-344 -374 340 0
-341 -375 342 0
-341 -342 375 0
-342 -375 341 0
-341 -376 343 0
-341 376 -343 0
-376 -343 341 0
-341 -377 344 0
-341 -344 377 0
-344 -377 341 0
-342 -378 343 0
-342 -343 378 0
-378 -343 342 0
-379 -342 344 0
-342 -344 379 0
-379 -344 342 0
-380 -343 344 0
-344 -343 380 0
-344 -380 343 0
-353 -345 346 0
-345 -346 353 0
-353 345 -346 0
-354 -345 347 0
-347 -345 354 0
-347 -354 345 0
-345 -355 348 0
-345 -348 355 0
-355 345 -348 0
-345 -356 349 0
-345 356 -349 0
-356 -349 345 0
-345 -357 350 0
-345 -350 357 0
-357 -350 345 0
-345 -358 351 0
-345 -351 358 0
-358 -351 345 0
-345 -359 352 0
-345 -352 359 0
-352 -359 345 0
-360 347 -346 0
-347 -346 360 0
-360 -347 346 0
-361 348 -346 0
-346 -348 361 0
-361 346 -348 0
349 -362 -346 0
362 -349 -346 0
-349 -362 346 0
-363 350 -346 0
-350 -346 363 0
-363 -350 346 0
351 -364 -346 0
-351 -346 364 0
-351 -364 346 0
-365 352 -346 0
-352 -346 365 0
-365 -352 346 0
-347 -366 348 0
-347 366 -348 0
-347 -367 349 0
-347 367 -349 0
-367 -349 347 0
-347 -368 350 0
-347 368 -350 0
-368 -350 347 0
-347 -369 351 0
-347 -351 369 0
-351 -369 347 0
-347 -370 352 0
-347 -352 370 0
-370 -352 347 0
349 -371 -348 0
-349 -348 371 0
-349 -371 348 0
350 -372 -348 0
-350 -348 372 0
-350 -372 348 0
351 -373 -348 0
-351 -348 373 0
348 -351 -373 0
-374 352 -348 0
-352 -348 374 0
-374 -352 348 0
-375 -349 350 0
-350 -349 375 0
-375 349 -350 0
-376 -349 351 0
-351 -349 376 0
-376 349 -351 0
-377 -349 352 0
377 -352 -349 0
-377 349 -352 0
-378 -350 351 0
-351 -350 378 0
-378 -351 350 0
-379 352 -350 0
-352 -350 379 0
-379 350 -352 0
-351 -380 352 0
-352 -351 380 0
-352 -380 351 0
-360 -353 354 0
-353 -354 360 0
-360 -354 353 0
-353 -355 361 0
-353 356 -362 0
-353 362 -356 0
-356 -362 353 0
-353 -363 357 0
-353 -357 363 0
-363 -357 353 0
-353 -364 358 0
-353 -358 364 0
-358 -364 353 0
-353 -365 359 0
-353 -359 365 0
-365 -359 353 0
-354 -367 356 0
-354 367 -356 0
-367 -356 354 0
-354 -368 357 0
-354 368 -357 0
-368 -357 354 0
-354 -369 358 0
-354 -358 369 0
-358 -369 354 0
-354 -370 359 0
-354 -359 370 0
-370 -359 354 0
-355 356 -371 0
-355 -356 371 0
-356 -371 355 0
-355 -372 357 0
-355 -357 372 0
-357 -372 355 0
-355 -373 358 0
-355 -358 373 0
-358 355 -373 0
-355 -374 359 0
-355 -359 374 0
-374 -359 355 0
-375 -356 357 0
-357 -356 375 0
-375 356 -357 0
-376 -356 358 0
-358 -356 376 0
-376 356 -358 0
-377 -356 359 0
377 -356 -359 0
-377 356 -359 0
-378 -357 358 0
-358 -357 378 0
-378 357 -358 0
-379 -357 359 0
-357 -359 379 0
-379 -359 357 0
359 -358 -380 0
-358 -359 380 0
-380 -359 358 0
-360 -367 362 0
-360 367 -362 0
-367 -362 360 0
-360 -368 363 0
-360 368 -363 0
-368 -363 360 0
-360 -369 364 0
-360 -364 369 0
-369 -364 360 0
-360 -370 365 0
-360 -365 370 0
-370 -365 360 0
362 -371 -361 0
-371 -362 361 0
-372 -361 363 0
-363 -361 372 0
-373 -361 364 0
-364 -361 373 0
-364 -373 361 0
-365 -361 374 0
-375 -362 363 0
-363 -362 375 0
-375 362 -363 0
-376 -362 364 0
-364 -362 376 0
-376 362 -364 0
-377 -362 365 0
377 -365 -362 0
-377 362 -365 0
-378 -363 364 0
-363 -364 378 0
-378 -364 363 0
-379 -363 365 0
-365 -363 379 0
-379 -365 363 0
-380 -364 365 0
-365 -364 380 0
-365 -380 364 0
-366 367 -371 0
-367 -366 371 0
-366 -368 372 0
-366 -373 369 0
-366 -369 373 0
366 -369 -373 0
-366 -374 370 0
-370 -366 374 0
-367 -368 375 0
-375 -368 367 0
-367 -376 369 0
-367 -369 376 0
-376 367 -369 0
-367 -377 370 0
-367 -370 377 0
-370 -377 367 0
-378 -368 369 0
-368 -369 378 0
-378 368 -369 0
-379 -368 370 0
-370 -368 379 0
-379 -370 368 0
-380 -369 370 0
-370 -369 380 0
-370 -380 369 0
-375 -371 372 0
-371 375 -372 0
-375 -372 371 0
-376 -371 373 0
376 -371 -373 0
-376 -373 371 0
-377 -371 374 0
377 -374 -371 0
-377 -374 371 0
-378 -372 373 0
-373 -372 378 0
-378 -373 372 0
-379 -372 374 0
-374 -372 379 0
-379 -374 372 0
-380 -373 374 0
-374 -373 380 0
-374 -380 373 0
-378 -375 376 0
-376 -375 378 0
-378 -376 375 0
-379 -375 377 0
-375 -377 379 0
-379 -377 375 0
-376 377 -380 0
-376 -377 380 0
-377 -380 376 0
-378 -380 379 0
-379 -378 380 0
-379 -380 378 0
-390 -381 382 0
-382 390 -381 0
-382 -390 381 0
-381 -391 383 0
-381 391 -383 0
-383 -391 381 0
-392 -381 384 0
-384 392 -381 0
-384 -392 381 0
-393 385 -381 0
393 -381 -385 0
-393 381 -385 0
-394 -381 386 0
-386 394 -381 0
-386 -394 381 0
-395 -381 387 0
395 -381 -387 0
-395 -387 381 0
-381 -396 388 0
-381 396 -388 0
-396 381 -388 0
-397 -381 389 0
397 -381 -389 0
-397 -389 381 0
-382 -398 383 0
-382 398 -383 0
-398 -383 382 0
-382 -399 384 0
-384 -382 399 0
-384 -399 382 0
-382 385 -400 0
-382 400 -385 0
-400 -385 382 0
-382 -401 386 0
-382 -386 401 0
-386 -401 382 0
-382 -402 387 0
-382 402 -387 0
-402 -387 382 0
-382 -403 388 0
-382 403 -388 0
-403 -388 382 0
-382 -404 389 0
-382 404 -389 0
-404 -389 382 0
-405 -383 384 0
-384 -383 405 0
-384 -405 383 0
385 -406 -383 0
406 -383 -385 0
-406 -385 383 0
-407 -383 386 0
407 -386 -383 0
-386 -407 383 0
-408 -383 387 0
408 -383 -387 0
-408 -387 383 0
-383 -409 388 0
-383 409 -388 0
-409 -388 383 0
-410 -383 389 0
-383 -389 410 0
-410 -389 383 0
-384 -411 385 0
-384 411 -385 0
-411 -385 384 0
-384 -412 386 0
412 -384 -386 0
-386 -412 384 0
-384 -413 387 0
-384 413 -387 0
-413 -387 384 0
-384 -414 388 0
-384 -388 414 0
-414 -388 384 0
-384 -415 389 0
-384 -389 415 0
-415 -389 384 0
-416 -385 386 0
-386 -416 385 0
-417 -385 387 0
417 -387 -385 0
-387 385 -417 0
-418 -385 388 0
418 -388 -385 0
385 -418 -388 0
-419 -385 389 0
419 -389 -385 0
-389 385 -419 0
-386 -420 387 0
-386 420 -387 0
-420 -387 386 0
-386 -421 388 0
-386 421 -388 0
-421 -388 386 0
-386 -422 389 0
422 -386 -389 0
-422 -389 386 0
-423 -387 388 0
-387 -388 423 0
-423 -388 387 0
-387 -424 389 0
-389 -387 424 0
-389 -424 387 0
-425 -388 389 0
425 -389 -388 0
-425 -389 388 0
-398 -390 391 0
-390 -391 398 0
-398 390 -391 0
-399 -390 392 0
-392 -390 399 0
-399 -392 390 0
-390 -400 393 0
-393 -390 400 0
-393 390 -400 0
-390 394 -401 0
-390 401 -394 0
-394 -401 390 0
-390 -402 395 0
-390 -395 402 0
-395 -402 390 0
-390 -403 396 0
-390 -396 403 0
-403 390 -396 0
-390 -404 397 0
-390 -397 404 0
-397 -404 390 0
-405 392 -391 0
-392 -391 405 0
-405 -392 391 0
-406 -391 393 0
-393 -391 406 0
-393 391 -406 0
394 -407 -391 0
407 -394 -391 0
-394 -407 391 0
-408 -391 395 0
-395 -391 408 0
-395 -408 391 0
-391 396 -409 0
-391 -396 409 0
-409 -396 391 0
-410 -391 397 0
-397 -391 410 0
-410 -397 391 0
-392 -411 393 0
-393 -392 411 0
-393 392 -411 0
-392 -412 394 0
412 -392 -394 0
-412 -394 392 0
-392 -413 395 0
-392 413 -395 0
-395 -413 392 0
-392 -414 396 0
-392 -396 414 0
-414 392 -396 0
-392 -415 397 0
-392 -397 415 0
-397 -415 392 0
-393 394 -416 0
-393 416 -394 0
-394 -416 393 0
-393 395 -417 0
-393 417 -395 0
-395 -417 393 0
-393 396 -418 0
-393 -396 418 0
-396 393 -418 0
-393 397 -419 0
-393 419 -397 0
-397 -419 393 0
-420 -394 395 0
-395 -394 420 0
-420 -395 394 0
-421 -394 396 0
-394 421 -396 0
-421 394 -396 0
-422 -394 397 0
422 -397 -394 0
-422 -397 394 0
-423 -395 396 0
-395 -396 423 0
-423 -396 395 0
-395 397 -424 0
-397 -395 424 0
-397 395 -424 0
-425 -396 397 0
-397 -396 425 0
-425 -397 396 0
-405 -398 399 0
-399 -398 405 0
-405 -399 398 0
-398 -406 400 0
-398 -400 406 0
-406 -400 398 0
-398 401 -407 0
407 -398 -401 0
-407 -401 398 0
-398 -408 402 0
-398 -402 408 0
-408 -402 398 0
-398 -409 403 0
-398 -403 409 0
-403 398 -409 0
-398 -410 404 0
-398 -404 410 0
-410 -404 398 0
-399 -411 400 0
-399 -400 411 0
-411 -400 399 0
-399 -412 401 0
412 -399 -401 0
-412 -401 399 0
-399 402 -413 0
-399 413 -402 0
-413 -402 399 0
-399 -414 403 0
-399 -403 414 0
-414 -403 399 0
-399 -415 404 0
-399 -404 415 0
-415 -404 399 0
401 -416 -400 0
416 -401 -400 0
-416 -401 400 0
402 -400 -417 0
417 -402 -400 0
-402 -417 400 0
403 -400 -418 0
-403 -400 418 0
-403 -418 400 0
404 -400 -419 0
419 -404 -400 0
-404 -419 400 0
-420 -401 402 0
-402 -401 420 0
-420 401 -402 0
-421 -401 403 0
-403 -401 421 0
-421 401 -403 0
-422 -401 404 0
422 -404 -401 0
-422 401 -404 0
-423 -402 403 0
-403 -402 423 0
-423 402 -403 0
-402 -424 404 0
-404 -402 424 0
-404 -424 402 0
-425 -403 404 0
-404 -403 425 0
-425 -404 403 0
-405 -411 406 0
-405 -406 411 0
-411 -406 405 0
407 -405 -412 0
412 -405 -407 0
-412 -407 405 0
-405 408 -413 0
-405 413 -408 0
-413 -408 405 0
-405 -414 409 0
-405 -409 414 0
-414 -409 405 0
-405 -415 410 0
-405 -410 415 0
-410 -415 405 0
407 -416 -406 0
-416 -407 406 0
408 -406 -417 0
-408 -417 406 0
409 -406 -418 0
-406 -409 418 0
-409 -418 406 0
-406 -419 410 0
-410 419 -406 0
-410 -419 406 0
-420 -407 408 0
-408 -407 420 0
407 -420 -408 0
-421 -407 409 0
-407 421 -409 0
407 -421 -409 0
-422 -407 410 0
422 -410 -407 0
407 -422 -410 0
-423 -408 409 0
-408 -409 423 0
-423 -409 408 0
-408 -424 410 0
-410 -408 424 0
-410 -424 408 0
-425 -409 410 0
-410 -409 425 0
-425 -410 409 0
412 -416 -411 0
413 -411 -417 0
417 -413 -411 0
-413 -417 411 0
-411 -418 414 0
-414 -411 418 0
-414 -418 411 0
-411 -419 415 0
-415 419 -411 0
-415 -419 411 0
413 -420 -412 0
-412 -413 420 0
412 -420 -413 0
-421 -412 414 0
-412 -414 421 0
412 -421 -414 0
-422 -412 415 0
422 -412 -415 0
412 -422 -415 0
414 -423 -413 0
-414 -413 423 0
413 -423 -414 0
-413 -424 415 0
-415 -413 424 0
413 -415 -424 0
-425 -414 415 0
-415 -414 425 0
-425 -415 414 0
-420 417 -416 0
-416 420 -417 0
-420 416 -417 0
-421 -416 418 0
-421 416 -418 0
-422 419 -416 0
422 -416 -419 0
-422 416 -419 0
-423 418 -417 0
-417 -418 423 0
-423 417 -418 0
-424 419 -417 0
-419 -417 424 0
-419 417 -424 0
-425 419 -418 0
-419 -418 425 0
-425 418 -419 0
-423 -420 421 0
-421 -420 423 0
-423 -421 420 0
422 -420 -424 0
-422 -420 424 0
-422 420 -424 0
422 -425 -421 0
-422 -421 425 0
-425 -422 421 0
-425 -423 424 0
-423 -424 425 0
-425 -424 423 0
-426 -435 427 0
-427 -426 435 0
-427 -435 426 0
-426 -436 428 0
-426 436 -428 0
-436 426 -428 0
-426 -437 429 0
-426 437 -429 0
-437 426 -429 0
-426 -438 430 0
-426 -430 438 0
-430 -438 426 0
-426 -439 431 0
-426 -431 439 0
-439 -431 426 0
-426 -440 432 0
-432 -426 440 0
-432 -440 426 0
-426 -441 433 0
-433 -426 441 0
-433 -441 426 0
-426 -442 434 0
-434 -426 442 0
-434 -442 426 0
-427 -443 428 0
-427 443 -428 0
-443 427 -428 0
-427 -444 429 0
-427 444 -429 0
-444 -429 427 0
-427 -445 430 0
-427 -430 445 0
-430 -445 427 0
-427 -446 431 0
-427 -431 446 0
-431 -446 427 0
-427 -447 432 0
-432 -447 427 0
-427 -448 433 0
-433 -427 448 0
-427 -449 434 0
-450 429 -428 0
450 -429 -428 0
-450 -429 428 0
-451 430 -428 0
-430 451 -428 0
-430 -451 428 0
-452 431 -428 0
-431 452 -428 0
-431 -452 428 0
-453 -428 432 0
-432 453 -428 0
-432 -453 428 0
-454 433 -428 0
-433 -454 428 0
-455 434 -428 0
-434 455 -428 0
-434 -455 428 0
-430 -429 456 0
-431 -429 457 0
-457 -431 429 0
-458 -429 432 0
-432 -458 429 0
-459 -429 433 0
-433 -459 429 0
-460 -429 434 0
-434 -460 429 0
-430 -431 461 0
-430 -462 432 0
-433 -431 466 0
-433 -466 431 0
-431 -467 434 0
-443 -435 436 0
-436 -435 443 0
-443 -436 435 0
-444 437 -435 0
-437 -435 444 0
-444 -437 435 0
-435 -445 438 0
-438 -435 445 0
-438 435 -445 0
-435 -446 439 0
-439 -435 446 0
-439 -446 435 0
-447 440 -435 0
-440 -435 447 0
-440 -447 435 0
-448 -435 441 0
-441 -435 448 0
-448 -441 435 0
-449 -435 442 0
-442 -435 449 0
-449 -442 435 0
-450 437 -436 0
-437 -436 450 0
-450 -437 436 0
-451 -436 438 0
-438 -436 451 0
436 -438 -451 0
-452 -436 439 0
-439 -436 452 0
-439 -452 436 0
-453 440 -436 0
-440 -436 453 0
-453 -440 436 0
-454 -436 441 0
-441 -436 454 0
-454 -441 436 0
-455 -436 442 0
-442 -436 455 0
-455 -442 436 0
-456 -437 438 0
-438 -437 456 0
-456 -438 437 0
-457 -437 439 0
-439 -437 457 0
-457 -439 437 0
-458 440 -437 0
-440 458 -437 0
-458 -440 437 0
-459 -437 441 0
-441 -437 459 0
-459 -441 437 0
-460 -437 442 0
-442 -437 460 0
-442 -460 437 0
-439 -438 461 0
-438 440 -462 0
-440 -438 462 0
-440 -462 438 0
441 -438 -463 0
-438 -441 463 0
-441 -463 438 0
-438 -464 442 0
-442 -438 464 0
-442 -464 438 0
-465 -439 440 0
-465 -440 439 0
-439 -466 441 0
-439 -441 466 0
-466 -441 439 0
-439 -467 442 0
-442 -439 467 0
-442 -467 439 0
-468 -440 441 0
-440 -441 468 0
-468 -441 440 0
-469 -440 442 0
-442 -440 469 0
-469 -442 440 0
-470 -441 442 0
-442 -441 470 0
-470 -442 441 0
-450 -443 444 0
-444 -443 450 0
-450 -444 443 0
-443 -451 445 0
-443 -445 451 0
-451 -445 443 0
-443 -452 446 0
-443 -446 452 0
-452 -446 443 0
-453 -443 447 0
-447 -443 453 0
-453 -447 443 0
-454 -443 448 0
-448 -443 454 0
-454 -448 443 0
-455 -443 449 0
-449 -443 455 0
-455 -449 443 0
-456 -444 445 0
-444 -445 456 0
-456 -445 444 0
-457 -444 446 0
-444 -446 457 0
-457 -446 444 0
-458 -444 447 0
-447 458 -444 0
-458 -447 444 0
-459 -444 448 0
-448 -444 459 0
-459 -448 444 0
-460 -444 449 0
-449 -444 460 0
-449 -460 444 0
-446 -445 461 0
-462 -445 447 0
-447 -445 462 0
-447 -462 445 0
-463 -445 448 0
-448 -445 463 0
-448 -463 445 0
-464 -445 449 0
-449 -445 464 0
-449 -464 445 0
-465 -446 447 0
-447 465 -446 0
-447 -465 446 0
-448 -446 466 0
-448 -466 446 0
-467 -446 449 0
-449 -446 467 0
-449 -467 446 0
-468 -447 448 0
-447 -448 468 0
-468 -448 447 0
-469 -447 449 0
-449 -447 469 0
-469 -449 447 0
-470 -448 449 0
-449 -448 470 0
-470 -449 448 0
-456 -450 451 0
-450 -451 456 0
-456 -451 450 0
-457 -450 452 0
-450 -452 457 0
-457 -452 450 0
-458 -450 453 0
-453 458 -450 0
-458 -453 450 0
-459 -450 454 0
-454 -450 459 0
-459 -454 450 0
-460 -450 455 0
-455 -450 460 0
-455 -460 450 0
-451 -452 461 0
-462 -451 453 0
-453 -451 462 0
-453 -462 451 0
-463 -451 454 0
-454 -451 463 0
-454 -463 451 0
-464 -451 455 0
-455 -451 464 0
-455 -464 451 0
-465 -452 453 0
-453 465 -452 0
-453 -465 452 0
-466 -452 454 0
-454 -452 466 0
-454 -466 452 0
-467 -452 455 0
-455 -452 467 0
-455 -467 452 0
-468 -453 454 0
-453 -454 468 0
-468 -454 453 0
-469 -453 455 0
-455 -453 469 0
-470 -454 455 0
-455 -454 470 0
-470 -455 454 0
-458 -462 456 0
-459 -463 456 0
-460 -464 456 0
-458 -465 457 0
-459 -466 457 0
-460 -467 457 0
-468 -458 459 0
-458 -459 468 0
-468 -459 458 0
-469 -458 460 0
-458 -460 469 0
-469 -460 458 0
-470 -459 460 0
-459 -460 470 0
-470 -460 459 0
-465 -462 461 0
-466 -463 461 0
-467 -464 461 0
-468 -462 463 0
-463 -462 468 0
-468 -463 462 0
-470 -463 464 0
-464 -463 470 0
-470 -464 463 0
-468 -465 466 0
-465 -467 469 0
-470 -467 466 0
-470 -469 468 0
-471 -480 472 0
-471 480 -472 0
-480 471 -472 0
-471 -481 473 0
-471 481 -473 0
-481 471 -473 0
-471 -482 474 0
-471 482 -474 0
-482 471 -474 0
-471 -483 475 0
-471 -475 483 0
-483 471 -475 0
-471 -484 476 0
-471 -476 484 0
-476 -484 471 0
-471 477 -485 0
-471 -477 485 0
-477 -485 471 0
-471 -486 478 0
-478 -471 486 0
-478 -486 471 0
-471 -487 479 0
-479 -471 487 0
-479 -487 471 0
-488 473 -472 0
488 -473 -472 0
-488 -473 472 0
-489 474 -472 0
489 -474 -472 0
-489 -474 472 0
-490 475 -472 0
-475 490 -472 0
-475 -490 472 0
-491 476 -472 0
-476 491 -472 0
-476 -491 472 0
477 -492 -472 0
-477 492 -472 0
-477 -492 472 0
-493 478 -472 0
-478 493 -472 0
-478 472 -493 0
-494 479 -472 0
-479 494 -472 0
-479 -494 472 0
-495 -473 474 0
495 -473 -474 0
-495 -474 473 0
-496 475 -473 0
-475 -473 496 0
-475 -496 473 0
-497 476 -473 0
-476 -473 497 0
-476 -497 473 0
477 -498 -473 0
-477 -473 498 0
-477 -498 473 0
-499 -473 478 0
-478 499 -473 0
-478 -499 473 0
-500 -473 479 0
-479 500 -473 0
-479 -500 473 0
-501 475 -474 0
-475 -474 501 0
-475 -501 474 0
-502 476 -474 0
-476 -474 502 0
-476 -502 474 0
477 -503 -474 0
-477 -474 503 0
-477 -503 474 0
-504 -474 478 0
-478 504 -474 0
-478 -504 474 0
-505 -474 479 0
-479 505 -474 0
-479 -505 474 0
-476 -475 506 0
-475 477 -507 0
-475 -477 507 0
-477 -507 475 0
-475 -508 478 0
-478 -475 508 0
-478 -508 475 0
-475 -509 479 0
-479 -475 509 0
-479 -509 475 0
-476 477 -510 0
-476 -477 510 0
-477 -510 476 0
-476 -511 478 0
-478 -476 511 0
-478 -511 476 0
-476 -512 479 0
-479 -476 512 0
-479 -512 476 0
-513 -477 478 0
-478 -513 477 0
-514 -477 479 0
514 -479 -477 0
-479 -514 477 0
-478 -515 479 0
-478 -479 515 0
-479 -515 478 0
-488 -480 481 0
-481 -480 488 0
-488 -481 480 0
482 -480 -489 0
-482 -480 489 0
-482 480 -489 0
-480 -490 483 0
-483 -480 490 0
-483 480 -490 0
-480 -491 484 0
-480 -484 491 0
-491 480 -484 0
-480 -492 485 0
-480 -485 492 0
-492 -485 480 0
-480 486 -493 0
-486 -480 493 0
-486 480 -493 0
-494 487 -480 0
-480 -487 494 0
-494 480 -487 0
482 -481 -495 0
-482 -481 495 0
-482 481 -495 0
-496 -481 483 0
-483 -481 496 0
-483 481 -496 0
-497 -481 484 0
-481 -484 497 0
-497 -484 481 0
-481 -498 485 0
-481 -485 498 0
-498 -485 481 0
-481 486 -499 0
-486 -481 499 0
-486 481 -499 0
487 -481 -500 0
-481 -487 500 0
-487 481 -500 0
-501 -482 483 0
-483 -482 501 0
-483 482 -501 0
-502 -482 484 0
-482 -484 502 0
-502 482 -484 0
-482 -503 485 0
-482 -485 503 0
482 -503 -485 0
-482 486 -504 0
-486 -482 504 0
-486 482 -504 0
487 -482 -505 0
-482 -487 505 0
482 -487 -505 0
-483 -484 506 0
485 -483 -507 0
-483 -485 507 0
-485 -507 483 0
-483 486 -508 0
-486 -483 508 0
-486 -508 483 0
-483 487 -509 0
-483 -487 509 0
-509 -487 483 0
485 -510 -484 0
-485 -484 510 0
-485 -510 484 0
-511 -484 486 0
-486 -484 511 0
-486 484 -511 0
-484 487 -512 0
-487 -484 512 0
-487 -512 484 0
-513 -485 486 0
513 -486 -485 0
-513 -486 485 0
-514 487 -485 0
514 -485 -487 0
-514 485 -487 0
-486 487 -515 0
-486 -487 515 0
-515 -487 486 0
-488 -495 489 0
-488 495 -489 0
-495 488 -489 0
-488 -496 490 0
-488 -490 496 0
-496 -490 488 0
-488 -497 491 0
-488 -491 497 0
-497 -491 488 0
-488 -498 492 0
-488 -492 498 0
-498 -492 488 0
-488 -499 493 0
-488 499 -493 0
488 -499 -493 0
-488 -500 494 0
-494 -488 500 0
-494 488 -500 0
-501 -489 490 0
-490 -489 501 0
-501 -490 489 0
-502 -489 491 0
-491 -489 502 0
-502 -491 489 0
-503 492 -489 0
-492 -489 503 0
-503 -492 489 0
-504 493 -489 0
504 -489 -493 0
-493 489 -504 0
-505 494 -489 0
-494 505 -489 0
-494 489 -505 0
-491 -490 506 0
492 -490 -507 0
-490 -492 507 0
-492 -507 490 0
-508 -490 493 0
-490 508 -493 0
-508 -493 490 0
-509 -490 494 0
-494 -490 509 0
-494 -509 490 0
-491 -510 492 0
-491 -492 510 0
-492 -510 491 0
-491 -511 493 0
-491 511 -493 0
-511 -493 491 0
-491 -512 494 0
-494 -491 512 0
-494 -512 491 0
-513 -492 493 0
513 -492 -493 0
-513 492 -493 0
-514 -492 494 0
514 -494 -492 0
-514 -494 492 0
-515 494 -493 0
-494 515 -493 0
-494 493 -515 0
-501 -495 496 0
-495 -496 501 0
-501 -496 495 0
-502 -495 497 0
-497 -495 502 0
-502 -497 495 0
-503 -495 498 0
-498 -495 503 0
-503 -498 495 0
499 -495 -504 0
504 -499 -495 0
495 -499 -504 0
-505 -495 500 0
-500 -495 505 0
-505 495 -500 0
-496 -497 506 0
498 -496 -507 0
-496 -498 507 0
-498 -507 496 0
-508 -496 499 0
-496 -499 508 0
-508 -499 496 0
-509 -496 500 0
-496 509 -500 0
-509 -500 496 0
-497 498 -510 0
-497 -498 510 0
-498 -510 497 0
-497 499 -511 0
-497 -499 511 0
-511 -499 497 0
-497 -512 500 0
512 -497 -500 0
-512 -500 497 0
-513 -498 499 0
513 -498 -499 0
-513 -499 498 0
-514 -498 500 0
514 -498 -500 0
-514 -500 498 0
-515 500 -499 0
-500 -499 515 0
-515 499 -500 0
-502 -501 506 0
-501 -507 503 0
-501 -503 507 0
-503 -507 501 0
-508 -501 504 0
-501 508 -504 0
-508 -504 501 0
-509 -501 505 0
-505 -501 509 0
-509 -505 501 0
-502 -510 503 0
-502 -503 510 0
-503 -510 502 0
504 -502 -511 0
511 -502 -504 0
-511 -504 502 0
-502 -512 505 0
512 -502 -505 0
-512 -505 502 0
-513 -503 504 0
513 -503 -504 0
-513 -504 503 0
-514 -503 505 0
514 -503 -505 0
-514 -505 503 0
-515 505 -504 0
-505 515 -504 0
504 -515 -505 0
-510 -507 506 0
-511 -508 506 0
-512 -509 506 0
-513 -507 508 0
-514 -507 509 0
514 -509 -507 0
-514 -509 507 0
-508 -515 509 0
-509 -508 515 0
-515 -509 508 0
-513 -510 511 0
513 -510 -511 0
-513 -511 510 0
-514 -510 512 0
514 -510 -512 0
-514 -512 510 0
-511 -515 512 0
-511 -512 515 0
514 -513 -515 0
-513 -514 515 0
513 -514 -515 0
-516 -525 517 0
-516 525 -517 0
-525 516 -517 0
-516 -526 518 0
-516 526 -518 0
-526 516 -518 0
-516 -527 519 0
-516 527 -519 0
-527 516 -519 0
-516 -528 520 0
-516 -520 528 0
-528 -520 516 0
-516 -529 521 0
-516 -521 529 0
-529 -521 516 0
-516 522 -530 0
-516 -522 530 0
-522 -530 516 0
-516 -531 523 0
-516 531 -523 0
-516 -532 524 0
-524 -516 532 0
-524 -532 516 0
-533 518 -517 0
533 -517 -518 0
517 -533 -518 0
-534 519 -517 0
534 -517 -519 0
-534 517 -519 0
-535 520 -517 0
-520 535 -517 0
-520 -535 517 0
-536 521 -517 0
-521 536 -517 0
-521 -536 517 0
522 -537 -517 0
-522 537 -517 0
-522 -537 517 0
523 -538 -517 0
-523 -517 538 0
-523 517 -538 0
-539 -517 524 0
-524 539 -517 0
-524 517 -539 0
-540 519 -518 0
540 -519 -518 0
-540 518 -519 0
-541 520 -518 0
-520 541 -518 0
-520 -541 518 0
-542 521 -518 0
-521 542 -518 0
-542 -521 518 0
522 -543 -518 0
-522 543 -518 0
-522 -543 518 0
523 -544 -518 0
-523 544 -518 0
-544 -523 518 0
-545 524 -518 0
-524 545 -518 0
-524 -545 518 0
-546 520 -519 0
-520 546 -519 0
-520 -546 519 0
-547 521 -519 0
547 -521 -519 0
-547 -521 519 0
522 -548 -519 0
-522 548 -519 0
-522 -548 519 0
-549 523 -519 0
-523 549 -519 0
-523 -549 519 0
-550 -519 524 0
-524 550 -519 0
-524 -550 519 0
-521 -520 551 0
-520 522 -552 0
-520 -522 552 0
-522 -552 520 0
-520 -553 523 0
-520 -523 553 0
-553 -523 520 0
-520 -554 524 0
-524 -520 554 0
-524 -554 520 0
522 -555 -521 0
-522 -521 555 0
-522 -555 521 0
-556 -521 523 0
-521 556 -523 0
-556 -523 521 0
-557 -521 524 0
-524 557 -521 0
-524 -557 521 0
-522 -558 523 0
-522 558 -523 0
-559 -522 524 0
-524 -559 522 0
-560 -523 524 0
-524 560 -523 0
-524 -560 523 0
-525 526 -533 0
-526 -525 533 0
-526 525 -533 0
527 -525 -534 0
-527 -525 534 0
-527 525 -534 0
-525 -535 528 0
-528 -525 535 0
-528 525 -535 0
-525 -536 529 0
-529 -525 536 0
-529 525 -536 0
-525 -537 530 0
-525 -530 537 0
-537 -530 525 0
531 -525 -538 0
-525 -531 538 0
-531 525 -538 0
-525 532 -539 0
-532 -525 539 0
-532 525 -539 0
527 -526 -540 0
-527 -526 540 0
-527 526 -540 0
-541 -526 528 0
-528 -526 541 0
-528 526 -541 0
-542 -526 529 0
-529 -526 542 0
-529 -542 526 0
-526 -543 530 0
-526 -530 543 0
-543 -530 526 0
531 -526 -544 0
-526 -531 544 0
-531 526 -544 0
-526 532 -545 0
-532 -526 545 0
-532 526 -545 0
-546 -527 528 0
-528 -527 546 0
-528 527 -546 0
-547 -527 529 0
-529 -527 547 0
-529 -547 527 0
-527 -548 530 0
-527 -530 548 0
527 -548 -530 0
531 -527 -549 0
-527 -531 549 0
527 -549 -531 0
-527 532 -550 0
-532 -527 550 0
-532 527 -550 0
-528 -529 551 0
530 -528 -552 0
-528 -530 552 0
-530 -552 528 0
531 -528 -553 0
-528 -531 553 0
-531 -553 528 0
-528 -554 532 0
-532 -528 554 0
-532 -554 528 0
-529 530 -555 0
-529 -530 555 0
-530 -555 529 0
531 -529 -556 0
-529 -531 556 0
-531 -556 529 0
-529 -557 532 0
-532 -529 557 0
-532 -557 529 0
531 -558 -530 0
558 -531 -530 0
-558 -531 530 0
-559 -530 532 0
-532 559 -530 0
-559 -532 530 0
-560 -531 532 0
-532 -531 560 0
-560 -532 531 0
-540 -533 534 0
540 -534 -533 0
533 -540 -534 0
-541 -533 535 0
-535 -533 541 0
-541 -535 533 0
-542 -533 536 0
-536 -533 542 0
-542 533 -536 0
-543 537 -533 0
-537 -533 543 0
-543 -537 533 0
-544 -533 538 0
-533 -538 544 0
533 -544 -538 0
-533 -545 539 0
545 -533 -539 0
533 -545 -539 0
-546 -534 535 0
-535 -534 546 0
-546 -535 534 0
-547 -534 536 0
-536 -534 547 0
-547 -536 534 0
-548 537 -534 0
-537 -534 548 0
-548 -537 534 0
-549 -534 538 0
549 -534 -538 0
534 -549 -538 0
539 -534 -550 0
550 -534 -539 0
-550 -539 534 0
-535 -536 551 0
537 -535 -552 0
-535 -537 552 0
-537 -552 535 0
-535 -553 538 0
-535 -538 553 0
-553 -538 535 0
-554 -535 539 0
-535 554 -539 0
-554 -539 535 0
-555 537 -536 0
-537 -536 555 0
-537 -555 536 0
-556 -536 538 0
-536 556 -538 0
-556 -538 536 0
-557 -536 539 0
-536 557 -539 0
-557 -539 536 0
-537 -558 538 0
-537 558 -538 0
-558 537 -538 0
-559 -537 539 0
559 -537 -539 0
-559 537 -539 0
-560 539 -538 0
560 -539 -538 0
-560 -539 538 0
-546 -540 541 0
-541 -540 546 0
-546 -541 540 0
-547 -540 542 0
-542 -540 547 0
-547 -542 540 0
-548 -540 543 0
-543 -540 548 0
-548 -543 540 0
-549 -540 544 0
-540 -544 549 0
540 -549 -544 0
-540 545 -550 0
550 -540 -545 0
540 -550 -545 0
-541 -542 551 0
543 -541 -552 0
-541 -543 552 0
-543 -552 541 0
544 -541 -553 0
-541 -544 553 0
-553 -544 541 0
-554 -541 545 0
-541 554 -545 0
-554 -545 541 0
-542 543 -555 0
-542 -543 555 0
-543 -555 542 0
-542 -556 544 0
-542 -544 556 0
-556 -544 542 0
-557 -542 545 0
-542 557 -545 0
-557 -545 542 0
-543 -558 544 0
-543 558 -544 0
-558 -544 543 0
-559 -543 545 0
559 -543 -545 0
-559 -545 543 0
-560 545 -544 0
-544 -545 560 0
-560 -545 544 0
-547 -546 551 0
-546 -552 548 0
-546 -548 552 0
-548 -552 546 0
-546 -553 549 0
-546 -549 553 0
-549 -553 546 0
-554 -546 550 0
-546 -550 554 0
-554 -550 546 0
-547 -555 548 0
-547 -548 555 0
-548 -555 547 0
-547 -556 549 0
-547 -549 556 0
-549 -556 547 0
-557 -547 550 0
-547 -550 557 0
-557 -550 547 0
-548 -558 549 0
-549 -548 558 0
-549 -558 548 0
-559 -548 550 0
559 -548 -550 0
-559 -550 548 0
-560 -549 550 0
560 -549 -550 0
-560 -550 549 0
-555 -552 551 0
-556 -553 551 0
-557 -554 551 0
-558 -552 553 0
558 -553 -552 0
-558 -553 552 0
-559 -552 554 0
559 -554 -552 0
-559 -554 552 0
-560 -553 554 0
-554 -553 560 0
-560 -554 553 0
-558 -555 556 0
558 -556 -555 0
-558 -556 555 0
559 -557 -555 0
-559 -557 555 0
-560 -556 557 0
-557 -556 560 0
-560 -557 556 0
-560 559 -558 0
-559 -558 560 0
-559 -560 558 0
-561 -570 562 0
-561 570 -562 0
-570 561 -562 0
-561 -571 563 0
-561 571 -563 0
-571 561 -563 0
-561 -572 564 0
-561 572 -564 0
-572 561 -564 0
-573 -561 565 0
-561 -565 573 0
-573 -565 561 0
-574 -561 566 0
-561 574 -566 0
-574 -566 561 0
-575 -561 567 0
-561 -567 575 0
-575 -567 561 0
-576 -561 568 0
-561 576 -568 0
-576 561 -568 0
-561 -577 569 0
-561 577 -569 0
-578 -562 563 0
578 -562 -563 0
-578 562 -563 0
-579 -562 564 0
-562 579 -564 0
-579 -564 562 0
-580 -562 565 0
-565 -562 580 0
-565 -580 562 0
-581 -562 566 0
-566 -562 581 0
-581 -566 562 0
-582 567 -562 0
-567 582 -562 0
-582 -567 562 0
-583 568 -562 0
-568 -562 583 0
-583 -568 562 0
569 -562 -584 0
584 -562 -569 0
-584 -569 562 0
-585 564 -563 0
585 -564 -563 0
-585 -564 563 0
-586 565 -563 0
-565 586 -563 0
-565 -586 563 0
-587 566 -563 0
-566 587 -563 0
-587 -566 563 0
567 -588 -563 0
-567 588 -563 0
-567 -588 563 0
-589 568 -563 0
-568 589 -563 0
-568 -589 563 0
569 -590 -563 0
-569 -563 590 0
-590 -569 563 0
-591 -564 565 0
-565 591 -564 0
-565 -591 564 0
-592 -564 566 0
-566 592 -564 0
-592 -566 564 0
567 -593 -564 0
-567 593 -564 0
-567 -593 564 0
-594 568 -564 0
-568 594 -564 0
-594 -568 564 0
-595 569 -564 0
-569 -564 595 0
-595 -569 564 0
-565 -566 596 0
567 -565 -597 0
-565 -567 597 0
-567 -597 565 0
-565 -598 568 0
-565 -568 598 0
569 -565 -599 0
-565 -569 599 0
-599 -569 565 0
567 -600 -566 0
-567 -566 600 0
-567 -600 566 0
-566 -601 568 0
-566 -568 601 0
-601 -568 566 0
-566 -569 602 0
-602 -569 566 0
-567 -603 568 0
-567 603 -568 0
567 -603 -568 0
-567 -604 569 0
-567 604 -569 0
-605 569 -568 0
-568 -569 605 0
568 -605 -569 0
-578 -570 571 0
-571 -570 578 0
-578 -571 570 0
-579 572 -570 0
-572 -570 579 0
-579 -572 570 0
-570 -580 573 0
-573 -570 580 0
-573 570 -580 0
-570 -581 574 0
-574 -570 581 0
-574 -581 570 0
-582 -570 575 0
-575 -570 582 0
-575 -582 570 0
-583 -570 576 0
-576 -570 583 0
-576 -583 570 0
-570 577 -584 0
-577 -570 584 0
-577 570 -584 0
-585 572 -571 0
-572 -571 585 0
-585 -572 571 0
-586 -571 573 0
-573 -571 586 0
-573 571 -586 0
-587 -571 574 0
-574 -571 587 0
-574 -587 571 0
-588 -571 575 0
-575 -571 588 0
-575 -588 571 0
-571 576 -589 0
-576 -571 589 0
-576 571 -589 0
-577 -571 590 0
-577 571 -590 0
-591 -572 573 0
-573 -572 591 0
572 -573 -591 0
-592 -572 574 0
-574 -572 592 0
-574 -592 572 0
-593 -572 575 0
-575 -572 593 0
-575 -593 572 0
-594 -572 576 0
-576 -572 594 0
-576 -594 572 0
-595 -572 577 0
-577 -572 595 0
-577 -595 572 0
-573 -574 596 0
575 -573 -597 0
-575 -573 597 0
-575 -597 573 0
-573 -598 576 0
-576 -573 598 0
-576 -598 573 0
-573 -577 599 0
-574 575 -600 0
-575 -574 600 0
-575 -600 574 0
-574 576 -601 0
-576 -574 601 0
-576 -601 574 0
577 -574 -602 0
-574 -577 602 0
-577 -602 574 0
-575 -603 576 0
-576 -575 603 0
-576 -603 575 0
-575 -604 577 0
-575 -577 604 0
-577 -604 575 0
-576 -605 577 0
-577 -605 576 0
-585 -578 579 0
-579 -578 585 0
-585 -579 578 0
-578 -586 580 0
-578 -580 586 0
-586 -580 578 0
-578 -587 581 0
-578 -581 587 0
-587 -581 578 0
-588 -578 582 0
-582 -578 588 0
-582 -588 578 0
-578 -589 583 0
-583 -578 589 0
-583 -589 578 0
-578 -590 584 0
-578 -584 590 0
578 -590 -584 0
-591 -579 580 0
-579 -580 591 0
-591 -580 579 0
-592 -579 581 0
-581 -579 592 0
-592 -581 579 0
-593 -579 582 0
-582 -579 593 0
-582 -593 579 0
-594 -579 583 0
-583 -579 594 0
-583 -594 579 0
-595 -579 584 0
-579 -584 595 0
-595 579 -584 0
-581 -580 596 0
582 -580 -597 0
-582 -580 597 0
-582 -597 580 0
-580 -598 583 0
-583 -580 598 0
-583 -598 580 0
-580 -599 584 0
-580 -584 599 0
-599 -584 580 0
-581 -600 582 0
-582 -581 600 0
-582 -600 581 0
-581 -601 583 0
-583 -581 601 0
-583 -601 581 0
-581 -584 602 0
-602 -584 581 0
-582 -603 583 0
-583 -582 603 0
-583 -603 582 0
-582 -604 584 0
-582 604 -584 0
-604 582 -584 0
-583 -605 584 0
-583 605 -584 0
-605 -584 583 0
-591 -585 586 0
-585 -586 591 0
-591 -586 585 0
-585 -592 587 0
-585 -587 592 0
-592 -587 585 0
-585 -593 588 0
-585 -588 593 0
-593 -588 585 0
-585 -594 589 0
-585 -589 594 0
-594 585 -589 0
-585 -595 590 0
-585 -590 595 0
-595 -590 585 0
-587 -586 596 0
588 -586 -597 0
-588 -586 597 0
-588 -597 586 0
589 -586 -598 0
-586 -589 598 0
-598 -589 586 0
-586 -599 590 0
-586 -590 599 0
-599 -590 586 0
-587 588 -600 0
-588 -587 600 0
-588 -600 587 0
-587 -601 589 0
-587 -589 601 0
-601 -589 587 0
-587 -602 590 0
-587 -590 602 0
-602 -590 587 0
-588 -603 589 0
-588 603 -589 0
-603 -589 588 0
-588 -604 590 0
604 -588 -590 0
-604 -590 588 0
-605 -589 590 0
-590 -589 605 0
-605 -590 589 0
-591 -592 596 0
-591 -597 593 0
-591 -593 597 0
-593 -597 591 0
-591 -598 594 0
-591 -594 598 0
-594 -598 591 0
-591 -599 595 0
-591 -595 599 0
-595 -599 591 0
-592 -600 593 0
-593 -592 600 0
-593 -600 592 0
-592 -601 594 0
-594 -592 601 0
-594 -601 592 0
-592 -602 595 0
-595 -592 602 0
-595 -602 592 0
-593 -603 594 0
-594 -593 603 0
-594 -603 593 0
-593 -604 595 0
604 -595 -593 0
-595 -604 593 0
-594 -605 595 0
-595 -594 605 0
-595 -605 594 0
-600 -597 596 0
-598 -601 596 0
-602 -599 596 0
-603 -597 598 0
603 -598 -597 0
-603 -598 597 0
-604 -597 599 0
604 -599 -597 0
-604 -599 597 0
-605 -598 599 0
-599 -598 605 0
-605 -599 598 0
-603 -600 601 0
603 -600 -601 0
-603 -601 600 0
-604 -600 602 0
604 -602 -600 0
-604 -602 600 0
-605 -601 602 0
-602 -601 605 0
-605 -602 601 0
604 -605 -603 0
-604 -603 605 0
-605 -604 603 0
-1 114 -5 0
-2 122 -5 0
129 -3 -5 0
135 -4 -5 0
143 -8 -5 0
145 -10 -5 0
146 -7 -6 0
148 -9 -6 0
13 14 16 11 15 18 12 0
12 14 16 11 15 13 19 0
12 14 16 11 15 20 13 0
11 12 14 13 18 17 15 0
19 12 14 11 13 17 15 0
17 13 14 11 15 20 12 0
11 12 14 15 19 13 18 0
11 12 14 20 13 15 18 0
13 14 15 11 20 19 12 0
12 14 16 11 13 18 17 0
12 13 16 11 20 14 17 0
11 12 13 16 18 14 19 0
20 12 13 11 16 14 18 0
19 12 11 16 20 13 14 0
11 12 13 18 16 15 17 0
17 12 11 13 15 16 19 0
17 12 11 13 15 20 16 0
11 12 13 18 16 15 19 0
20 12 11 13 15 16 18 0
19 12 11 20 15 16 13 0
11 12 13 18 19 17 15 0
17 12 11 13 20 18 15 0
17 12 11 13 19 20 15 0
17 12 13 11 16 18 19 0
20 12 11 16 13 18 17 0
19 12 11 16 20 13 18 0
14 12 18 11 16 15 17 0
19 12 14 11 15 16 17 0
20 12 11 15 14 16 17 0
14 12 18 11 15 16 19 0
14 12 20 11 15 16 18 0
20 12 11 14 15 19 16 0
11 12 14 18 19 17 15 0
17 12 11 14 15 20 18 0
17 12 11 14 20 19 15 0
19 12 11 14 18 16 17 0
17 12 14 11 16 20 18 0
17 12 11 14 20 19 16 0
19 12 11 18 17 15 16 0
20 18 11 15 16 17 12 0
17 12 11 16 20 15 19 0
13 14 16 11 15 18 17 0
19 13 14 11 15 16 17 0
17 13 14 11 16 15 20 0
19 13 14 11 15 16 18 0
18 13 14 11 16 15 20 0
20 19 13 11 15 16 14 0
17 13 14 11 18 19 15 0
18 13 14 11 15 20 17 0
17 13 14 11 20 19 15 0
19 13 14 11 15 20 18 0
17 13 14 11 20 19 16 0
14 13 20 11 18 19 16 0
19 18 13 11 17 15 16 0
20 18 13 11 15 16 17 0
17 20 13 11 15 16 19 0
19 20 13 11 15 16 18 0
19 18 11 14 15 16 17 0
20 18 11 14 15 16 17 0
19 20 14 11 15 17 16 0
19 20 14 11 18 17 15 0
17 12 13 15 16 14 18 0
17 12 13 15 19 14 16 0
12 13 16 15 20 14 17 0
19 12 16 15 13 14 18 0
12 13 16 15 20 14 18 0
19 20 16 12 15 13 14 0
19 12 18 13 14 17 15 0
13 12 18 20 14 17 15 0
17 12 14 20 13 19 15 0
19 20 13 15 14 12 18 0
19 12 18 13 14 17 16 0
12 13 18 20 16 14 17 0
19 20 16 12 13 14 17 0
19 12 18 20 14 13 16 0
19 12 16 15 17 13 18 0
17 18 13 15 16 20 12 0
20 19 15 16 17 13 12 0
19 20 13 16 15 18 12 0
17 19 20 18 12 15 13 0
19 20 16 12 18 13 17 0
19 12 16 15 17 18 14 0
17 18 15 14 16 20 12 0
20 19 15 16 17 12 14 0
20 19 15 16 18 12 14 0
17 19 20 14 18 12 15 0
17 19 15 16 18 13 14 0
17 18 13 16 15 14 20 0
19 20 14 16 15 17 13 0
19 20 13 16 15 18 14 0
17 19 20 18 14 15 13 0
19 20 14 17 16 18 13 0
-11 -12 156 0
-11 -13 157 0
-11 -14 158 0
-11 -15 159 0
-11 -16 160 0
-11 -17 161 0
-11 -18 162 0
-19 -11 163 0
-20 -11 164 0
-13 -12 165 0
-14 -12 166 0
-15 -12 167 0
-16 -12 168 0
169 -17 -12 0
-18 -12 170 0
-19 -12 171 0
-20 -12 172 0
-14 -13 173 0
-15 -13 174 0
-16 -13 175 0
-13 -17 176 0
-13 -18 177 0
-19 -13 178 0
-20 -13 179 0
-15 -14 180 0
-16 -14 181 0
-14 -17 182 0
-14 -18 183 0
-19 -14 184 0
-20 -14 185 0
-16 -15 186 0
-15 -17 187 0
-15 -18 188 0
-19 -15 189 0
-20 -15 190 0
-16 -17 191 0
-16 -18 192 0
-19 -16 193 0
-20 -16 194 0
195 -18 -17 0
-19 196 -17 0
-20 197 -17 0
-19 -18 198 0
-20 -18 199 0
-20 -19 200 0
24 23 26 27 22 25 21 0
23 22 26 28 25 24 21 0
21 24 26 23 25 29 22 0
30 21 25 26 22 23 24 0
21 23 27 24 22 28 25 0
21 24 23 29 22 27 25 0
21 23 27 24 30 25 22 0
24 29 22 23 25 28 21 0
23 24 28 21 22 30 25 0
21 24 23 30 29 22 25 0
23 24 22 21 26 28 27 0
21 24 27 22 26 23 29 0
21 24 27 22 30 26 23 0
23 24 28 22 26 21 29 0
23 24 22 21 26 30 28 0
23 24 22 30 29 26 21 0
21 23 28 22 26 27 25 0
21 23 27 25 22 26 29 0
30 21 25 27 23 22 26 0
28 21 25 22 23 26 29 0
21 23 25 22 30 28 26 0
30 29 21 23 26 22 25 0
29 23 21 25 22 27 28 0
21 23 27 30 22 28 25 0
30 29 27 23 22 21 25 0
30 29 22 23 28 21 25 0
29 28 21 23 26 22 27 0
21 23 27 28 26 22 30 0
23 21 27 22 26 29 30 0
30 29 22 23 28 21 26 0
21 24 25 22 26 28 27 0
21 24 25 22 27 26 29 0
21 24 25 22 27 30 26 0
21 24 25 22 28 26 29 0
21 24 25 22 30 26 28 0
30 24 22 25 29 26 21 0
28 21 22 24 27 29 25 0
21 24 27 28 22 30 25 0
24 29 27 22 21 30 25 0
30 24 22 29 21 28 25 0
28 21 22 24 26 29 27 0
30 24 27 21 26 28 22 0
24 29 27 22 21 30 26 0
30 22 28 24 21 26 29 0
29 28 27 21 22 26 25 0
21 28 27 30 25 22 26 0
29 21 27 26 30 25 22 0
30 29 28 25 26 21 22 0
30 29 27 22 28 25 21 0
29 21 27 26 30 22 28 0
23 21 26 25 28 27 24 0
21 23 27 24 29 25 26 0
21 23 27 25 30 26 24 0
23 21 26 25 29 28 24 0
21 24 25 23 26 28 30 0
21 24 26 23 25 29 30 0
21 23 27 24 28 29 25 0
21 23 27 24 30 28 25 0
21 23 27 24 30 29 25 0
30 24 23 21 28 29 25 0
21 24 29 23 26 27 28 0
21 23 27 24 30 28 26 0
21 23 27 24 29 30 26 0
23 24 28 21 30 29 26 0
29 28 27 21 26 25 23 0
21 23 27 25 26 30 28 0
30 21 27 26 25 29 23 0
30 29 28 25 26 21 23 0
21 23 27 29 30 28 25 0
21 23 27 28 29 26 30 0
21 24 27 25 26 28 29 0
30 27 28 25 26 24 21 0
30 21 27 26 25 29 24 0
24 21 28 25 30 29 26 0
30 24 27 29 28 25 21 0
30 24 27 29 28 26 21 0
23 24 27 22 25 28 26 0
23 24 26 22 29 27 25 0
30 24 25 26 22 27 23 0
24 29 26 22 23 25 28 0
23 22 26 25 28 24 30 0
30 24 25 26 22 23 29 0
23 24 27 22 29 25 28 0
23 24 22 28 27 30 25 0
24 29 22 23 30 27 25 0
23 24 22 28 29 30 25 0
23 24 27 22 26 28 29 0
23 24 27 22 30 26 28 0
24 29 22 23 27 30 26 0
23 24 28 22 29 30 26 0
29 28 27 22 26 25 23 0
30 27 28 22 26 25 23 0
23 29 25 27 26 22 30 0
30 29 25 22 23 26 28 0
29 28 22 23 27 30 25 0
30 29 22 23 28 27 26 0
24 29 26 22 25 28 27 0
30 24 25 27 22 26 28 0
30 29 27 26 22 25 24 0
30 22 28 26 29 25 24 0
30 24 22 27 25 29 28 0
30 22 28 24 26 27 29 0
24 29 28 23 27 25 26 0
23 24 28 30 26 25 27 0
30 24 26 23 29 27 25 0
30 24 23 25 29 26 28 0
30 24 23 27 29 28 25 0
30 24 23 28 26 27 29 0
-22 201 -21 0
202 -23 -21 0
203 -24 -21 0
-25 204 -21 0
-26 205 -21 0
-27 206 -21 0
207 -28 -21 0
-29 208 -21 0
-30 209 -21 0
210 -22 -23 0
211 -22 -24 0
-22 -25 212 0
-22 -26 213 0
-22 214 -27 0
-22 215 -28 0
-22 216 -29 0
-22 -30 217 0
218 -23 -24 0
-25 -23 219 0
-26 -23 220 0
-27 -23 221 0
-23 222 -28 0
-23 -29 223 0
-30 -23 224 0
-25 -24 225 0
-26 -24 226 0
-27 -24 227 0
228 -24 -28 0
-24 -29 229 0
-30 -24 230 0
-26 -25 231 0
-25 -27 232 0
-25 233 -28 0
-25 -29 234 0
-25 235 -30 0
-26 -27 236 0
-26 237 -28 0
-26 -29 238 0
-26 239 -30 0
240 -27 -28 0
241 -27 -29 0
242 -27 -30 0
243 -29 -28 0
244 -30 -28 0
245 -30 -29 0
37 34 32 31 35 36 33 0
32 34 31 36 35 33 38 0
34 33 35 32 36 31 39 0
32 34 31 36 35 33 40 0
37 34 32 31 38 35 33 0
37 33 31 34 39 32 35 0
32 34 31 37 35 33 40 0
33 34 31 32 38 39 35 0
33 34 31 38 40 32 35 0
32 34 31 40 39 35 33 0
34 32 38 31 37 33 36 0
39 34 37 36 33 31 32 0
40 33 31 34 37 32 36 0
33 34 31 32 38 39 36 0
34 32 38 33 40 31 36 0
33 34 31 32 40 39 36 0
37 33 31 35 32 36 38 0
39 31 32 35 37 36 33 0
33 31 35 36 40 32 37 0
39 31 33 35 32 36 38 0
40 33 31 36 35 32 38 0
40 39 33 31 35 36 32 0
39 32 38 31 33 37 35 0
32 31 38 40 37 33 35 0
37 33 31 39 35 40 32 0
40 33 31 39 38 32 35 0
39 32 38 31 33 37 36 0
32 31 38 40 36 37 33 0
39 31 36 33 40 32 37 0
31 33 36 40 38 39 32 0
34 32 38 31 36 37 35 0
34 32 35 39 31 36 37 0
37 34 32 31 36 40 35 0
34 31 36 35 32 38 39 0
34 32 40 35 31 36 38 0
34 31 36 35 32 40 39 0
37 34 32 31 38 39 35 0
37 34 32 31 40 38 35 0
34 32 40 31 37 39 35 0
32 34 31 40 38 39 35 0
37 34 32 31 36 38 39 0
34 32 38 31 36 40 37 0
34 32 39 40 36 37 31 0
34 32 40 31 38 39 36 0
39 37 38 35 36 31 32 0
37 32 31 35 40 36 38 0
37 31 36 35 40 39 32 0
39 40 38 36 35 31 32 0
37 31 38 40 39 32 35 0
32 31 38 40 36 37 39 0
33 31 35 34 37 36 38 0
39 31 33 35 34 36 37 0
37 33 31 40 34 35 36 0
33 31 35 38 34 36 39 0
40 33 35 31 34 36 38 0
33 31 35 36 39 34 40 0
33 34 31 37 38 39 35 0
40 33 31 34 37 35 38 0
39 31 33 35 34 40 37 0
33 34 31 38 40 39 35 0
34 33 36 31 37 38 39 0
40 33 31 34 37 38 36 0
39 34 37 33 36 40 31 0
34 33 38 39 31 40 36 0
39 37 38 35 36 33 31 0
37 31 36 35 40 38 33 0
40 39 33 31 35 36 37 0
39 40 38 36 35 31 33 0
37 40 38 39 31 35 33 0
39 40 37 33 38 31 36 0
39 37 38 35 36 31 34 0
34 40 38 31 37 35 36 0
34 37 40 35 36 39 31 0
39 40 38 36 34 35 31 0
34 37 40 39 38 31 35 0
39 40 38 36 37 34 31 0
34 33 35 32 36 38 37 0
34 33 39 32 35 36 37 0
34 37 40 32 33 35 36 0
34 33 39 32 36 35 38 0
34 33 35 32 40 36 38 0
34 32 40 39 33 35 36 0
34 33 35 32 37 38 39 0
34 33 35 32 40 37 38 0
34 33 35 32 37 39 40 0
34 32 40 39 33 35 38 0
34 32 39 36 33 37 38 0
37 40 38 32 34 33 36 0
34 32 39 33 40 37 36 0
34 33 40 39 38 32 36 0
39 33 38 35 37 36 32 0
37 40 38 32 35 36 33 0
40 39 37 35 36 32 33 0
39 33 38 40 35 32 36 0
37 40 38 39 33 32 35 0
37 40 38 33 36 39 32 0
39 37 38 34 35 36 32 0
34 32 38 40 35 36 37 0
34 32 40 39 35 36 37 0
34 32 40 39 35 36 38 0
34 32 35 40 37 39 38 0
37 40 38 39 36 32 34 0
34 33 38 39 36 35 37 0
34 37 38 40 35 36 33 0
39 34 37 33 40 35 36 0
34 33 39 40 38 35 36 0
34 33 38 40 37 39 35 0
39 40 38 36 37 33 34 0
246 -32 -31 0
-33 247 -31 0
-34 248 -31 0
249 -35 -31 0
250 -36 -31 0
251 -37 -31 0
-38 -31 252 0
253 -39 -31 0
254 -40 -31 0
255 -32 -33 0
256 -32 -34 0
257 -32 -35 0
-32 258 -36 0
259 -32 -37 0
260 -32 -38 0
261 -32 -39 0
262 -32 -40 0
263 -34 -33 0
-35 -33 264 0
-36 -33 265 0
266 -33 -37 0
-33 267 -38 0
-33 268 -39 0
-33 269 -40 0
-34 -35 270 0
-34 -36 271 0
-34 272 -37 0
-34 273 -38 0
-34 274 -39 0
-34 275 -40 0
-36 -35 276 0
-35 277 -37 0
-35 -38 278 0
-35 279 -39 0
-35 280 -40 0
-36 281 -37 0
-36 282 -38 0
-36 283 -39 0
-36 284 -40 0
285 -38 -37 0
286 -39 -37 0
287 -40 -37 0
288 -38 -39 0
289 -38 -40 0
290 -40 -39 0
41 43 42 47 44 46 45 0
48 41 42 43 44 46 45 0
49 41 44 43 42 46 45 0
50 41 44 42 43 46 45 0
48 41 44 43 42 45 47 0
49 41 44 43 42 47 45 0
50 41 44 42 43 47 45 0
48 47 44 43 42 41 46 0
49 41 43 44 47 42 46 0
41 43 42 44 50 46 47 0
48 47 45 46 41 43 42 0
49 47 46 45 43 42 41 0
50 47 45 46 42 41 43 0
49 48 46 42 45 41 43 0
48 41 45 42 46 43 50 0
49 41 43 46 42 45 50 0
49 48 43 42 41 47 45 0
48 50 43 45 42 47 41 0
50 47 43 45 42 41 49 0
48 49 42 41 47 46 43 0
48 50 41 47 46 42 43 0
50 41 42 43 46 47 49 0
48 47 45 46 42 41 44 0
49 47 46 45 42 41 44 0
50 47 46 45 44 41 42 0
49 48 46 42 45 44 41 0
48 50 45 41 42 44 46 0
50 41 46 42 45 44 49 0
48 49 47 42 41 45 44 0
48 47 42 45 41 50 44 0
50 41 45 47 42 49 44 0
49 48 47 41 42 46 44 0
48 50 44 46 42 41 47 0
50 49 41 47 44 46 42 0
48 47 45 46 44 43 41 0
49 47 46 45 43 41 44 0
50 47 46 45 44 41 43 0
49 48 46 43 44 45 41 0
50 48 44 45 41 43 46 0
49 41 45 46 44 43 50 0
49 41 44 43 47 45 48 0
50 41 43 44 45 48 47 0
50 49 44 43 45 47 41 0
49 41 43 47 44 48 46 0
48 47 43 44 41 46 50 0
49 41 44 43 47 50 46 0
48 47 45 46 43 44 42 0
49 47 46 45 44 42 43 0
50 47 43 45 42 44 46 0
49 48 46 44 42 43 45 0
50 48 43 44 46 42 45 0
50 49 44 43 42 45 46 0
48 49 45 43 42 44 47 0
50 48 44 43 45 42 47 0
49 47 43 42 44 45 50 0
48 49 47 42 46 44 43 0
48 47 42 44 43 50 46 0
49 47 44 43 42 46 50 0
294 -45 -41 0
295 -46 -41 0
-47 -41 296 0
-48 -41 297 0
-41 -49 298 0
-50 -41 299 0
-42 302 -45 0
-42 303 -46 0
-42 -47 304 0
-42 305 -48 0
-42 306 -49 0
-42 307 -50 0
309 -43 -45 0
310 -46 -43 0
311 -43 -47 0
312 -43 -48 0
313 -43 -49 0
314 -43 -50 0
315 -44 -45 0
316 -44 -46 0
-44 -47 317 0
318 -44 -48 0
319 -44 -49 0
-44 320 -50 0
-46 -45 321 0
-45 -48 323 0
-45 -49 324 0
325 -45 -50 0
327 -46 -48 0
-46 -49 328 0
329 -46 -50 0
330 -48 -47 0
331 -47 -49 0
332 -47 -50 0
333 -48 -49 0
334 -48 -50 0
335 -50 -49 0
51 56 55 54 52 57 53 0
51 55 58 54 56 52 53 0
51 56 55 54 59 52 53 0
51 60 55 54 52 56 53 0
55 52 57 54 51 58 53 0
51 52 57 54 59 55 53 0
54 55 60 52 51 57 53 0
51 52 58 53 54 59 55 0
51 52 58 60 54 55 53 0
55 54 60 59 51 52 53 0
51 52 57 54 56 58 53 0
51 52 57 54 56 59 53 0
51 54 52 60 56 57 53 0
51 54 52 53 59 56 58 0
51 52 58 54 60 53 56 0
51 54 52 53 59 60 56 0
51 54 52 53 58 59 57 0
51 52 58 54 60 53 57 0
53 51 60 59 54 57 52 0
51 53 58 55 56 57 52 0
51 52 57 59 55 56 53 0
51 56 55 53 57 60 52 0
51 52 58 56 53 59 55 0
51 53 52 60 56 58 55 0
51 53 52 59 60 56 55 0
51 53 57 59 55 52 58 0
51 53 58 60 57 55 52 0
51 60 55 53 59 52 57 0
51 60 52 59 58 53 55 0
51 52 57 56 53 58 59 0
51 52 57 56 53 60 58 0
51 60 52 59 56 53 57 0
52 56 59 60 58 51 53 0
51 52 57 60 59 53 58 0
54 52 58 55 56 51 57 0
55 54 57 59 51 56 52 0
55 54 57 60 56 51 52 0
51 56 55 54 59 52 58 0
51 60 55 54 56 52 58 0
51 54 52 60 59 55 56 0
54 55 58 52 57 59 51 0
51 54 52 60 58 55 57 0
55 54 60 59 51 52 57 0
51 54 52 60 59 58 55 0
51 54 52 59 56 57 58 0
51 52 57 54 56 60 58 0
51 54 52 60 57 56 59 0
51 60 52 59 58 54 56 0
59 52 58 54 60 51 57 0
51 56 55 52 57 58 59 0
51 60 55 52 56 57 58 0
51 60 55 52 56 57 59 0
51 60 52 59 58 55 56 0
52 57 58 60 51 55 59 0
51 56 52 59 60 57 58 0
55 54 57 56 53 58 51 0
51 54 55 53 59 56 57 0
51 60 55 54 56 53 57 0
51 53 58 55 56 54 59 0
51 56 55 53 60 54 58 0
51 60 55 54 53 59 56 0
54 53 58 55 57 59 51 0
51 60 55 54 53 58 57 0
59 54 55 53 51 60 57 0
51 54 53 60 58 55 59 0
54 53 58 51 57 56 59 0
51 53 58 60 56 54 57 0
51 53 57 60 56 59 54 0
54 53 58 59 60 51 56 0
54 53 58 59 60 51 57 0
53 56 57 59 55 51 58 0
51 56 55 53 57 60 58 0
51 53 57 59 60 55 56 0
53 56 59 60 58 55 51 0
51 59 58 53 60 57 55 0
51 53 57 59 60 56 58 0
57 56 58 54 59 55 51 0
51 60 55 54 56 57 58 0
59 54 60 55 56 51 57 0
59 54 60 55 56 51 58 0
55 54 60 59 51 58 57 0
54 51 58 60 57 56 59 0
54 52 58 55 53 56 57 0
54 53 52 56 55 57 59 0
54 52 57 60 53 55 56 0
54 52 58 55 53 56 59 0
54 55 60 52 53 58 56 0
54 55 60 52 59 56 53 0
53 54 58 57 55 52 59 0
54 55 60 53 52 57 58 0
54 55 60 52 59 57 53 0
54 55 58 60 59 52 53 0
54 52 58 56 59 53 57 0
54 52 57 60 58 56 53 0
54 53 57 59 60 52 56 0
54 53 58 60 59 52 56 0
54 53 57 60 52 59 58 0
53 56 58 59 55 57 52 0
52 57 58 60 53 55 56 0
57 56 59 60 53 52 55 0
52 56 59 60 58 53 55 0
53 52 60 57 59 55 58 0
52 57 58 60 56 53 59 0
52 56 59 54 55 58 57 0
54 55 60 52 56 57 58 0
54 55 60 52 56 59 57 0
54 55 60 52 58 59 56 0
54 55 60 52 59 57 58 0
54 52 58 60 59 56 57 0
59 52 58 60 55 56 57 0
57 56 58 54 55 53 59 0
54 56 55 60 58 53 57 0
54 53 60 56 59 55 57 0
59 54 60 55 58 56 53 0
55 54 57 60 59 53 58 0
54 53 57 59 60 58 56 0
53 56 58 60 55 57 59 0
59 54 60 55 56 58 57 0
336 -52 -51 0
-53 -51 337 0
-54 -51 338 0
-55 -51 339 0
340 -56 -51 0
-57 -51 341 0
-58 -51 342 0
-59 -51 343 0
-60 -51 344 0
-53 345 -52 0
346 -54 -52 0
-55 347 -52 0
348 -52 -56 0
349 -57 -52 0
350 -58 -52 0
351 -59 -52 0
352 -60 -52 0
-53 -54 353 0
-55 -53 354 0
-53 -56 355 0
356 -57 -53 0
-53 -58 357 0
-53 -59 358 0
-60 -53 359 0
-55 -54 360 0
-54 -56 361 0
362 -57 -54 0
-58 -54 363 0
-59 -54 364 0
-60 -54 365 0
366 -55 -56 0
367 -55 -57 0
368 -55 -58 0
-55 -59 369 0
-55 -60 370 0
-57 -56 371 0
-58 -56 372 0
-59 -56 373 0
-60 -56 374 0
-57 -58 375 0
-57 376 -59 0
377 -60 -57 0
-59 -58 378 0
-60 -58 379 0
-60 -59 380 0
64 66 65 63 68 61 62 0
61 63 64 65 66 62 69 0
61 63 64 70 66 65 62 0
61 67 65 62 68 64 63 0
61 62 64 65 69 67 63 0
61 70 67 63 65 64 62 0
68 69 64 62 61 63 65 0
61 68 64 63 70 65 62 0
61 62 64 63 69 70 65 0
68 63 64 61 67 66 62 0
61 62 64 67 63 69 66 0
61 63 62 70 64 66 67 0
61 62 64 68 63 69 66 0
61 63 64 70 62 66 68 0
61 63 64 70 62 69 66 0
68 69 64 62 61 63 67 0
61 68 63 70 64 67 62 0
69 70 67 62 61 64 63 0
61 66 67 62 68 65 63 0
61 67 65 66 62 69 63 0
61 70 67 62 63 66 65 0
61 68 63 65 69 62 66 0
61 68 63 70 66 65 62 0
61 62 65 70 69 63 66 0
68 65 62 67 69 61 63 0
61 67 65 63 68 62 70 0
61 67 65 62 69 70 63 0
61 68 63 70 69 62 65 0
61 66 67 62 68 69 63 0
70 67 62 68 61 66 63 0
61 70 63 69 62 66 67 0
61 69 62 70 68 63 66 0
70 69 67 68 61 62 63 0
61 62 65 66 67 64 68 0
61 62 64 69 65 66 67 0
70 66 62 65 64 67 61 0
61 62 65 66 64 68 69 0
61 62 64 65 66 70 68 0
70 66 62 65 64 69 61 0
68 65 62 67 69 61 64 0
61 70 67 62 68 65 64 0
61 67 65 62 70 69 64 0
61 62 64 68 70 65 69 0
61 66 67 62 68 69 64 0
61 66 67 62 68 70 64 0
61 62 64 69 70 66 67 0
61 68 62 66 69 70 64 0
61 69 67 62 68 70 64 0
61 66 67 62 65 68 69 0
61 62 65 66 67 68 70 0
70 67 62 65 66 69 61 0
61 68 62 70 65 66 69 0
61 69 67 62 68 70 65 0
61 69 67 62 68 70 66 0
64 66 65 63 68 67 61 0
64 66 67 63 65 61 69 0
64 66 65 63 61 67 70 0
64 66 65 63 68 69 61 0
64 66 65 63 70 61 68 0
64 66 65 63 70 69 61 0
69 68 67 63 65 61 64 0
68 65 64 63 67 61 70 0
67 70 64 63 69 61 65 0
61 70 63 69 68 64 65 0
61 68 63 69 64 66 67 0
61 68 67 63 66 70 64 0
61 63 64 69 70 66 67 0
61 70 63 69 68 64 66 0
70 69 67 68 61 64 63 0
63 61 67 66 65 68 69 0
70 61 67 66 65 63 68 0
70 69 67 66 65 63 61 0
61 70 63 69 65 68 66 0
68 61 67 63 69 70 65 0
70 69 68 66 67 61 63 0
68 67 64 65 66 69 61 0
68 67 64 65 66 61 70 0
70 67 64 65 66 61 69 0
68 65 64 66 70 69 61 0
67 70 65 69 68 61 64 0
70 69 68 66 67 61 64 0
64 66 67 63 65 68 62 0
64 66 67 62 63 65 69 0
70 67 62 63 64 66 65 0
64 66 65 63 68 69 62 0
64 66 65 63 62 70 68 0
70 65 64 62 69 63 66 0
68 69 64 62 63 65 67 0
70 67 64 63 68 65 62 0
70 69 67 62 64 65 63 0
68 63 64 70 69 62 65 0
68 63 64 69 62 66 67 0
68 70 64 62 63 66 67 0
67 70 64 63 69 62 66 0
68 63 64 70 62 66 69 0
70 67 64 63 69 68 62 0
68 65 62 67 69 66 63 0
70 67 62 68 66 65 63 0
70 67 62 63 66 65 69 0
62 66 63 65 70 69 68 0
70 65 62 67 68 63 69 0
70 69 66 63 68 67 62 0
69 66 62 65 67 64 68 0
70 66 62 65 64 67 68 0
69 66 62 64 70 65 67 0
70 66 62 65 64 69 68 0
67 68 64 62 69 70 65 0
70 67 62 66 68 64 69 0
70 65 62 67 66 68 69 0
64 66 65 63 67 68 69 0
64 66 65 63 67 70 68 0
69 66 67 65 64 63 70 0
64 66 65 63 68 70 69 0
68 63 64 69 67 65 70 0
68 63 64 69 67 66 70 0
68 69 67 66 65 63 70 0
68 69 66 65 70 67 64 0
381 -62 -61 0
-63 -61 382 0
-64 -61 383 0
-65 -61 384 0
385 -66 -61 0
-67 -61 386 0
-68 -61 387 0
-69 -61 388 0
-70 -61 389 0
390 -63 -62 0
391 -62 -64 0
392 -65 -62 0
393 -62 -66 0
394 -67 -62 0
395 -62 -68 0
396 -62 -69 0
397 -62 -70 0
-63 -64 398 0
-65 -63 399 0
-63 -66 400 0
401 -67 -63 0
-63 -68 402 0
-63 -69 403 0
-63 -70 404 0
-65 -64 405 0
-64 -66 406 0
407 -67 -64 0
-64 -68 408 0
-64 -69 409 0
-64 -70 410 0
-65 -66 411 0
412 -67 -65 0
413 -65 -68 0
-65 -69 414 0
-65 -70 415 0
416 -67 -66 0
417 -68 -66 0
418 -69 -66 0
419 -70 -66 0
-67 420 -68 0
-67 421 -69 0
422 -67 -70 0
-68 -69 423 0
-70 -68 424 0
-70 -69 425 0
71 73 75 76 72 79 78 0
71 73 72 75 78 76 80 0
73 75 80 76 72 71 79 0
71 73 72 77 75 79 78 0
71 73 72 77 80 75 78 0
73 72 79 77 71 75 80 0
73 72 79 77 76 71 78 0
73 72 80 77 76 78 71 0
73 72 79 76 71 77 80 0
72 75 79 74 78 71 76 0
71 72 74 75 78 76 80 0
72 74 79 76 75 71 80 0
72 74 79 77 75 71 78 0
72 74 78 80 71 75 77 0
71 72 74 77 80 79 75 0
71 72 74 76 77 79 78 0
72 74 78 76 77 71 80 0
71 72 76 77 74 79 80 0
72 75 78 76 77 71 79 0
72 71 78 80 76 75 77 0
72 75 76 77 79 80 71 0
71 72 78 79 80 76 75 0
79 71 80 78 72 77 75 0
76 71 80 78 79 77 72 0
74 73 71 75 78 76 79 0
74 73 75 78 71 76 80 0
74 73 75 80 79 76 71 0
74 73 75 79 71 77 78 0
74 73 75 71 77 80 78 0
74 73 71 79 75 77 80 0
74 73 76 77 78 79 71 0
74 73 76 78 77 71 80 0
74 73 76 71 77 79 80 0
73 75 77 76 78 79 71 0
73 75 77 76 78 71 80 0
73 71 80 76 79 77 75 0
73 71 78 79 80 75 76 0
73 71 78 79 80 77 75 0
73 71 78 79 80 76 77 0
74 75 76 77 71 79 78 0
74 75 76 77 78 71 80 0
74 75 76 77 71 80 79 0
74 71 78 79 80 75 76 0
74 71 78 79 80 75 77 0
74 71 78 79 80 76 77 0
79 71 76 80 78 77 75 0
73 72 80 75 76 79 78 0
73 72 78 77 80 75 79 0
73 72 79 77 76 78 80 0
72 74 79 80 75 78 76 0
72 74 78 77 75 80 79 0
72 74 79 76 80 78 77 0
72 75 76 77 80 79 78 0
74 73 75 80 79 78 76 0
74 73 79 77 78 80 75 0
73 74 80 79 78 76 77 0
75 73 78 80 76 77 79 0
74 75 77 76 80 78 79 0
-72 426 -71 0
-73 427 -71 0
428 -74 -71 0
-75 429 -71 0
-76 430 -71 0
-77 431 -71 0
-72 -73 435 0
-72 436 -74 0
437 -72 -75 0
-72 -76 438 0
-72 -77 439 0
-78 440 -72 0
-79 -72 441 0
-80 -72 442 0
-73 443 -74 0
-73 444 -75 0
-73 -76 445 0
-77 -73 446 0
-78 -73 447 0
-79 -73 448 0
-80 -73 449 0
450 -75 -74 0
-76 451 -74 0
-77 452 -74 0
-78 -74 453 0
-79 -74 454 0
-80 -74 455 0
-78 458 -75 0
-79 459 -75 0
-80 460 -75 0
-78 -76 462 0
-79 -76 463 0
-80 -76 464 0
465 -78 -77 0
-79 -77 466 0
-80 -77 467 0
82 85 84 83 88 86 81 0
82 85 84 83 86 89 81 0
82 84 81 85 83 86 90 0
82 84 81 85 83 88 87 0
84 83 81 87 82 85 89 0
82 85 84 87 90 83 81 0
82 84 87 83 86 88 81 0
82 84 87 83 86 89 81 0
82 84 87 83 86 90 81 0
89 84 86 83 81 82 88 0
90 84 86 83 88 82 81 0
82 90 81 89 84 86 83 0
84 83 88 81 87 89 82 0
82 84 81 87 83 88 90 0
82 90 81 89 83 87 84 0
82 85 86 87 83 81 88 0
82 85 86 87 83 89 81 0
90 82 85 86 87 83 81 0
82 85 81 89 83 86 88 0
81 90 82 85 83 86 88 0
82 90 81 89 85 86 83 0
83 85 81 89 87 88 82 0
90 82 87 85 81 88 83 0
89 90 81 82 85 87 83 0
82 88 86 81 87 89 83 0
90 88 82 86 81 83 87 0
82 90 81 89 83 87 86 0
82 90 81 89 86 83 88 0
89 90 81 82 88 87 83 0
82 85 84 86 87 88 81 0
82 84 86 87 81 85 89 0
82 85 84 86 87 90 81 0
82 84 89 81 86 88 85 0
82 85 84 81 86 90 88 0
81 90 85 89 82 84 86 0
88 85 89 81 82 84 87 0
90 82 85 87 88 81 84 0
82 90 81 89 87 84 85 0
84 82 88 87 86 81 89 0
82 84 86 87 81 90 88 0
82 90 81 86 89 84 87 0
89 90 81 84 82 86 88 0
89 90 81 82 88 87 84 0
82 85 88 81 86 87 89 0
81 90 82 85 86 87 88 0
82 90 81 89 85 86 87 0
88 82 89 81 90 86 85 0
88 82 89 81 90 87 85 0
82 90 81 89 87 86 88 0
84 85 88 86 87 83 81 0
85 84 83 86 87 89 81 0
85 84 83 86 90 87 81 0
88 85 89 81 83 84 86 0
90 88 85 81 83 84 86 0
89 90 81 83 85 86 84 0
89 84 81 83 87 88 85 0
90 88 85 81 83 84 87 0
90 81 84 83 89 85 87 0
88 84 81 87 86 83 89 0
90 88 84 83 87 86 81 0
89 90 81 83 84 86 87 0
89 90 81 83 86 84 88 0
89 90 81 83 88 87 84 0
88 83 89 86 81 87 85 0
90 88 81 83 86 87 85 0
81 90 85 89 83 86 87 0
89 90 81 85 86 83 88 0
90 88 81 83 89 87 85 0
89 90 81 86 83 87 88 0
88 85 86 87 84 81 89 0
88 85 81 87 86 84 90 0
89 90 81 87 84 86 85 0
81 90 84 89 88 86 85 0
89 84 81 90 88 87 85 0
84 87 86 88 90 89 81 0
82 85 84 83 88 86 89 0
82 85 84 83 88 86 90 0
82 85 84 83 90 86 89 0
85 84 83 87 82 88 89 0
82 85 84 90 83 87 88 0
82 85 84 83 89 90 87 0
82 84 87 83 88 86 89 0
82 84 86 87 90 83 88 0
90 84 83 86 87 82 89 0
88 84 89 83 90 86 82 0
90 82 84 89 88 87 83 0
82 85 86 87 83 88 89 0
82 85 86 87 83 88 90 0
90 82 85 86 87 83 89 0
90 82 85 88 89 83 86 0
90 85 83 89 88 82 87 0
88 83 89 86 90 87 82 0
82 85 84 86 87 88 89 0
82 85 84 86 87 88 90 0
82 84 89 90 86 85 87 0
82 85 84 86 89 90 88 0
90 82 84 87 89 88 85 0
90 82 84 89 86 87 88 0
88 82 89 86 90 87 85 0
85 84 83 86 87 88 89 0
85 84 83 86 90 87 88 0
85 84 83 86 87 90 89 0
90 84 86 83 88 89 85 0
90 84 87 83 89 88 85 0
90 84 83 86 89 88 87 0
90 85 83 87 88 89 86 0
88 90 86 85 89 87 84 0
-82 471 -81 0
472 -83 -81 0
-84 473 -81 0
-85 474 -81 0
-86 475 -81 0
476 -87 -81 0
477 -88 -81 0
-89 478 -81 0
-90 479 -81 0
480 -82 -83 0
-82 481 -84 0
482 -82 -85 0
-86 -82 483 0
-82 -87 484 0
485 -88 -82 0
-89 -82 486 0
487 -82 -90 0
488 -84 -83 0
489 -85 -83 0
-86 490 -83 0
-87 491 -83 0
492 -88 -83 0
-89 493 -83 0
-90 494 -83 0
495 -84 -85 0
-86 -84 496 0
-87 -84 497 0
-88 -84 498 0
-89 499 -84 0
-90 500 -84 0
-86 -85 501 0
-87 -85 502 0
-88 -85 503 0
-89 504 -85 0
-90 505 -85 0
-86 -87 506 0
-88 -86 507 0
-86 -89 508 0
-86 -90 509 0
-88 -87 510 0
-89 -87 511 0
-87 -90 512 0
513 -88 -89 0
514 -88 -90 0
-89 -90 515 0
93 94 95 92 98 91 96 0
93 94 95 92 99 96 91 0
93 94 100 95 92 96 91 0
93 94 95 92 97 91 98 0
93 94 95 92 91 99 97 0
92 91 95 100 97 94 93 0
92 94 96 97 93 98 91 0
92 94 96 93 99 97 91 0
92 91 93 100 97 96 94 0
99 92 91 94 96 98 93 0
92 91 93 100 98 96 94 0
99 91 93 100 94 92 96 0
99 92 91 94 98 97 93 0
98 92 91 100 97 94 93 0
99 91 93 100 97 94 92 0
98 91 93 97 92 96 95 0
99 95 93 97 96 91 92 0
92 95 96 97 93 91 100 0
99 92 91 98 95 93 96 0
92 91 93 100 96 98 95 0
92 91 93 100 99 96 95 0
98 92 91 95 99 93 97 0
98 92 91 100 95 97 93 0
99 92 91 100 97 95 93 0
99 92 91 96 97 98 93 0
92 91 93 100 98 96 97 0
99 100 96 91 97 93 92 0
98 92 91 100 99 96 93 0
92 91 93 100 97 99 98 0
92 94 91 96 95 97 98 0
92 94 91 96 95 97 99 0
92 94 91 100 97 95 96 0
98 92 91 94 99 95 96 0
98 92 91 100 96 94 95 0
92 91 95 100 99 94 96 0
98 94 97 92 91 95 99 0
98 92 91 100 97 94 95 0
99 92 91 100 94 95 97 0
98 94 97 92 96 91 99 0
92 94 91 96 100 97 98 0
99 92 91 100 94 96 97 0
92 94 91 100 98 96 99 0
99 92 91 100 94 98 97 0
92 91 95 96 97 98 99 0
92 91 95 100 98 96 97 0
99 92 91 100 95 97 96 0
92 91 95 100 96 99 98 0
99 92 91 100 97 98 95 0
98 92 91 96 100 99 97 0
93 91 96 97 95 94 98 0
93 94 95 96 97 91 99 0
93 94 96 97 95 91 100 0
98 91 95 93 94 99 96 0
93 91 95 100 94 98 96 0
94 91 95 100 99 96 93 0
98 94 93 97 91 95 99 0
93 91 95 97 94 100 98 0
94 91 95 100 97 99 93 0
98 91 93 97 96 94 99 0
94 93 91 96 100 97 98 0
99 94 91 100 97 96 93 0
98 99 94 100 91 96 93 0
99 94 91 100 98 97 93 0
99 91 93 97 96 98 95 0
93 91 95 96 100 98 97 0
99 95 96 91 100 97 93 0
98 91 100 95 99 93 96 0
98 91 100 95 99 97 93 0
98 91 100 99 97 96 93 0
98 99 95 96 97 91 94 0
98 94 91 100 97 95 96 0
94 91 95 100 97 96 99 0
100 99 91 96 95 98 94 0
98 99 94 100 97 91 95 0
99 94 91 96 100 98 97 0
98 91 95 100 97 99 96 0
93 94 95 92 99 96 98 0
93 94 95 92 98 96 100 0
93 94 95 92 100 96 99 0
93 94 95 92 97 98 99 0
94 92 95 100 97 93 98 0
93 94 95 92 99 97 100 0
92 94 97 93 96 98 99 0
92 94 96 93 97 98 100 0
92 94 96 97 93 99 100 0
98 94 100 92 99 93 96 0
92 94 97 93 99 100 98 0
92 95 96 97 93 98 99 0
92 95 96 97 93 98 100 0
92 95 93 97 100 96 99 0
98 95 93 99 100 92 96 0
98 95 93 99 100 97 92 0
98 99 93 100 96 97 92 0
94 92 97 96 95 98 99 0
94 92 97 96 95 98 100 0
94 92 97 96 95 99 100 0
100 99 94 92 98 95 96 0
98 99 94 92 97 100 95 0
94 92 97 96 100 98 99 0
92 98 95 97 96 100 99 0
94 93 97 95 96 98 99 0
93 94 95 96 100 97 98 0
93 94 95 96 97 99 100 0
93 94 100 99 95 96 98 0
93 94 100 97 98 99 95 0
98 94 93 100 99 97 96 0
98 99 93 100 96 97 95 0
99 98 94 100 97 96 95 0
-92 516 -91 0
517 -93 -91 0
518 -94 -91 0
519 -95 -91 0
-96 520 -91 0
-97 521 -91 0
522 -98 -91 0
523 -99 -91 0
-100 524 -91 0
525 -92 -93 0
-92 526 -94 0
527 -92 -95 0
-92 -96 528 0
-92 -97 529 0
-92 530 -98 0
531 -92 -99 0
-92 532 -100 0
533 -93 -94 0
534 -93 -95 0
-96 535 -93 0
-97 536 -93 0
-98 537 -93 0
-99 -93 538 0
-100 539 -93 0
540 -95 -94 0
-96 541 -94 0
-97 542 -94 0
-98 543 -94 0
-99 544 -94 0
545 -100 -94 0
-96 546 -95 0
-97 547 -95 0
-98 548 -95 0
549 -99 -95 0
550 -100 -95 0
-96 -97 551 0
-96 -98 552 0
-96 -99 553 0
-96 -100 554 0
-98 -97 555 0
-97 556 -99 0
-97 -100 557 0
558 -98 -99 0
559 -98 -100 0
560 -100 -99 0
101 105 104 108 103 102 106 0
101 103 104 105 102 109 106 0
103 104 102 105 110 106 101 0
101 105 104 102 108 107 103 0
103 104 102 105 101 109 107 0
103 104 102 105 101 110 107 0
101 104 102 107 106 103 108 0
101 104 102 107 106 103 109 0
101 104 102 107 106 103 110 0
103 104 102 101 108 109 106 0
101 104 102 106 108 110 103 0
101 103 104 110 106 109 102 0
103 104 102 101 108 109 107 0
101 104 102 110 108 103 107 0
101 103 104 107 110 109 102 0
101 105 102 106 107 103 108 0
101 105 102 106 107 103 109 0
103 105 102 107 106 110 101 0
101 105 102 106 103 109 108 0
101 105 102 106 110 108 103 0
101 103 105 109 110 102 106 0
101 103 105 102 107 108 109 0
101 105 102 110 103 108 107 0
101 103 105 109 110 102 107 0
101 103 102 109 106 108 107 0
101 103 102 107 110 108 106 0
101 103 102 110 109 107 106 0
101 103 102 110 108 109 106 0
101 103 102 108 110 109 107 0
101 105 104 108 106 107 102 0
105 106 102 104 107 101 109 0
101 104 102 107 110 106 105 0
105 104 102 101 108 109 106 0
105 104 102 106 110 108 101 0
101 105 102 109 110 106 104 0
105 104 102 101 108 109 107 0
105 104 102 110 107 101 108 0
105 104 102 109 110 101 107 0
101 104 102 108 106 107 109 0
101 104 102 107 108 110 106 0
101 104 102 110 109 107 106 0
101 104 102 109 108 106 110 0
101 104 102 107 108 110 109 0
108 101 102 109 107 106 105 0
101 105 102 108 106 107 110 0
101 105 102 107 110 109 106 0
108 101 102 109 110 105 106 0
101 105 102 107 110 108 109 0
108 101 102 110 107 109 106 0
101 103 104 106 107 105 108 0
105 103 104 107 106 101 109 0
101 103 104 106 107 105 110 0
101 103 104 105 108 109 106 0
101 103 104 106 108 110 105 0
101 105 104 106 109 110 103 0
101 105 104 108 103 107 109 0
101 105 104 108 103 110 107 0
101 103 104 107 109 110 105 0
108 101 104 109 106 103 107 0
101 103 104 107 108 110 106 0
110 109 104 101 107 106 103 0
101 103 104 109 110 106 108 0
101 103 104 107 108 110 109 0
101 103 105 107 106 108 109 0
101 103 105 108 106 107 110 0
110 109 103 101 106 105 107 0
101 103 105 109 110 106 108 0
110 109 103 101 107 105 108 0
109 110 103 101 107 108 106 0
101 105 104 107 108 109 106 0
108 110 104 101 106 107 105 0
109 110 104 101 107 106 105 0
101 105 104 109 106 108 110 0
108 101 104 109 110 105 107 0
109 110 104 101 107 106 108 0
103 104 102 105 106 108 109 0
103 104 102 108 106 105 110 0
105 104 102 110 109 103 106 0
103 104 102 105 107 109 108 0
103 104 102 110 105 108 107 0
105 104 102 107 110 103 109 0
103 106 102 104 107 109 108 0
103 106 102 104 107 108 110 0
103 106 102 104 110 107 109 0
103 104 102 110 109 108 106 0
103 104 102 107 110 108 109 0
103 105 102 107 106 108 109 0
103 105 102 107 110 106 108 0
103 105 102 107 106 109 110 0
108 109 102 110 103 105 106 0
108 110 102 105 109 103 107 0
108 103 110 109 102 107 106 0
105 106 102 104 107 108 109 0
105 106 102 104 107 110 108 0
110 104 102 106 107 109 105 0
108 104 102 109 110 105 106 0
108 104 102 109 110 105 107 0
110 104 102 106 107 109 108 0
108 110 102 105 109 107 106 0
105 103 104 107 106 108 109 0
105 103 104 107 106 108 110 0
103 109 105 107 106 110 104 0
108 103 105 109 110 104 106 0
103 109 105 107 110 108 104 0
108 109 106 110 107 103 104 0
103 109 105 107 110 106 108 0
110 104 105 107 109 108 106 0
-102 561 -101 0
-103 562 -101 0
-104 -101 563 0
-105 564 -101 0
-106 565 -101 0
-107 566 -101 0
567 -108 -101 0
-109 568 -101 0
569 -110 -101 0
-102 570 -103 0
-102 571 -104 0
572 -102 -105 0
-102 -106 573 0
-102 -107 574 0
-102 575 -108 0
-102 576 -109 0
-102 577 -110 0
578 -103 -104 0
-103 579 -105 0
-106 -103 580 0
-107 -103 581 0
-108 582 -103 0
-109 -103 583 0
-103 -110 584 0
585 -105 -104 0
-106 586 -104 0
-107 587 -104 0
-108 588 -104 0
-109 589 -104 0
-110 -104 590 0
-106 591 -105 0
-107 592 -105 0
-108 593 -105 0
-109 594 -105 0
-110 -105 595 0
-107 -106 596 0
-108 -106 597 0
-106 -109 598 0
-106 -110 599 0
-107 -108 600 0
-107 -109 601 0
-107 -110 602 0
603 -108 -109 0
604 -108 -110 0
-109 -110 605 0
-11 -15 -1 336 -5 0
-11 -16 -1 381 -6 0
-36 -3 383 -31 -6 0
-45 -4 339 -41 -5 0
-51 -54 -3 249 -5 0
-51 -4 294 -55 -5 0
385 -56 -51 -5 -6 0
-57 -51 -7 430 -5 0
-60 -51 -10 565 -5 0
-1 -62 -61 160 -6 0
-64 -61 -3 250 -6 0
-65 -61 -4 295 -6 0
340 -66 -61 -5 -6 0
-67 -61 431 -7 -6 0
-61 -69 -9 521 -6 0
-61 -70 -10 566 -6 0
-86 342 -81 -8 -5 0
-97 388 -91 -9 -6 0
-11 -1 -8 -18 471 0
-25 337 -21 -2 -5 0
-26 382 -21 -2 -6 0
-27 -2 -7 -21 427 0
-8 -2 -21 -28 472 0
517 -29 -9 -2 -21 0
-30 562 -10 -21 -2 0
-22 -13 -23 -12 255 0
-14 300 -24 -12 -22 0
-16 -26 -12 -22 390 0
-27 -12 435 -17 -22 0
-12 480 -28 -18 -22 0
-19 -12 -29 525 -22 0
-12 570 -30 -20 -22 0
-35 -3 338 -31 -5 0
-7 -3 -31 -37 428 0
-38 -3 -8 -31 473 0
-39 518 -9 -3 -31 0
563 -3 -10 -31 -40 0
-13 -15 -32 346 -35 0
-13 -16 -36 -32 391 0
-13 -32 -37 -17 436 0
-18 -32 -38 -13 481 0
-19 -13 -32 -39 526 0
-20 -13 -32 -40 571 0
-33 -31 -21 120 -23 0
-22 165 -32 -33 -23 0
-34 -23 -24 308 -33 0
-25 353 -23 -35 -33 0
-26 398 -36 -33 -23 0
443 -27 -33 -23 -37 0
488 -38 -28 -23 -33 0
533 -33 -29 -23 -39 0
578 -33 -40 -23 -30 0
-46 -4 384 -41 -6 0
-47 -4 -7 -41 429 0
-48 -4 -8 474 -41 0
-4 -49 -9 519 -41 0
-50 564 -10 -4 -41 0
437 -14 -47 -17 -42 0
-20 -42 -14 572 -50 0
354 -25 -45 -43 -24 0
-43 -26 -46 -24 399 0
444 -27 -24 -43 -47 0
489 -24 -48 -43 -28 0
534 -29 -49 -43 -24 0
-30 -24 -50 -43 579 0
405 -44 -36 -34 -46 0
-44 -47 -34 -37 450 0
495 -34 -48 -44 -38 0
540 -49 -39 -34 -44 0
-34 -50 -40 585 -44 0
159 -1 -51 -52 -5 0
-51 -53 -2 204 -5 0
-58 -51 -8 475 -5 0
-59 -51 -9 520 -5 0
302 -55 -14 -15 -52 0
-15 -58 -52 483 -18 0
-19 -59 -52 -15 528 0
-20 -60 -15 -52 573 0
-25 -51 -21 -53 122 0
-22 -53 -52 -25 167 0
-53 -54 -23 -25 264 0
-55 -53 -24 -25 309 0
-53 -25 445 -27 -57 0
-53 -25 -28 490 -58 0
-53 -25 535 -29 -59 0
-53 -25 -30 580 -60 0
-51 -35 -31 129 -54 0
-32 -52 174 -35 -54 0
-53 -54 -33 -35 219 0
-55 315 -35 -34 -54 0
-57 -35 451 -54 -37 0
-58 -35 496 -54 -38 0
-59 -54 541 -39 -35 0
-60 -54 -40 -35 586 0
-55 -51 -45 135 -41 0
-42 -55 -52 -45 180 0
-55 -53 -43 -45 225 0
-54 -55 -45 -44 270 0
-58 -55 -45 501 -48 0
-55 -59 -45 -49 546 0
-55 -60 591 -50 -45 0
-62 -52 -66 -56 186 0
-63 -61 -2 205 -6 0
476 -61 -8 -68 -6 0
-63 -61 -21 -26 123 0
-22 -63 -62 -26 168 0
265 -26 -64 -63 -23 0
-65 -63 -24 -26 310 0
-26 -27 446 -63 -67 0
-26 491 -68 -63 -28 0
-63 -26 -29 536 -69 0
-63 -70 -30 581 -26 0
-36 -61 -31 130 -64 0
-64 -32 175 -36 -62 0
-63 -64 220 -36 -33 0
-65 -64 -36 -34 316 0
-67 -36 452 -64 -37 0
-64 -68 -38 -36 497 0
-64 -69 -39 -36 542 0
-70 -36 -40 -64 587 0
-61 -46 -41 136 -65 0
-42 -62 -46 -65 181 0
-65 -63 -43 -46 226 0
-65 -64 -44 271 -46 0
-65 -68 -46 -48 502 0
-65 -69 -46 -49 547 0
-65 -70 -46 592 -50 0
-53 -63 -56 -66 231 0
-64 -54 -56 -66 276 0
-55 -65 -56 -66 321 0
-60 -70 -66 -56 596 0
-1 -72 -71 -7 161 0
-73 -2 -71 -7 206 0
-74 -3 -7 -71 251 0
-75 -4 -71 -7 296 0
-76 341 -71 -7 -5 0
-77 386 -71 -7 -6 0
-11 -72 -71 -17 116 0
214 -73 -12 -17 -72 0
259 -17 -74 -13 -72 0
-72 -17 -75 -14 304 0
349 -76 -15 -17 -72 0
394 -16 -77 -17 -72 0
-78 485 -18 -17 -72 0
-19 -79 -17 -72 530 0
-20 -80 -17 -72 575 0
-27 -73 -71 124 -21 0
-22 169 -27 -72 -73 0
266 -23 -74 -27 -73 0
-73 -24 -75 -27 311 0
356 -76 -25 -27 -73 0
401 -73 -26 -27 -77 0
-78 492 -28 -27 -73 0
-79 537 -29 -27 -73 0
-80 582 -30 -73 -27 0
131 -74 -31 -37 -71 0
-32 -72 -37 -74 176 0
-73 -33 -37 -74 221 0
-34 -75 -74 -37 317 0
362 -35 -74 -76 -37 0
407 -77 -36 -74 -37 0
-38 -78 -37 -74 498 0
-79 543 -39 -37 -74 0
-80 -40 -37 588 -74 0
137 -41 -71 -75 -47 0
-42 -47 -75 -72 182 0
-47 -43 -75 227 -73 0
-44 -47 -74 -75 272 0
-47 -78 -75 503 -48 0
-79 -75 -49 -47 548 0
-47 -80 593 -75 -50 0
-76 -51 -71 -57 142 0
-72 -76 -52 -57 187 0
-53 -57 -73 -76 232 0
-57 -76 -54 -74 277 0
-57 -76 -58 -78 507 0
-57 -76 -59 -79 552 0
-60 -57 -76 597 -80 0
-67 -61 -71 146 -77 0
-72 -77 -62 -67 191 0
-67 -77 -63 -73 236 0
-67 -77 -64 -74 281 0
-67 -77 -68 -78 510 0
-67 -77 -69 -79 555 0
-77 600 -70 -67 -80 0
-1 -82 -81 -8 162 0
207 -81 -2 -8 -83 0
-84 -3 252 -8 -81 0
-4 -85 -8 297 -81 0
-87 387 -81 -8 -6 0
-11 -18 -82 117 -81 0
-18 -82 -83 -12 215 0
-14 -18 -82 -85 305 0
-15 -86 -82 -18 350 0
-18 -17 -82 -88 440 0
125 -81 -28 -83 -21 0
-22 -82 170 -83 -28 0
-23 -84 -83 -28 267 0
312 -24 -83 -28 -85 0
-25 357 -83 -86 -28 0
402 -26 -83 -87 -28 0
-27 -88 -28 -83 447 0
-29 -89 -28 -83 538 0
-90 -30 -83 583 -28 0
-38 132 -81 -84 -31 0
-82 -32 -38 -84 177 0
-33 -38 -83 -84 222 0
318 -34 -85 -38 -84 0
363 -35 -38 -84 -86 0
-87 -36 -38 -84 408 0
-88 -38 -37 -84 453 0
-89 -38 -39 -84 544 0
-90 589 -40 -38 -84 0
-85 138 -81 -48 -41 0
-42 -82 -48 -85 183 0
-43 -85 -83 228 -48 0
-44 -84 -85 273 -48 0
368 -45 -85 -86 -48 0
413 -46 -85 -48 -87 0
458 -88 -48 -85 -47 0
-89 549 -48 -85 -49 0
-90 594 -48 -85 -50 0
-86 -51 -81 -58 143 0
-86 -58 -52 -82 188 0
-53 -58 -83 -86 233 0
-58 -54 -84 -86 278 0
-55 -86 -85 323 -58 0
-57 -86 462 -58 -88 0
-89 -58 -59 553 -86 0
-60 -58 -90 -86 598 0
-61 -81 147 -68 -87 0
-82 -62 -87 -68 192 0
-63 -87 237 -83 -68 0
-64 -68 -84 -87 282 0
-65 -87 327 -85 -68 0
-67 -88 -68 -87 465 0
-89 -68 -69 -87 556 0
-87 -70 601 -68 -90 0
-72 195 -88 -78 -82 0
-73 240 -88 -83 -78 0
-78 285 -84 -88 -74 0
-78 330 -75 -85 -88 0
-76 -78 -88 -86 375 0
-77 420 -88 -87 -78 0
-92 -1 -91 -9 163 0
-93 -2 -91 -9 208 0
-94 -3 -9 253 -91 0
-4 -95 -91 298 -9 0
-96 343 -91 -9 -5 0
-19 -92 -91 -11 118 0
-19 -92 -12 -93 216 0
-92 -15 -96 -19 351 0
-19 -98 441 -17 -92 0
-19 -92 -18 -99 486 0
-93 -91 -21 126 -29 0
-22 -92 171 -29 -93 0
-23 -29 -94 268 -93 0
313 -93 -95 -24 -29 0
-25 -96 -93 -29 358 0
-26 -97 -29 -93 403 0
-98 -27 -29 -93 448 0
493 -99 -93 -29 -28 0
-100 -30 584 -29 -93 0
133 -91 -31 -39 -94 0
-92 -32 -94 178 -39 0
-33 -93 -94 -39 223 0
319 -95 -39 -34 -94 0
-96 -35 -94 -39 364 0
-97 -36 -39 -94 409 0
-98 -39 -37 -94 454 0
499 -38 -39 -94 -99 0
-100 -40 -94 -39 590 0
-95 -41 -91 139 -49 0
-42 -92 -49 -95 184 0
-43 -95 -93 229 -49 0
-44 274 -95 -94 -49 0
369 -45 -95 -49 -96 0
414 -46 -95 -49 -97 0
-98 459 -49 -95 -47 0
-99 504 -95 -49 -48 0
-100 -50 -95 -49 595 0
-96 -51 -91 -59 144 0
-92 -96 -52 -59 189 0
-53 -59 -93 -96 234 0
-59 -96 -94 279 -54 0
-55 -96 -95 324 -59 0
-96 -59 463 -98 -57 0
-58 -59 508 -99 -96 0
-60 -59 -100 599 -96 0
-97 -69 -91 -61 148 0
-92 -97 193 -62 -69 0
-63 -97 238 -93 -69 0
-97 -64 -94 283 -69 0
-65 -97 -69 -95 328 0
-67 -98 -69 -97 466 0
-97 -68 -99 -69 511 0
-97 -70 -100 -69 602 0
-79 196 -92 -98 -72 0
-73 241 -98 -93 -79 0
-79 286 -94 -98 -74 0
-79 -98 -75 331 -95 0
-76 376 -96 -98 -79 0
-77 -79 -98 -97 421 0
-89 -91 -81 -99 153 0
-92 -82 198 -99 -89 0
-89 243 -83 -93 -99 0
-89 -84 -94 288 -99 0
-89 333 -95 -85 -99 0
-86 -96 -99 378 -89 0
-97 -87 -99 423 -89 0
-88 -98 -99 468 -89 0
-90 -100 -99 605 -89 0
-1 -102 -101 -10 164 0
-103 -101 -2 -10 209 0
254 -3 -101 -10 -104 0
-4 -105 -101 -10 299 0
-106 344 -10 -101 -5 0
-107 389 -10 -101 -6 0
-20 -11 -101 119 -102 0
-20 -102 -12 -103 217 0
-20 -14 -105 -102 307 0
-20 -102 -106 -15 352 0
-20 -102 -17 -108 442 0
-20 -102 -18 -109 487 0
-20 -19 -102 532 -110 0
-30 -101 -21 127 -103 0
-22 -30 -102 -103 172 0
-30 269 -104 -23 -103 0
-103 -24 -105 314 -30 0
359 -25 -106 -30 -103 0
404 -26 -107 -30 -103 0
-27 -108 -30 -103 449 0
-109 -30 -28 -103 494 0
539 -30 -110 -29 -103 0
-101 -104 -31 134 -40 0
-102 -32 -40 -104 179 0
-33 -103 -104 -40 224 0
-34 320 -105 -40 -104 0
365 -35 -40 -104 -106 0
410 -36 -40 -104 -107 0
-108 -40 -37 -104 455 0
500 -38 -40 -104 -109 0
545 -40 -39 -110 -104 0
-105 -41 -101 140 -50 0
-42 -102 -105 -50 185 0
-103 -43 -105 230 -50 0
-44 -105 -104 275 -50 0
-106 370 -45 -50 -105 0
-107 415 -46 -50 -105 0
460 -108 -47 -105 -50 0
-109 -48 -105 -50 505 0
-110 -50 -49 -105 550 0
-60 -106 -51 -101 145 0
-60 -102 -106 -52 190 0
-60 -53 -103 -106 235 0
-60 -54 -104 -106 280 0
-55 -106 -105 -60 325 0
464 -60 -106 -57 -108 0
-60 -106 509 -109 -58 0
-60 -59 -110 -106 554 0
-107 -61 -101 -70 149 0
-102 -107 -62 -70 194 0
-107 -70 -103 239 -63 0
-107 -70 -104 -64 284 0
-107 -70 -105 -65 329 0
-107 -108 -70 467 -67 0
-107 -70 -109 -68 512 0
-69 -107 -110 557 -70 0
-80 -102 -72 -108 197 0
-80 -108 -103 -73 242 0
287 -108 -104 -74 -80 0
332 -75 -105 -80 -108 0
-80 377 -108 -106 -76 0
422 -80 -107 -108 -77 0
-90 -101 -81 -109 154 0
-102 -90 -109 -82 199 0
-109 -103 -83 244 -90 0
-90 289 -104 -109 -84 0
-90 -109 -105 334 -85 0
-86 -90 -109 -106 379 0
-107 -87 -109 -90 424 0
-108 -90 -109 -88 469 0
-89 -109 560 -90 -110 0
-110 -101 -91 -100 155 0
-92 -100 -110 200 -102 0
245 -100 -103 -93 -110 0
-100 -110 -104 290 -94 0
-100 -110 -95 335 -105 0
-106 -96 380 -110 -100 0
-107 -100 -110 425 -97 0
-98 -100 -110 -108 470 0
-109 -100 -99 515 -110 0
-167 -122 0
-168 -123 0
-124 -169 0
-170 -125 0
-171 -126 0
-172 -127 0
-174 -129 0
-175 -130 0
-176 -131 0
-177 -132 0
-178 -133 0
-179 -134 0
-180 -135 0
-181 -136 0
-182 -137 0
-183 -138 0
-184 -139 0
-185 -140 0
-186 -141 0
-187 -142 0
-188 -143 0
-189 -144 0
-190 -145 0
-191 -146 0
-192 -147 0
-193 -148 0
-194 -149 0
-195 -150 0
-152 -197 0
-153 -198 0
-199 -154 0
-155 -200 0
-128 -218 0
-219 -129 0
-220 -130 0
-221 -131 0
-222 -132 0
-223 -133 0
-224 -134 0
-225 -135 0
-226 -136 0
-227 -137 0
-228 -138 0
-229 -139 0
-230 -140 0
-231 -141 0
-232 -142 0
-233 -143 0
-234 -144 0
-235 -145 0
-236 -146 0
-237 -147 0
-238 -148 0
-239 -149 0
-150 -240 0
-151 -241 0
-242 -152 0
-153 -243 0
-154 -244 0
-155 -245 0
-111 -255 0
-270 -135 0
-271 -136 0
-272 -137 0
-273 -138 0
-274 -139 0
-275 -140 0
-276 -141 0
-277 -142 0
-278 -143 0
-279 -144 0
-280 -145 0
-281 -146 0
-282 -147 0
-283 -148 0
-284 -149 0
-150 -285 0
-287 -152 0
-153 -288 0
-154 -289 0
-155 -290 0
-300 -111 0
-301 -112 0
-308 -120 0
-321 -141 0
-322 -142 0
-323 -143 0
-324 -144 0
-325 -145 0
-326 -146 0
-327 -147 0
-328 -148 0
-329 -149 0
-150 -330 0
-152 -332 0
-153 -333 0
-154 -334 0
-155 -335 0
-112 -346 0
-353 -120 0
-354 -121 0
-360 -128 0
-371 -146 0
-372 -147 0
-373 -148 0
-374 -149 0
-152 -377 0
-153 -378 0
-154 -379 0
-155 -380 0
-111 -390 0
-112 -391 0
-113 -392 0
-393 -114 0
-120 -398 0
-121 -399 0
-400 -122 0
-128 -405 0
-406 -129 0
-411 -135 0
-150 -420 0
-151 -421 0
-152 -422 0
-153 -423 0
-154 -424 0
-155 -425 0
-111 -435 0
-112 -436 0
-113 -437 0
-438 -114 0
-439 -115 0
-120 -443 0
-121 -444 0
-445 -122 0
-446 -123 0
-128 -450 0
-451 -129 0
-452 -130 0
-456 -135 0
-457 -136 0
-461 -141 0
-468 -153 0
-469 -154 0
-470 -155 0
-111 -480 0
-112 -481 0
-113 -482 0
-483 -114 0
-484 -115 0
-116 -485 0
-120 -488 0
-121 -489 0
-490 -122 0
-491 -123 0
-124 -492 0
-128 -495 0
-496 -129 0
-497 -130 0
-498 -131 0
-501 -135 0
-502 -136 0
-503 -137 0
-506 -141 0
-507 -142 0
-510 -146 0
-155 -515 0
-111 -525 0
-112 -526 0
-113 -527 0
-528 -114 0
-529 -115 0
-116 -530 0
-117 -531 0
-120 -533 0
-121 -534 0
-535 -122 0
-536 -123 0
-124 -537 0
-538 -125 0
-128 -540 0
-541 -129 0
-542 -130 0
-543 -131 0
-544 -132 0
-546 -135 0
-547 -136 0
-548 -137 0
-549 -138 0
-551 -141 0
-552 -142 0
-553 -143 0
-555 -146 0
-556 -147 0
-150 -558 0
-111 -570 0
-112 -571 0
-573 -114 0
-574 -115 0
-575 -116 0
-576 -117 0
-577 -118 0
-120 -578 0
-121 -579 0
-580 -122 0
-581 -123 0
-124 -582 0
-583 -125 0
-584 -126 0
-128 -585 0
-586 -129 0
-587 -130 0
-588 -131 0
-589 -132 0
-590 -133 0
-591 -135 0
-592 -136 0
-593 -137 0
-594 -138 0
-595 -139 0
-596 -141 0
-597 -142 0
-598 -143 0
-599 -144 0
-600 -146 0
-601 -147 0
-602 -148 0
-150 -603 0
-153 -605 0
-157 -202 0
-158 -203 0
-204 -159 0
-205 -160 0
-161 -206 0
-162 -207 0
-163 -208 0
-164 -209 0
-173 -218 0
-219 -174 0
-220 -175 0
-221 -176 0
-177 -222 0
-178 -223 0
-179 -224 0
-225 -180 0
-181 -226 0
-227 -182 0
-183 -228 0
-184 -229 0
-185 -230 0
-232 -187 0
-233 -188 0
-189 -234 0
-190 -235 0
-191 -236 0
-192 -237 0
-193 -238 0
-194 -239 0
-195 -240 0
-196 -241 0
-242 -197 0
-198 -243 0
-199 -244 0
-200 -245 0
-158 -248 0
-159 -249 0
-250 -160 0
-161 -251 0
-162 -252 0
-163 -253 0
-164 -254 0
-270 -180 0
-181 -271 0
-272 -182 0
-183 -273 0
-184 -274 0
-185 -275 0
-277 -187 0
-278 -188 0
-189 -279 0
-190 -280 0
-191 -281 0
-192 -282 0
-193 -283 0
-194 -284 0
-195 -285 0
-196 -286 0
-287 -197 0
-198 -288 0
-199 -289 0
-200 -290 0
-294 -159 0
-295 -160 0
-161 -296 0
-162 -297 0
-163 -298 0
-164 -299 0
-308 -165 0
-322 -187 0
-188 -323 0
-189 -324 0
-190 -325 0
-326 -191 0
-192 -327 0
-193 -328 0
-194 -329 0
-195 -330 0
-196 -331 0
-197 -332 0
-198 -333 0
-199 -334 0
-200 -335 0
-160 -340 0
-161 -341 0
-162 -342 0
-163 -343 0
-164 -344 0
-353 -165 0
-354 -166 0
-360 -173 0
-191 -371 0
-192 -372 0
-193 -373 0
-194 -374 0
-195 -375 0
-196 -376 0
-197 -377 0
-378 -198 0
-199 -379 0
-200 -380 0
-161 -386 0
-162 -387 0
-163 -388 0
-164 -389 0
-398 -165 0
-399 -166 0
-167 -400 0
-173 -405 0
-406 -174 0
-195 -420 0
-196 -421 0
-197 -422 0
-198 -423 0
-199 -424 0
-200 -425 0
-432 -162 0
-433 -163 0
-434 -164 0
-443 -165 0
-444 -166 0
-167 -445 0
-168 -446 0
-173 -450 0
-451 -174 0
-452 -175 0
-456 -180 0
-457 -181 0
-468 -198 0
-469 -199 0
-470 -200 0
-478 -163 0
-479 -164 0
-488 -165 0
-166 -489 0
-167 -490 0
-168 -491 0
-492 -169 0
-173 -495 0
-496 -174 0
-497 -175 0
-498 -176 0
-501 -180 0
-181 -502 0
-503 -182 0
-187 -507 0
-191 -510 0
-200 -515 0
-524 -164 0
-165 -533 0
-166 -534 0
-167 -535 0
-168 -536 0
-537 -169 0
-170 -538 0
-173 -540 0
-541 -174 0
-542 -175 0
-543 -176 0
-177 -544 0
-546 -180 0
-181 -547 0
-548 -182 0
-183 -549 0
-187 -552 0
-188 -553 0
-191 -555 0
-192 -556 0
-195 -558 0
-578 -165 0
-579 -166 0
-167 -580 0
-168 -581 0
-582 -169 0
-583 -170 0
-171 -584 0
-173 -585 0
-586 -174 0
-587 -175 0
-588 -176 0
-177 -589 0
-178 -590 0
-591 -180 0
-181 -592 0
-593 -182 0
-183 -594 0
-184 -595 0
-187 -597 0
-188 -598 0
-189 -599 0
-191 -600 0
-192 -601 0
-193 -602 0
-195 -603 0
-196 -604 0
-198 -605 0
-246 -201 0
-248 -203 0
-249 -204 0
-250 -205 0
-206 -251 0
-252 -207 0
-208 -253 0
-209 -254 0
-256 -211 0
-212 -257 0
-213 -258 0
-259 -214 0
-260 -215 0
-216 -261 0
-262 -217 0
-270 -225 0
-271 -226 0
-272 -227 0
-273 -228 0
-274 -229 0
-275 -230 0
-277 -232 0
-278 -233 0
-234 -279 0
-280 -235 0
-281 -236 0
-282 -237 0
-238 -283 0
-284 -239 0
-285 -240 0
-286 -241 0
-287 -242 0
-288 -243 0
-244 -289 0
-290 -245 0
-291 -201 0
-204 -294 0
-205 -295 0
-206 -296 0
-297 -207 0
-208 -298 0
-209 -299 0
-212 -302 0
-303 -213 0
-304 -214 0
-215 -305 0
-216 -306 0
-307 -217 0
-322 -232 0
-233 -323 0
-234 -324 0
-235 -325 0
-326 -236 0
-237 -327 0
-238 -328 0
-239 -329 0
-330 -240 0
-331 -241 0
-242 -332 0
-333 -243 0
-244 -334 0
-335 -245 0
-201 -336 0
-205 -340 0
-341 -206 0
-342 -207 0
-343 -208 0
-344 -209 0
-213 -348 0
-214 -349 0
-215 -350 0
-216 -351 0
-217 -352 0
-360 -218 0
-371 -236 0
-372 -237 0
-238 -373 0
-374 -239 0
-375 -240 0
-376 -241 0
-242 -377 0
-378 -243 0
-379 -244 0
-380 -245 0
-201 -381 0
-386 -206 0
-387 -207 0
-388 -208 0
-389 -209 0
-214 -394 0
-215 -395 0
-216 -396 0
-217 -397 0
-405 -218 0
-219 -406 0
-225 -411 0
-240 -420 0
-241 -421 0
-242 -422 0
-423 -243 0
-244 -424 0
-425 -245 0
-426 -201 0
-432 -207 0
-433 -208 0
-434 -209 0
-215 -440 0
-216 -441 0
-217 -442 0
-450 -218 0
-219 -451 0
-220 -452 0
-456 -225 0
-457 -226 0
-468 -243 0
-469 -244 0
-470 -245 0
-471 -201 0
-478 -208 0
-479 -209 0
-486 -216 0
-217 -487 0
-218 -495 0
-219 -496 0
-220 -497 0
-498 -221 0
-225 -501 0
-226 -502 0
-503 -227 0
-232 -507 0
-236 -510 0
-515 -245 0
-516 -201 0
-524 -209 0
-532 -217 0
-218 -540 0
-219 -541 0
-220 -542 0
-543 -221 0
-222 -544 0
-225 -546 0
-226 -547 0
-548 -227 0
-549 -228 0
-232 -552 0
-233 -553 0
-236 -555 0
-237 -556 0
-240 -558 0
-201 -561 0
-585 -218 0
-219 -586 0
-220 -587 0
-588 -221 0
-222 -589 0
-590 -223 0
-591 -225 0
-226 -592 0
-593 -227 0
-594 -228 0
-595 -229 0
-232 -597 0
-233 -598 0
-234 -599 0
-236 -600 0
-237 -601 0
-238 -602 0
-240 -603 0
-241 -604 0
-605 -243 0
-291 -246 0
-292 -247 0
-249 -294 0
-250 -295 0
-296 -251 0
-252 -297 0
-298 -253 0
-299 -254 0
-300 -255 0
-302 -257 0
-303 -258 0
-304 -259 0
-260 -305 0
-306 -261 0
-307 -262 0
-264 -309 0
-265 -310 0
-311 -266 0
-267 -312 0
-313 -268 0
-269 -314 0
-322 -277 0
-278 -323 0
-324 -279 0
-280 -325 0
-326 -281 0
-282 -327 0
-328 -283 0
-284 -329 0
-330 -285 0
-331 -286 0
-287 -332 0
-288 -333 0
-289 -334 0
-335 -290 0
-246 -336 0
-247 -337 0
-250 -340 0
-341 -251 0
-342 -252 0
-343 -253 0
-344 -254 0
-345 -255 0
-258 -348 0
-259 -349 0
-260 -350 0
-351 -261 0
-262 -352 0
-355 -265 0
-266 -356 0
-267 -357 0
-358 -268 0
-269 -359 0
-371 -281 0
-372 -282 0
-373 -283 0
-374 -284 0
-375 -285 0
-376 -286 0
-287 -377 0
-378 -288 0
-379 -289 0
-380 -290 0
-246 -381 0
-247 -382 0
-386 -251 0
-387 -252 0
-388 -253 0
-389 -254 0
-390 -255 0
-259 -394 0
-260 -395 0
-396 -261 0
-262 -397 0
-266 -401 0
-267 -402 0
-403 -268 0
-269 -404 0
-270 -411 0
-285 -420 0
-286 -421 0
-287 -422 0
-423 -288 0
-424 -289 0
-425 -290 0
-426 -246 0
-427 -247 0
-432 -252 0
-433 -253 0
-434 -254 0
-435 -255 0
-260 -440 0
-441 -261 0
-262 -442 0
-447 -267 0
-448 -268 0
-269 -449 0
-456 -270 0
-457 -271 0
-468 -288 0
-469 -289 0
-470 -290 0
-471 -246 0
-247 -472 0
-478 -253 0
-479 -254 0
-480 -255 0
-486 -261 0
-262 -487 0
-268 -493 0
-269 -494 0
-270 -501 0
-271 -502 0
-503 -272 0
-277 -507 0
-281 -510 0
-515 -290 0
-516 -246 0
-247 -517 0
-524 -254 0
-525 -255 0
-532 -262 0
-269 -539 0
-270 -546 0
-271 -547 0
-548 -272 0
-549 -273 0
-277 -552 0
-278 -553 0
-281 -555 0
-282 -556 0
-285 -558 0
-246 -561 0
-247 -562 0
-570 -255 0
-591 -270 0
-271 -592 0
-593 -272 0
-594 -273 0
-595 -274 0
-277 -597 0
-278 -598 0
-599 -279 0
-281 -600 0
-282 -601 0
-602 -283 0
-285 -603 0
-286 -604 0
-605 -288 0
-291 -336 0
-292 -337 0
-293 -338 0
-295 -340 0
-341 -296 0
-342 -297 0
-343 -298 0
-344 -299 0
-300 -345 0
-301 -346 0
-303 -348 0
-304 -349 0
-305 -350 0
-306 -351 0
-307 -352 0
-308 -353 0
-355 -310 0
-311 -356 0
-357 -312 0
-358 -313 0
-359 -314 0
-361 -316 0
-317 -362 0
-363 -318 0
-364 -319 0
-365 -320 0
-326 -371 0
-372 -327 0
-373 -328 0
-374 -329 0
-375 -330 0
-376 -331 0
-332 -377 0
-378 -333 0
-379 -334 0
-335 -380 0
-291 -381 0
-292 -382 0
-293 -383 0
-386 -296 0
-387 -297 0
-388 -298 0
-389 -299 0
-300 -390 0
-301 -391 0
-304 -394 0
-305 -395 0
-306 -396 0
-307 -397 0
-308 -398 0
-311 -401 0
-402 -312 0
-403 -313 0
-404 -314 0
-317 -407 0
-408 -318 0
-409 -319 0
-410 -320 0
-330 -420 0
-331 -421 0
-332 -422 0
-423 -333 0
-424 -334 0
-335 -425 0
-291 -426 0
-292 -427 0
-293 -428 0
-432 -297 0
-433 -298 0
-434 -299 0
-300 -435 0
-301 -436 0
-305 -440 0
-306 -441 0
-307 -442 0
-308 -443 0
-447 -312 0
-448 -313 0
-449 -314 0
-453 -318 0
-454 -319 0
-455 -320 0
-468 -333 0
-469 -334 0
-470 -335 0
-291 -471 0
-292 -472 0
-293 -473 0
-478 -298 0
-479 -299 0
-300 -480 0
-301 -481 0
-486 -306 0
-307 -487 0
-308 -488 0
-313 -493 0
-494 -314 0
-319 -499 0
-500 -320 0
-322 -507 0
-326 -510 0
-335 -515 0
-291 -516 0
-292 -517 0
-293 -518 0
-524 -299 0
-300 -525 0
-301 -526 0
-532 -307 0
-308 -533 0
-539 -314 0
-320 -545 0
-322 -552 0
-553 -323 0
-326 -555 0
-556 -327 0
-330 -558 0
-291 -561 0
-292 -562 0
-293 -563 0
-300 -570 0
-301 -571 0
-308 -578 0
-322 -597 0
-598 -323 0
-599 -324 0
-326 -600 0
-601 -327 0
-602 -328 0
-330 -603 0
-331 -604 0
-605 -333 0
-381 -336 0
-382 -337 0
-383 -338 0
-384 -339 0
-341 -386 0
-342 -387 0
-343 -388 0
-344 -389 0
-345 -390 0
-391 -346 0
-347 -392 0
-394 -349 0
-395 -350 0
-351 -396 0
-397 -352 0
-353 -398 0
-354 -399 0
-356 -401 0
-357 -402 0
-358 -403 0
-404 -359 0
-360 -405 0
-407 -362 0
-363 -408 0
-364 -409 0
-410 -365 0
-367 -412 0
-368 -413 0
-414 -369 0
-370 -415 0
-375 -420 0
-376 -421 0
-377 -422 0
-378 -423 0
-379 -424 0
-425 -380 0
-426 -336 0
-427 -337 0
-338 -428 0
-339 -429 0
-432 -342 0
-433 -343 0
-434 -344 0
-345 -435 0
-436 -346 0
-347 -437 0
-440 -350 0
-441 -351 0
-442 -352 0
-353 -443 0
-354 -444 0
-447 -357 0
-448 -358 0
-449 -359 0
-360 -450 0
-453 -363 0
-454 -364 0
-455 -365 0
-458 -368 0
-459 -369 0
-460 -370 0
-468 -378 0
-469 -379 0
-470 -380 0
-471 -336 0
-337 -472 0
-338 -473 0
-339 -474 0
-478 -343 0
-479 -344 0
-345 -480 0
-481 -346 0
-347 -482 0
-486 -351 0
-352 -487 0
-353 -488 0
-354 -489 0
-358 -493 0
-494 -359 0
-360 -495 0
-364 -499 0
-365 -500 0
-369 -504 0
-370 -505 0
-371 -510 0
-380 -515 0
-516 -336 0
-337 -517 0
-338 -518 0
-339 -519 0
-524 -344 0
-345 -525 0
-526 -346 0
-347 -527 0
-532 -352 0
-353 -533 0
-354 -534 0
-359 -539 0
-360 -540 0
-365 -545 0
-370 -550 0
-371 -555 0
-372 -556 0
-375 -558 0
-561 -336 0
-337 -562 0
-338 -563 0
-339 -564 0
-345 -570 0
-571 -346 0
-347 -572 0
-353 -578 0
-354 -579 0
-360 -585 0
-371 -600 0
-372 -601 0
-602 -373 0
-375 -603 0
-376 -604 0
-378 -605 0
-426 -381 0
-427 -382 0
-383 -428 0
-384 -429 0
-430 -385 0
-432 -387 0
-433 -388 0
-434 -389 0
-390 -435 0
-436 -391 0
-392 -437 0
-393 -438 0
-440 -395 0
-441 -396 0
-442 -397 0
-398 -443 0
-399 -444 0
-445 -400 0
-447 -402 0
-448 -403 0
-449 -404 0
-405 -450 0
-451 -406 0
-453 -408 0
-454 -409 0
-455 -410 0
-456 -411 0
-458 -413 0
-459 -414 0
-460 -415 0
-462 -417 0
-463 -418 0
-464 -419 0
-468 -423 0
-469 -424 0
-470 -425 0
-471 -381 0
-382 -472 0
-383 -473 0
-384 -474 0
-475 -385 0
-478 -388 0
-479 -389 0
-390 -480 0
-481 -391 0
-392 -482 0
-393 -483 0
-486 -396 0
-397 -487 0
-398 -488 0
-399 -489 0
-490 -400 0
-403 -493 0
-494 -404 0
-405 -495 0
-496 -406 0
-409 -499 0
-410 -500 0
-501 -411 0
-414 -504 0
-415 -505 0
-508 -418 0
-509 -419 0
-425 -515 0
-516 -381 0
-382 -517 0
-383 -518 0
-384 -519 0
-520 -385 0
-524 -389 0
-390 -525 0
-526 -391 0
-392 -527 0
-393 -528 0
-532 -397 0
-398 -533 0
-399 -534 0
-535 -400 0
-404 -539 0
-405 -540 0
-541 -406 0
-410 -545 0
-546 -411 0
-415 -550 0
-554 -419 0
-420 -558 0
-561 -381 0
-382 -562 0
-383 -563 0
-384 -564 0
-565 -385 0
-390 -570 0
-571 -391 0
-392 -572 0
-393 -573 0
-398 -578 0
-399 -579 0
-580 -400 0
-405 -585 0
-586 -406 0
-591 -411 0
-420 -603 0
-421 -604 0
-423 -605 0
-471 -426 0
-427 -472 0
-473 -428 0
-474 -429 0
-430 -475 0
-431 -476 0
-433 -478 0
-434 -479 0
-480 -435 0
-481 -436 0
-482 -437 0
-438 -483 0
-439 -484 0
-486 -441 0
-442 -487 0
-488 -443 0
-444 -489 0
-490 -445 0
-491 -446 0
-448 -493 0
-449 -494 0
-450 -495 0
-496 -451 0
-497 -452 0
-454 -499 0
-455 -500 0
-456 -501 0
-457 -502 0
-459 -504 0
-460 -505 0
-508 -463 0
-509 -464 0
-466 -511 0
-467 -512 0
-470 -515 0
-516 -426 0
-427 -517 0
-518 -428 0
-429 -519 0
-430 -520 0
-431 -521 0
-434 -524 0
-525 -435 0
-526 -436 0
-527 -437 0
-528 -438 0
-529 -439 0
-532 -442 0
-443 -533 0
-444 -534 0
-535 -445 0
-446 -536 0
-449 -539 0
-450 -540 0
-541 -451 0
-542 -452 0
-455 -545 0
-456 -546 0
-457 -547 0
-460 -550 0
-464 -554 0
-467 -557 0
-426 -561 0
-427 -562 0
-563 -428 0
-429 -564 0
-430 -565 0
-431 -566 0
-570 -435 0
-571 -436 0
-572 -437 0
-573 -438 0
-439 -574 0
-578 -443 0
-579 -444 0
-580 -445 0
-581 -446 0
-585 -450 0
-586 -451 0
-587 -452 0
-456 -591 0
-457 -592 0
-468 -605 0
-516 -471 0
-517 -472 0
-473 -518 0
-474 -519 0
-520 -475 0
-476 -521 0
-522 -477 0
-524 -479 0
-525 -480 0
-526 -481 0
-527 -482 0
-528 -483 0
-529 -484 0
-530 -485 0
-532 -487 0
-488 -533 0
-534 -489 0
-490 -535 0
-491 -536 0
-537 -492 0
-494 -539 0
-540 -495 0
-541 -496 0
-542 -497 0
-543 -498 0
-500 -545 0
-546 -501 0
-547 -502 0
-548 -503 0
-505 -550 0
-552 -507 0
-509 -554 0
-555 -510 0
-557 -512 0
-559 -514 0
-471 -561 0
-562 -472 0
-473 -563 0
-474 -564 0
-565 -475 0
-476 -566 0
-477 -567 0
-570 -480 0
-571 -481 0
-572 -482 0
-573 -483 0
-574 -484 0
-575 -485 0
-578 -488 0
-579 -489 0
-580 -490 0
-581 -491 0
-582 -492 0
-585 -495 0
-586 -496 0
-587 -497 0
-588 -498 0
-591 -501 0
-592 -502 0
-593 -503 0
-597 -507 0
-600 -510 0
-516 -561 0
-562 -517 0
-563 -518 0
-564 -519 0
-565 -520 0
-521 -566 0
-522 -567 0
-568 -523 0
-570 -525 0
-571 -526 0
-572 -527 0
-573 -528 0
-529 -574 0
-575 -530 0
-576 -531 0
-578 -533 0
-579 -534 0
-580 -535 0
-581 -536 0
-582 -537 0
-583 -538 0
-585 -540 0
-586 -541 0
-587 -542 0
-588 -543 0
-589 -544 0
-591 -546 0
-592 -547 0
-593 -548 0
-594 -549 0
-597 -552 0
-598 -553 0
-600 -555 0
-556 -601 0
-603 -558 0
-627 0
141 -633 -632 0
632 0
633 0
629 628 630 631 627 0
635 634 636 637 627 0
-1 628 0
-628 1 0
629 -2 0
-629 2 0
630 -3 0
-630 3 0
631 -4 0
-631 4 0
5 -632 0
6 -633 0
-7 634 0
-634 7 0
-8 635 0
8 -635 0
-9 636 0
-636 9 0
637 -10 0
-637 10 0
41 -606 -638 0
-291 639 -606 0
-639 -606 42 0
640 -606 -293 0
-640 -606 44 0
-644 116 -607 0
644 -116 -607 0
-645 117 -607 0
645 -117 -607 0
-646 118 -607 0
646 -118 -607 0
-647 119 -607 0
-119 647 -607 0
647 -10 -607 0
42 -608 -641 0
-300 -608 642 0
-608 -642 43 0
-608 -301 643 0
-643 44 -608 0
62 -609 -641 0
102 -610 -641 0
607 -628 0
-643 -628 630 0
-611 651 -6 0
-652 124 -611 0
-124 652 -611 0
-653 125 -611 0
-654 126 -611 0
654 -126 -611 0
-127 655 -611 0
-655 10 -611 0
43 -612 -648 0
-308 649 -612 0
-649 44 -612 0
611 -629 0
-650 -629 631 0
-659 131 -613 0
659 -613 -131 0
-660 -613 132 0
660 -132 -613 0
-661 -613 133 0
-662 -613 134 0
662 -613 -134 0
-301 -614 656 0
-656 42 -614 0
44 -614 -658 0
613 -630 0
-657 -630 629 0
671 670 668 666 669 663 664 665 0
-668 137 -615 0
668 -137 -615 0
-669 -615 138 0
669 -138 -615 0
-670 -615 139 0
-671 -615 140 0
65 -616 -667 0
95 -617 -667 0
615 -631 0
-631 -663 627 0
-664 -631 628 0
-665 -631 629 0
-666 -631 630 0
-114 672 -618 0
-122 673 -618 0
-129 674 -618 0
-135 675 -618 0
676 -142 -618 0
-143 677 -618 0
678 -144 -618 0
-145 679 -618 0
618 -632 0
-672 628 -632 0
629 -673 -632 0
630 -674 -632 0
631 -675 -632 0
-676 634 -632 0
635 -677 -632 0
-678 636 -632 0
637 -679 -632 0
680 -123 -619 0
619 -633 0
681 -633 -632 0
-682 116 -620 0
-116 682 -620 0
-683 124 -620 0
-124 683 -620 0
-684 131 -620 0
-685 137 -620 0
685 -137 -620 0
67 -621 -686 0
620 -634 0
-687 -634 637 0
692 690 689 691 695 693 688 696 0
-688 -622 0
-689 117 -622 0
-117 689 -622 0
-689 -622 1 0
-690 125 -622 0
-691 -622 132 0
-692 -622 138 0
692 -138 -622 0
-696 -622 154 0
-688 71 -623 0
-623 -693 0
78 -623 -694 0
-695 79 -623 0
-696 80 -623 0
-635 622 0
-693 -635 634 0
-695 -635 636 0
-697 118 -624 0
-118 697 -624 0
-1 697 -624 0
126 -698 -624 0
-126 698 -624 0
698 -2 -624 0
-699 133 -624 0
699 -133 -624 0
-3 699 -624 0
-700 139 -624 0
-139 700 -624 0
-4 700 -624 0
-624 701 -5 0
-625 577 -697 0
624 -636 0
702 -119 -626 0
-703 -626 127 0
703 -127 -626 0
-704 -626 3 0
-705 -626 140 0
626 -637 0
-88 -86 -17 -12 -2 -5 0
-96 -98 -17 -12 -2 -5 0
-106 -108 -17 -12 -2 -5 0
-18 -96 -99 -12 -2 -5 0
-18 -106 -109 -12 -2 -5 0
-88 -17 -87 -12 -2 -6 0
-98 -17 -97 -12 -2 -6 0
-107 -108 -17 -12 -2 -6 0
-18 -97 -99 -12 -2 -6 0
-107 -18 -109 -12 -2 -6 0
-13 -17 -3 -86 -88 -5 0
-13 -17 -3 -98 -96 -5 0
-13 -17 -3 -87 -88 -6 0
-13 -17 -3 -98 -97 -6 0
-14 -17 -4 -88 -86 -5 0
-14 -17 -4 -87 -88 -6 0
-15 -17 -87 -88 -6 -5 0
-15 -107 -17 -108 -6 -5 0
-15 -18 -97 -99 -6 -5 0
-15 -107 -18 -109 -6 -5 0
-96 -88 -82 -98 -1 -5 0
-106 -88 -82 -108 -1 -5 0
-92 -106 -98 -108 -1 -5 0
-92 -106 -99 -109 -1 -5 0
-98 -88 -82 -97 -1 -6 0
-107 -88 -82 -108 -1 -6 0
-92 -107 -98 -108 -1 -6 0
-92 -109 -99 -107 -1 -6 0
-27 -88 -23 -86 -3 -5 0
-27 -98 -23 -96 -3 -5 0
-27 -106 -23 -108 -3 -5 0
-23 -96 -28 -99 -3 -5 0
-109 -23 -28 -106 -3 -5 0
-106 -23 -29 -3 -110 -5 0
-27 -88 -23 -87 -3 -6 0
-27 -98 -23 -97 -3 -6 0
-27 -107 -23 -108 -3 -6 0
-23 -97 -28 -99 -3 -6 0
-109 -23 -28 -107 -3 -6 0
-107 -23 -29 -3 -110 -6 0
-23 -7 -28 -3 -98 -99 0
-108 -110 -7 -23 -3 -29 0
-109 -110 -8 -23 -3 -29 0
-27 -24 -4 -86 -88 -5 0
-27 -24 -4 -98 -96 -5 0
-106 -24 -4 -108 -27 -5 0
-96 -24 -4 -99 -28 -5 0
-106 -24 -4 -109 -28 -5 0
-106 -24 -4 -29 -110 -5 0
-27 -24 -4 -87 -88 -6 0
-27 -24 -4 -98 -97 -6 0
-107 -24 -4 -108 -27 -6 0
-97 -24 -4 -99 -28 -6 0
-107 -24 -4 -28 -109 -6 0
-110 -24 -4 -29 -107 -6 0
-24 -4 -7 -28 -98 -99 0
-109 -24 -7 -4 -108 -28 0
-108 -29 -7 -24 -4 -110 0
-109 -24 -29 -8 -110 -4 0
-25 -27 -87 -88 -6 -5 0
-25 -27 -97 -98 -6 -5 0
-25 -27 -107 -108 -6 -5 0
-25 -97 -28 -99 -6 -5 0
-25 -109 -28 -107 -6 -5 0
-25 -107 -29 -110 -6 -5 0
-98 -88 -2 -83 -96 -5 0
-98 -7 -28 -25 -99 -5 0
-106 -88 -2 -83 -108 -5 0
-108 -7 -28 -25 -109 -5 0
-106 -98 -93 -2 -108 -5 0
-108 -110 -7 -25 -29 -5 0
-109 -106 -93 -2 -99 -5 0
-109 -110 -8 -25 -29 -5 0
-98 -88 -2 -83 -97 -6 0
-26 -98 -28 -99 -7 -6 0
-107 -88 -83 -2 -108 -6 0
-26 -108 -109 -28 -7 -6 0
-107 -98 -93 -2 -108 -6 0
-26 -108 -29 -110 -7 -6 0
-109 -107 -93 -2 -99 -6 0
-26 -109 -110 -29 -8 -6 0
-109 -108 -2 -99 -7 -93 0
-88 -34 -37 -86 -4 -5 0
-98 -34 -37 -96 -4 -5 0
-108 -34 -37 -106 -4 -5 0
-96 -34 -4 -38 -99 -5 0
-106 -34 -4 -38 -109 -5 0
-106 -4 -39 -34 -110 -5 0
-88 -34 -37 -87 -4 -6 0
-98 -34 -37 -97 -4 -6 0
-108 -34 -37 -107 -4 -6 0
-97 -34 -4 -38 -99 -6 0
-107 -34 -4 -38 -109 -6 0
-107 -4 -39 -34 -110 -6 0
-34 -4 -7 -38 -98 -99 0
-34 -4 -7 -109 -108 -38 0
-34 -4 -7 -110 -108 -39 0
-34 -110 -4 -109 -8 -39 0
-87 -35 -37 -88 -6 -5 0
-97 -35 -37 -98 -6 -5 0
-108 -35 -37 -107 -6 -5 0
-97 -35 -38 -99 -6 -5 0
-107 -35 -38 -109 -6 -5 0
-107 -35 -110 -39 -6 -5 0
-98 -88 -84 -3 -96 -5 0
-35 -38 -7 -98 -99 -5 0
-106 -88 -3 -84 -108 -5 0
-108 -35 -38 -7 -109 -5 0
-108 -98 -94 -3 -106 -5 0
-108 -35 -7 -39 -110 -5 0
-109 -106 -99 -3 -94 -5 0
-109 -35 -8 -39 -110 -5 0
-98 -88 -84 -3 -97 -6 0
-98 -36 -38 -99 -7 -6 0
-107 -88 -3 -84 -108 -6 0
-108 -36 -38 -109 -7 -6 0
-107 -98 -94 -3 -108 -6 0
-108 -39 -7 -36 -110 -6 0
-109 -107 -99 -3 -94 -6 0
-109 -39 -8 -36 -110 -6 0
-108 -109 -94 -3 -7 -99 0
-97 -45 -99 -48 -6 -5 0
-107 -109 -45 -48 -6 -5 0
-107 -110 -45 -49 -6 -5 0
-96 -88 -85 -4 -98 -5 0
-98 -45 -7 -48 -99 -5 0
-106 -88 -85 -4 -108 -5 0
-108 -45 -7 -48 -109 -5 0
-108 -98 -4 -95 -106 -5 0
-108 -110 -7 -49 -45 -5 0
-99 -106 -4 -95 -109 -5 0
-109 -110 -8 -49 -45 -5 0
-97 -88 -85 -4 -98 -6 0
-98 -46 -7 -48 -99 -6 0
-107 -88 -85 -4 -108 -6 0
-108 -46 -7 -48 -109 -6 0
-108 -98 -4 -95 -107 -6 0
-108 -46 -7 -49 -110 -6 0
-109 -99 -4 -95 -107 -6 0
-109 -46 -8 -49 -110 -6 0
-108 -99 -95 -7 -109 -4 0
-98 -86 -97 -88 -6 -5 0
-58 -56 -98 -99 -7 -6 0
-107 -108 -86 -88 -6 -5 0
-58 -56 -108 -109 -7 -6 0
-107 -108 -96 -98 -6 -5 0
-108 -59 -110 -56 -7 -6 0
-107 -96 -109 -99 -6 -5 0
-59 -109 -8 -56 -110 -6 0
-108 -96 -109 -99 -7 -5 0
-108 -97 -109 -99 -7 -6 0
-65 -12 -75 -13 -63 -74 0
-12 -84 -85 -13 -65 -63 0
-12 -105 -104 -13 -73 -75 0
-14 -13 -28 -99 -95 -23 0
-14 -13 -105 -109 -23 -28 0
-13 -12 -84 -86 -66 -63 0
-13 -12 -104 -106 -63 -66 0
-13 -12 -104 -106 -73 -76 0
-15 -13 -106 -108 -27 -23 0
-16 -27 -13 -87 -88 -23 0
-12 -94 -83 -13 -98 -88 0
-15 -14 -106 -108 -24 -27 0
-14 -12 -85 -87 -73 -77 0
-14 -12 -105 -88 -83 -108 0
-14 -12 -105 -93 -99 -109 0
-15 -12 -83 -88 -96 -98 0
-15 -106 -12 -88 -83 -108 0
-15 -14 -34 -88 -37 -86 0
-14 -13 -95 -76 -96 -74 0
-14 -13 -95 -84 -96 -86 0
-14 -13 -85 -77 -87 -74 0
-14 -13 -95 -84 -98 -88 0
-14 -17 -110 -108 -39 -34 0
-14 -13 -109 -99 -94 -105 0
-15 -13 -96 -88 -98 -84 0
-13 -109 -94 -15 -106 -99 0
-76 -86 -85 -74 -24 -23 0
-25 -34 -24 -86 -88 -37 0
-23 -95 -74 -96 -76 -24 0
-25 -34 -24 -96 -98 -37 0
-76 -24 -105 -106 -74 -23 0
-25 -34 -24 -106 -37 -108 0
-96 -24 -95 -86 -23 -84 0
-25 -34 -24 -99 -96 -38 0
-106 -24 -105 -86 -23 -84 0
-25 -34 -24 -106 -38 -109 0
-23 -24 -105 -106 -96 -94 0
-25 -24 -39 -34 -110 -106 0
-23 -24 -85 -87 -74 -77 0
-26 -34 -24 -37 -88 -87 0
-77 -23 -95 -97 -24 -74 0
-26 -24 -37 -97 -98 -34 0
-77 -107 -105 -23 -24 -74 0
-26 -34 -24 -37 -107 -108 0
-97 -24 -95 -87 -23 -84 0
-26 -34 -24 -97 -38 -99 0
-107 -87 -105 -23 -84 -24 0
-26 -107 -34 -24 -109 -38 0
-107 -97 -105 -24 -94 -23 0
-26 -107 -34 -24 -110 -39 0
-24 -84 -95 -88 -23 -98 0
-27 -24 -38 -99 -98 -34 0
-108 -23 -105 -88 -84 -24 0
-108 -34 -24 -109 -27 -38 0
-108 -24 -105 -98 -94 -23 0
-108 -27 -39 -34 -110 -24 0
-109 -23 -105 -99 -94 -24 0
-34 -110 -24 -28 -109 -39 0
-25 -96 -23 -88 -98 -84 0
-25 -35 -38 -27 -99 -98 0
-25 -23 -84 -106 -108 -88 0
-25 -35 -38 -108 -27 -109 0
-25 -23 -94 -108 -98 -106 0
-25 -27 -35 -39 -108 -110 0
-25 -23 -94 -106 -109 -99 0
-109 -110 -28 -35 -25 -39 0
-26 -97 -23 -88 -98 -84 0
-26 -27 -38 -98 -99 -36 0
-26 -107 -84 -23 -108 -88 0
-26 -27 -36 -108 -38 -109 0
-26 -107 -23 -98 -108 -94 0
-26 -27 -36 -39 -108 -110 0
-26 -23 -99 -107 -109 -94 0
-26 -39 -28 -110 -36 -109 0
-109 -23 -94 -108 -27 -99 0
-27 -39 -37 -28 -110 -109 0
-25 -24 -85 -96 -98 -88 0
-25 -27 -45 -48 -99 -98 0
-25 -106 -24 -88 -108 -85 0
-25 -27 -45 -48 -109 -108 0
-25 -106 -24 -98 -108 -95 0
-25 -27 -45 -49 -108 -110 0
-25 -106 -24 -99 -109 -95 0
-25 -110 -28 -45 -109 -49 0
-26 -97 -24 -88 -98 -85 0
-26 -27 -48 -98 -99 -46 0
-26 -107 -24 -88 -108 -85 0
-26 -108 -48 -27 -109 -46 0
-26 -107 -24 -98 -108 -95 0
-27 -26 -46 -110 -49 -108 0
-26 -107 -24 -99 -109 -95 0
-110 -109 -28 -46 -26 -49 0
-108 -109 -24 -99 -27 -95 0
-27 -110 -28 -49 -109 -47 0
-58 -26 -27 -56 -98 -99 0
-26 -27 -56 -108 -58 -109 0
-26 -27 -56 -59 -110 -108 0
-26 -59 -28 -56 -110 -109 0
-25 -27 -99 -96 -108 -109 0
-57 -59 -28 -109 -110 -27 0
-26 -27 -97 -108 -109 -99 0
-96 -34 -35 -88 -98 -85 0
-35 -99 -37 -45 -98 -48 0
-34 -35 -85 -106 -108 -88 0
-109 -35 -37 -45 -108 -48 0
-106 -34 -35 -98 -108 -95 0
-110 -45 -37 -35 -108 -49 0
-34 -35 -95 -109 -106 -99 0
-109 -110 -38 -35 -45 -49 0
-34 -36 -85 -97 -98 -88 0
-36 -48 -37 -98 -99 -46 0
-107 -34 -36 -88 -108 -85 0
-108 -36 -46 -37 -109 -48 0
-107 -36 -95 -34 -108 -98 0
-36 -46 -37 -110 -108 -49 0
-107 -34 -36 -99 -109 -95 0
-36 -46 -38 -110 -109 -49 0
-109 -34 -37 -99 -108 -95 0
-110 -38 -47 -109 -49 -37 0
-56 -36 -37 -98 -99 -58 0
-56 -36 -37 -108 -58 -109 0
-56 -36 -37 -59 -110 -108 0
-59 -109 -36 -56 -38 -110 0
-109 -35 -37 -96 -108 -99 0
-57 -59 -38 -109 -37 -110 0
-109 -36 -37 -97 -108 -99 0
-67 -69 -109 -110 -37 -38 0
-59 -56 -46 -109 -48 -110 0
-57 -59 -109 -48 -110 -47 0
-67 -69 -109 -110 -48 -47 0
-57 -97 -56 -108 -109 -99 0
-63 -13 -66 -12 -3 -5 0
-73 -76 -13 -12 -3 -5 0
-13 -12 -93 -96 -3 -5 0
-73 -77 -13 -12 -3 -6 0
-13 -12 -93 -97 -3 -6 0
-63 -12 -4 -14 -66 -5 0
-76 -12 -4 -14 -73 -5 0
-14 -12 -83 -86 -4 -5 0
-14 -106 -103 -12 -4 -5 0
-77 -12 -4 -14 -73 -6 0
-14 -12 -83 -87 -4 -6 0
-14 -107 -103 -12 -4 -6 0
-72 -73 -66 -63 -1 -5 0
-77 -73 -15 -12 -6 -5 0
-63 -66 -83 -82 -1 -5 0
-15 -12 -83 -87 -6 -5 0
-92 -66 -93 -63 -1 -5 0
-15 -12 -93 -97 -6 -5 0
-102 -66 -103 -63 -1 -5 0
-76 -82 -83 -73 -1 -5 0
-73 -92 -93 -76 -1 -5 0
-102 -73 -103 -76 -1 -5 0
-92 -93 -83 -86 -1 -5 0
-102 -103 -83 -86 -1 -5 0
-102 -103 -93 -96 -1 -5 0
-73 -82 -83 -77 -1 -6 0
-73 -92 -93 -77 -1 -6 0
-102 -73 -103 -77 -1 -6 0
-92 -87 -93 -83 -1 -6 0
-102 -87 -103 -83 -1 -6 0
-102 -103 -93 -97 -1 -6 0
-88 -93 -7 -92 -1 -83 0
-88 -103 -7 -83 -1 -102 0
-102 -1 -7 -98 -103 -93 0
-102 -99 -8 -1 -103 -93 0
-64 -66 -74 -72 -1 -5 0
-15 -13 -74 -77 -6 -5 0
-64 -66 -84 -82 -1 -5 0
-15 -13 -84 -87 -6 -5 0
-64 -66 -94 -92 -1 -5 0
-15 -13 -94 -97 -6 -5 0
-102 -64 -104 -66 -1 -5 0
-76 -84 -74 -82 -1 -5 0
-76 -94 -74 -92 -1 -5 0
-102 -104 -74 -76 -1 -5 0
-86 -84 -94 -92 -1 -5 0
-13 -94 -8 -99 -15 -5 0
-102 -84 -104 -86 -1 -5 0
-102 -104 -94 -96 -1 -5 0
-82 -84 -74 -77 -1 -6 0
-92 -94 -74 -77 -1 -6 0
-102 -104 -74 -77 -1 -6 0
-87 -84 -94 -92 -1 -6 0
-16 -13 -99 -94 -8 -6 0
-102 -84 -104 -87 -1 -6 0
-97 -104 -94 -102 -1 -6 0
-88 -94 -7 -84 -1 -92 0
-102 -88 -7 -104 -1 -84 0
-102 -104 -7 -98 -94 -1 0
-102 -99 -8 -1 -104 -94 0
-65 -66 -75 -72 -1 -5 0
-65 -66 -85 -82 -1 -5 0
-15 -14 -85 -87 -6 -5 0
-65 -66 -95 -92 -1 -5 0
-65 -102 -105 -66 -1 -5 0
-86 -85 -95 -92 -1 -5 0
-86 -85 -105 -102 -1 -5 0
-96 -105 -95 -102 -1 -5 0
-92 -85 -95 -87 -1 -6 0
-102 -85 -105 -87 -1 -6 0
-97 -105 -95 -102 -1 -6 0
-88 -95 -7 -85 -1 -92 0
-102 -88 -7 -105 -1 -85 0
-102 -1 -7 -98 -105 -95 0
-102 -99 -8 -1 -95 -105 0
-66 -23 -24 -64 -4 -5 0
-76 -23 -24 -74 -4 -5 0
-23 -24 -84 -86 -4 -5 0
-23 -24 -94 -96 -4 -5 0
-23 -24 -104 -106 -4 -5 0
-77 -23 -24 -74 -4 -6 0
-23 -24 -84 -87 -4 -6 0
-23 -24 -94 -97 -4 -6 0
-107 -24 -104 -23 -4 -6 0
-23 -4 -7 -108 -24 -104 0
-24 -94 -8 -4 -99 -23 0
-23 -4 -8 -109 -24 -104 0
-110 -4 -9 -23 -24 -104 0
-73 -2 -74 -64 -66 -5 0
-25 -23 -74 -77 -6 -5 0
-64 -84 -2 -83 -66 -5 0
-25 -23 -84 -87 -6 -5 0
-64 -93 -94 -2 -66 -5 0
-25 -23 -94 -97 -6 -5 0
-64 -104 -2 -103 -66 -5 0
-25 -23 -104 -107 -6 -5 0
-76 -2 -74 -83 -84 -5 0
-25 -23 -7 -88 -84 -5 0
-76 -2 -74 -93 -94 -5 0
-25 -23 -94 -7 -98 -5 0
-104 -2 -74 -103 -76 -5 0
-25 -23 -104 -7 -108 -5 0
-84 -93 -94 -2 -86 -5 0
-25 -23 -8 -99 -94 -5 0
-84 -104 -2 -103 -86 -5 0
-23 -109 -104 -8 -25 -5 0
-104 -103 -94 -2 -96 -5 0
-23 -104 -9 -110 -25 -5 0
-77 -2 -74 -83 -84 -6 0
-26 -23 -84 -88 -7 -6 0
-77 -2 -74 -93 -94 -6 0
-26 -23 -94 -98 -7 -6 0
-104 -2 -74 -103 -77 -6 0
-26 -23 -104 -108 -7 -6 0
-84 -93 -94 -2 -87 -6 0
-26 -23 -8 -99 -94 -6 0
-84 -104 -2 -103 -87 -6 0
-23 -109 -104 -8 -26 -6 0
-97 -2 -94 -103 -104 -6 0
-26 -23 -104 -110 -9 -6 0
-88 -94 -7 -2 -84 -93 0
-88 -103 -7 -2 -84 -104 0
-98 -2 -7 -103 -94 -104 0
-103 -99 -104 -8 -94 -2 0
-65 -73 -2 -66 -75 -5 0
-66 -85 -2 -83 -65 -5 0
-25 -24 -85 -87 -6 -5 0
-65 -66 -93 -2 -95 -5 0
-25 -24 -95 -97 -6 -5 0
-66 -105 -2 -103 -65 -5 0
-25 -24 -105 -107 -6 -5 0
-25 -24 -85 -7 -88 -5 0
-25 -24 -95 -7 -98 -5 0
-25 -24 -105 -7 -108 -5 0
-86 -85 -93 -2 -95 -5 0
-25 -24 -95 -8 -99 -5 0
-85 -105 -2 -103 -86 -5 0
-25 -24 -105 -8 -109 -5 0
-96 -2 -95 -103 -105 -5 0
-110 -24 -105 -9 -25 -5 0
-26 -24 -85 -88 -7 -6 0
-26 -24 -95 -98 -7 -6 0
-26 -24 -105 -108 -7 -6 0
-87 -85 -93 -2 -95 -6 0
-26 -24 -95 -8 -99 -6 0
-87 -105 -2 -103 -85 -6 0
-26 -24 -105 -8 -109 -6 0
-97 -105 -2 -103 -95 -6 0
-26 -24 -105 -110 -9 -6 0
-93 -95 -7 -88 -2 -85 0
-103 -105 -7 -88 -2 -85 0
-98 -2 -7 -103 -95 -105 0
-103 -99 -8 -2 -105 -95 0
-108 -103 -8 -2 -99 -98 0
-65 -66 -3 -74 -75 -5 0
-65 -85 -3 -84 -66 -5 0
-34 -35 -85 -87 -6 -5 0
-65 -3 -95 -94 -66 -5 0
-34 -35 -95 -97 -6 -5 0
-65 -105 -3 -104 -66 -5 0
-34 -35 -105 -107 -6 -5 0
-34 -35 -7 -88 -85 -5 0
-34 -35 -95 -7 -98 -5 0
-34 -35 -105 -108 -7 -5 0
-85 -3 -95 -94 -86 -5 0
-34 -35 -8 -99 -95 -5 0
-86 -105 -3 -104 -85 -5 0
-34 -105 -8 -109 -35 -5 0
-96 -105 -3 -104 -95 -5 0
-34 -35 -105 -9 -110 -5 0
-34 -36 -85 -88 -7 -6 0
-34 -36 -95 -98 -7 -6 0
-34 -36 -105 -108 -7 -6 0
-85 -3 -95 -94 -87 -6 0
-34 -36 -8 -99 -95 -6 0
-85 -105 -3 -104 -87 -6 0
-34 -105 -8 -109 -36 -6 0
-105 -3 -95 -104 -97 -6 0
-34 -36 -105 -110 -9 -6 0
-88 -95 -7 -3 -85 -94 0
-88 -105 -104 -7 -3 -85 0
-104 -95 -7 -3 -98 -105 0
-105 -3 -95 -8 -99 -104 0
-98 -99 -3 -104 -8 -108 0
-99 -105 -8 -4 -108 -98 0
-108 -99 -8 -106 -98 -5 0
-108 -99 -8 -98 -107 -6 0
-55 -12 -54 -14 -73 -74 0
-14 -93 -94 -12 -54 -55 0
-65 -12 -74 -14 -73 -64 0
-12 -64 -84 -14 -83 -65 0
-12 -94 -74 -14 -75 -93 0
-12 -95 -104 -14 -103 -94 0
-16 -26 -17 -94 -98 -23 0
-16 -26 -18 -104 -109 -23 0
-12 -84 -104 -17 -88 -103 0
-12 -104 -94 -17 -98 -103 0
-18 -104 -94 -12 -99 -103 0
-17 -85 -93 -12 -88 -95 0
-96 -12 -93 -17 -88 -86 0
-25 -18 -17 -27 -99 -96 0
-106 -12 -103 -88 -17 -86 0
-15 -34 -85 -17 -88 -35 0
-15 -98 -95 -17 -35 -34 0
-15 -34 -35 -17 -108 -105 0
-13 -85 -95 -15 -94 -86 0
-18 -34 -105 -15 -109 -35 0
-16 -17 -36 -95 -98 -34 0
-16 -17 -105 -34 -108 -36 0
-16 -18 -36 -95 -99 -34 0
-19 -16 -34 -105 -36 -110 0
-17 -85 -104 -13 -88 -105 0
-19 -17 -105 -37 -110 -34 0
-14 -17 -95 -96 -86 -88 0
-106 -88 -105 -17 -14 -86 0
-58 -18 -110 -107 -19 -56 0
-25 -34 -35 -27 -88 -85 0
-25 -34 -35 -27 -95 -98 0
-25 -23 -85 -86 -94 -95 0
-25 -34 -35 -28 -95 -99 0
-25 -23 -105 -85 -104 -86 0
-25 -34 -35 -28 -109 -105 0
-25 -105 -104 -95 -23 -96 0
-26 -27 -36 -34 -88 -85 0
-26 -27 -36 -34 -95 -98 0
-26 -27 -36 -34 -105 -108 0
-26 -23 -85 -95 -87 -94 0
-26 -34 -36 -28 -99 -95 0
-26 -23 -105 -85 -104 -87 0
-26 -34 -36 -28 -105 -109 0
-26 -23 -105 -95 -104 -97 0
-34 -26 -29 -36 -105 -110 0
-23 -95 -94 -88 -27 -85 0
-27 -34 -95 -37 -28 -99 0
-27 -85 -104 -23 -105 -88 0
-27 -34 -28 -105 -37 -109 0
-23 -95 -104 -98 -27 -105 0
-27 -110 -37 -105 -34 -29 0
-23 -95 -104 -28 -99 -105 0
-110 -38 -28 -105 -29 -34 0
-96 -23 -94 -27 -86 -88 0
-27 -35 -99 -37 -28 -96 0
-106 -86 -104 -27 -23 -88 0
-27 -35 -28 -37 -109 -106 0
-106 -96 -104 -98 -27 -23 0
-106 -35 -37 -27 -29 -110 0
-23 -99 -104 -106 -28 -96 0
-35 -38 -29 -28 -106 -110 0
-97 -23 -94 -27 -87 -88 0
-27 -36 -28 -37 -99 -97 0
-107 -87 -104 -27 -23 -88 0
-27 -36 -28 -37 -107 -109 0
-27 -107 -104 -98 -97 -23 0
-107 -29 -37 -36 -110 -27 0
-107 -23 -104 -99 -28 -97 0
-107 -38 -29 -36 -28 -110 0
-23 -104 -28 -98 -99 -108 0
-38 -29 -37 -28 -108 -110 0
-27 -96 -95 -86 -24 -88 0
-27 -106 -105 -88 -24 -86 0
-106 -24 -105 -27 -98 -96 0
-106 -96 -105 -28 -99 -24 0
-106 -110 -29 -28 -48 -45 0
-97 -24 -95 -27 -87 -88 0
-107 -24 -105 -27 -87 -88 0
-27 -107 -105 -98 -97 -24 0
-107 -24 -105 -28 -99 -97 0
-107 -110 -46 -29 -48 -28 0
-108 -99 -105 -28 -98 -24 0
-110 -108 -29 -28 -48 -47 0
-27 -56 -28 -57 -99 -97 0
-27 -56 -29 -57 -107 -110 0
-56 -58 -29 -107 -110 -28 0
-108 -106 -99 -28 -25 -98 0
-57 -58 -110 -108 -29 -28 0
-26 -107 -28 -108 -99 -98 0
-67 -68 -110 -29 -28 -108 0
-96 -34 -95 -37 -88 -86 0
-106 -86 -105 -37 -34 -88 0
-106 -105 -37 -98 -34 -96 0
-106 -34 -105 -99 -96 -38 0
-106 -110 -38 -39 -48 -45 0
-97 -34 -95 -37 -88 -87 0
-107 -87 -105 -37 -88 -34 0
-107 -97 -105 -98 -37 -34 0
-107 -97 -105 -99 -34 -38 0
-107 -110 -38 -46 -48 -39 0
-98 -34 -105 -38 -99 -108 0
-110 -38 -47 -108 -48 -39 0
-57 -107 -56 -38 -109 -37 0
-57 -56 -37 -39 -107 -110 0
-56 -58 -107 -38 -39 -110 0
-106 -35 -38 -108 -99 -98 0
-57 -58 -110 -108 -39 -38 0
-107 -36 -38 -108 -99 -98 0
-56 -48 -47 -57 -99 -97 0
-57 -107 -56 -48 -109 -47 0
-57 -110 -47 -56 -107 -49 0
-56 -58 -107 -48 -110 -49 0
-108 -98 -99 -45 -106 -48 0
-57 -58 -110 -108 -49 -48 0
-108 -98 -46 -48 -107 -99 0
-67 -68 -110 -108 -48 -49 0
-103 -104 -21 -31 -23 -33 0
-27 -71 -21 -83 -73 -88 0
-79 -7 -2 -27 -29 -73 0
-73 -71 -21 -27 -93 -98 0
-108 -71 -21 -103 -27 -73 0
-99 -93 -81 -83 -21 -28 0
-109 -103 -81 -28 -21 -83 0
-100 -30 -9 -2 -29 -93 0
-103 -110 -21 -29 -93 -91 0
-106 -35 -104 -54 -51 -31 0
-36 -64 -31 -74 -61 -77 0
-61 -36 -84 -87 -31 -64 0
-78 -7 -3 -74 -37 -38 0
-88 -84 -31 -37 -71 -74 0
-98 -94 -71 -31 -37 -74 0
-108 -104 -31 -71 -37 -74 0
-84 -3 -39 -8 -38 -89 0
-99 -94 -81 -84 -38 -31 0
-109 -104 -81 -84 -38 -31 0
-100 -3 -94 -40 -39 -9 0
-110 -104 -94 -31 -91 -39 0
-51 -45 -95 -55 -41 -96 0
-85 -88 -41 -75 -71 -47 0
-98 -41 -71 -95 -75 -47 0
-108 -75 -105 -41 -47 -71 0
-89 -4 -8 -85 -48 -49 0
-99 -85 -41 -95 -48 -81 0
-90 -4 -8 -85 -48 -50 0
-109 -85 -41 -105 -48 -81 0
-100 -4 -9 -49 -95 -50 0
-110 -105 -95 -49 -91 -41 0
-67 -57 -66 -56 -6 -5 0
-58 -66 -68 -56 -6 -5 0
-69 -59 -66 -56 -6 -5 0
-97 -68 -99 -61 -87 -81 0
-22 -32 -33 -23 -74 -73 0
-53 -73 -52 -76 -25 -22 0
-22 -53 -96 -93 -25 -52 0
-77 -26 -62 -63 -73 -22 0
-22 -26 -62 -63 -83 -87 0
-72 -27 -83 -88 -22 -73 0
-72 -27 -93 -98 -22 -73 0
-22 -27 -103 -72 -108 -73 0
-22 -110 -93 -103 -29 -92 0
-96 -52 -94 -35 -54 -32 0
-77 -64 -74 -36 -62 -32 0
-87 -36 -84 -62 -64 -32 0
-72 -88 -32 -37 -84 -74 0
-72 -98 -32 -94 -74 -37 0
-32 -104 -37 -74 -72 -108 0
-82 -84 -104 -38 -109 -32 0
-42 -47 -72 -85 -75 -88 0
-42 -98 -75 -47 -72 -95 0
-42 -47 -75 -72 -108 -105 0
-42 -82 -48 -85 -99 -95 0
-42 -109 -105 -85 -82 -48 0
-110 -105 -95 -49 -92 -42 0
-106 -96 -52 -59 -110 -92 0
-77 -88 -62 -87 -72 -67 0
-62 -87 -99 -97 -82 -68 0
-62 -82 -109 -107 -87 -68 0
-78 -88 -109 -108 -72 -82 0
-79 -98 -110 -92 -108 -72 0
-53 -33 -94 -54 -35 -96 0
-67 -26 -64 -23 -37 -36 0
-63 -77 -64 -36 -33 -74 0
-26 -64 -23 -36 -68 -38 0
-70 -26 -36 -23 -40 -64 0
-78 -23 -38 -27 -37 -74 0
-73 -33 -84 -37 -74 -88 0
-79 -27 -39 -23 -37 -74 0
-73 -98 -33 -94 -74 -37 0
-80 -23 -40 -27 -74 -37 0
-108 -104 -74 -37 -73 -33 0
-23 -38 -28 -39 -89 -84 0
-33 -38 -83 -84 -99 -94 0
-23 -40 -28 -90 -38 -84 0
-84 -104 -83 -38 -109 -33 0
-110 -93 -94 -39 -33 -104 0
-53 -45 -95 -55 -96 -43 0
-26 -68 -46 -24 -48 -65 0
-47 -78 -27 -75 -24 -48 0
-47 -43 -75 -73 -85 -88 0
-47 -79 -24 -27 -75 -49 0
-43 -47 -95 -98 -75 -73 0
-47 -43 -105 -75 -73 -108 0
-85 -49 -28 -24 -48 -89 0
-43 -85 -83 -48 -95 -99 0
-90 -85 -28 -50 -24 -48 0
-109 -43 -105 -85 -83 -48 0
-24 -50 -95 -49 -29 -100 0
-110 -93 -95 -43 -105 -49 0
-53 -76 -96 -57 -98 -73 0
-53 -106 -96 -59 -110 -93 0
-77 -63 -87 -67 -73 -88 0
-26 -87 -69 -68 -89 -28 0
-97 -70 -29 -26 -69 -100 0
-78 -88 -99 -98 -83 -73 0
-78 -109 -83 -108 -73 -88 0
-79 -98 -110 -93 -108 -73 0
-65 -36 -46 -34 -69 -49 0
-48 -75 -37 -34 -78 -47 0
-44 -47 -74 -75 -85 -88 0
-75 -49 -37 -34 -79 -47 0
-98 -75 -95 -47 -74 -44 0
-75 -50 -37 -34 -80 -47 0
-108 -75 -105 -47 -74 -44 0
-89 -34 -85 -38 -48 -49 0
-44 -85 -95 -48 -84 -99 0
-90 -34 -85 -48 -38 -50 0
-44 -85 -105 -109 -84 -48 0
-50 -95 -39 -34 -100 -49 0
-110 -105 -95 -49 -94 -44 0
-76 -88 -54 -57 -74 -86 0
-76 -106 -54 -57 -74 -108 0
-54 -99 -84 -58 -86 -96 0
-60 -58 -90 -35 -86 -38 0
-67 -88 -64 -87 -77 -74 0
-79 -67 -77 -37 -69 -36 0
-68 -69 -36 -87 -89 -38 0
-64 -99 -84 -97 -68 -87 0
-70 -36 -38 -90 -68 -87 0
-78 -99 -84 -98 -88 -74 0
-78 -109 -84 -108 -88 -74 0
-79 -98 -110 -108 -94 -74 0
-60 -58 -86 -45 -48 -90 0
-55 -59 -95 -106 -110 -96 0
-89 -69 -46 -48 -68 -87 0
-70 -90 -46 -48 -68 -87 0
-97 -70 -49 -46 -69 -100 0
-88 -99 -75 -98 -78 -85 0
-90 -100 -99 -48 -89 -49 0
-110 -99 -85 -109 -89 -95 0
-78 -76 -98 -99 -88 -86 0
-76 -88 -109 -108 -86 -78 0
-44 -23 -81 -34 -28 -38 -85 -31 -48 0
-34 -23 -101 -50 -40 -105 -44 -31 -30 0
-90 -30 -101 -41 -24 -109 -50 -85 -48 0
-24 -50 -95 -101 -30 -41 -100 -49 -110 0
-96 -59 -39 -49 -55 -41 -91 -34 -45 0
-106 -34 -101 -50 -40 -55 -60 -41 -45 0
-65 -87 -41 -38 -68 -48 -46 -81 -34 0
-79 -75 -39 -49 -98 -91 -47 -41 -34 0
-80 -41 -40 -47 -101 -34 -75 -108 -50 0
-85 -49 -39 -91 -99 -89 -34 -48 -41 0
-85 -50 -40 -41 -90 -109 -101 -48 -34 0
-50 -49 -40 -101 -100 -110 -95 -34 -41 0
-47 -78 -75 -42 -38 -34 -82 -48 -88 0
-42 -75 -39 -34 -49 -47 -92 -98 -79 0
-42 -85 -40 -90 -34 -50 -102 -109 -48 0
-50 -95 -40 -110 -102 -100 -34 -49 -42 0
-82 -100 -99 -50 -90 -102 -48 -110 -89 0
-89 -100 -99 -48 -50 -83 -103 -110 -90 0
-80 -73 -33 -37 -74 -30 -83 -88 -23 0
-36 -84 -40 -64 -67 -88 -80 -77 -74 0
-25 -27 -52 -1 -57 -5 0
-58 -25 -52 -28 -1 -5 0
-59 -52 -29 -25 -1 -5 0
-25 -1 -30 -52 -60 -5 0
-67 -26 -1 -62 -27 -6 0
-26 -68 -1 -62 -28 -6 0
-26 -1 -29 -62 -69 -6 0
-26 -70 -1 -62 -30 -6 0
-27 -1 -28 -72 -7 -78 0
-79 -7 -1 -29 -27 -72 0
-80 -7 -1 -27 -30 -72 0
-1 -82 -29 -28 -8 -89 0
-1 -90 -28 -82 -8 -30 0
-92 -30 -9 -29 -1 -100 0
-57 -1 -35 -52 -37 -5 0
-58 -1 -35 -38 -52 -5 0
-1 -59 -35 -52 -39 -5 0
-60 -52 -40 -35 -1 -5 0
-67 -1 -37 -62 -36 -6 0
-68 -1 -38 -62 -36 -6 0
-1 -69 -39 -36 -62 -6 0
-70 -36 -40 -62 -1 -6 0
-78 -1 -38 -37 -7 -72 0
-79 -7 -1 -72 -39 -37 0
-80 -7 -1 -72 -37 -40 0
-82 -1 -38 -39 -8 -89 0
-1 -40 -9 -39 -100 -92 0
-58 -1 -45 -48 -52 -5 0
-59 -1 -49 -52 -45 -5 0
-52 -60 -45 -50 -1 -5 0
-68 -1 -46 -62 -48 -6 0
-1 -69 -46 -49 -62 -6 0
-70 -1 -46 -62 -50 -6 0
-72 -1 -7 -48 -78 -47 0
-72 -79 -7 -47 -1 -49 0
-80 -7 -1 -72 -50 -47 0
-89 -1 -48 -82 -49 -8 0
-1 -90 -8 -82 -50 -48 0
-1 -100 -50 -49 -92 -9 0
-67 -62 -56 -1 -57 -6 0
-1 -62 -68 -56 -58 -6 0
-1 -59 -69 -56 -62 -6 0
-60 -56 -62 -70 -1 -6 0
-57 -1 -7 -72 -58 -78 0
-79 -7 -1 -59 -57 -72 0
-60 -58 -1 -82 -8 -90 0
-92 -59 -1 -9 -60 -100 0
-67 -1 -7 -72 -68 -78 0
-67 -1 -7 -72 -69 -79 0
-17 -11 -61 -62 -102 -108 0
-67 -72 -70 -1 -7 -80 0
-68 -82 -69 -1 -8 -89 0
-70 -1 -8 -90 -68 -82 0
-70 -1 -100 -92 -69 -9 0
-75 -31 -21 -33 -24 -73 0
-24 -85 -31 -21 -83 -33 0
-95 -31 -21 -93 -24 -33 0
-105 -31 -21 -33 -103 -24 0
-66 -63 -21 -33 -25 -31 0
-76 -31 -21 -33 -73 -25 0
-53 -2 -37 -35 -57 -5 0
-33 -31 -83 -86 -25 -21 0
-53 -38 -2 -35 -58 -5 0
-25 -93 -31 -33 -96 -21 0
-53 -59 -2 -39 -35 -5 0
-25 -106 -21 -103 -31 -33 0
-53 -40 -2 -35 -60 -5 0
-77 -26 -21 -33 -73 -31 0
-63 -36 -37 -2 -67 -6 0
-87 -31 -21 -83 -26 -33 0
-63 -38 -2 -36 -68 -6 0
-26 -97 -31 -93 -33 -21 0
-63 -69 -2 -36 -39 -6 0
-107 -33 -31 -103 -26 -21 0
-70 -36 -40 -63 -2 -6 0
-88 -27 -21 -33 -31 -83 0
-78 -38 -2 -37 -7 -73 0
-98 -93 -31 -21 -33 -27 0
-79 -73 -2 -39 -7 -37 0
-27 -33 -31 -21 -103 -108 0
-80 -7 -2 -37 -40 -73 0
-33 -93 -31 -21 -99 -28 0
-38 -39 -83 -2 -8 -89 0
-33 -31 -28 -21 -103 -109 0
-38 -40 -2 -8 -83 -90 0
-110 -29 -31 -33 -103 -21 0
-100 -40 -2 -93 -9 -39 0
-58 -53 -2 -45 -48 -5 0
-59 -53 -2 -45 -49 -5 0
-60 -53 -2 -45 -50 -5 0
-63 -68 -46 -2 -48 -6 0
-63 -69 -46 -49 -2 -6 0
-63 -70 -46 -50 -2 -6 0
-47 -78 -2 -7 -73 -48 0
-73 -47 -2 -49 -7 -79 0
-47 -80 -2 -7 -73 -50 0
-89 -48 -2 -8 -49 -83 0
-90 -2 -83 -8 -48 -50 0
-50 -93 -49 -2 -9 -100 0
-53 -77 -51 -73 -26 -21 0
-57 -63 -56 -2 -67 -6 0
-53 -51 -83 -87 -26 -21 0
-63 -56 -2 -58 -68 -6 0
-53 -51 -93 -97 -26 -21 0
-63 -56 -2 -59 -69 -6 0
-53 -26 -51 -107 -103 -21 0
-60 -63 -56 -70 -2 -6 0
-53 -51 -83 -88 -27 -21 0
-78 -57 -73 -7 -58 -2 0
-53 -51 -93 -98 -27 -21 0
-79 -7 -2 -59 -57 -73 0
-53 -51 -103 -108 -27 -21 0
-60 -57 -7 -2 -73 -80 0
-53 -51 -99 -28 -93 -21 0
-58 -59 -2 -89 -83 -8 0
-53 -51 -103 -28 -109 -21 0
-58 -60 -2 -8 -83 -90 0
-53 -51 -103 -110 -21 -29 0
-60 -59 -2 -93 -9 -100 0
-63 -61 -21 -27 -83 -88 0
-67 -68 -2 -73 -78 -7 0
-63 -61 -21 -98 -27 -93 0
-69 -2 -7 -73 -79 -67 0
-63 -61 -21 -108 -27 -103 0
-67 -2 -7 -73 -70 -80 0
-63 -61 -28 -93 -99 -21 0
-69 -2 -83 -8 -68 -89 0
-63 -61 -21 -109 -28 -103 0
-70 -2 -8 -83 -68 -90 0
-63 -61 -110 -29 -103 -21 0
-70 -69 -93 -2 -9 -100 0
-73 -99 -71 -28 -93 -21 0
-73 -109 -71 -28 -21 -103 0
-73 -110 -71 -21 -103 -29 0
-110 -29 -81 -83 -21 -103 0
-90 -89 -100 -93 -2 -9 0
-54 -58 -45 -3 -48 -5 0
-54 -59 -45 -49 -3 -5 0
-54 -60 -3 -45 -50 -5 0
-64 -68 -46 -3 -48 -6 0
-64 -69 -46 -49 -3 -6 0
-64 -70 -46 -3 -50 -6 0
-78 -7 -3 -48 -47 -74 0
-79 -7 -3 -49 -47 -74 0
-47 -80 -3 -7 -74 -50 0
-84 -3 -49 -8 -48 -89 0
-50 -84 -3 -8 -48 -90 0
-50 -3 -49 -94 -9 -100 0
-77 -51 -31 -36 -54 -74 0
-57 -64 -56 -3 -67 -6 0
-87 -51 -36 -54 -84 -31 0
-64 -56 -3 -58 -68 -6 0
-97 -54 -31 -94 -51 -36 0
-64 -69 -59 -56 -3 -6 0
-54 -36 -104 -51 -107 -31 0
-60 -64 -70 -3 -56 -6 0
-88 -51 -84 -54 -37 -31 0
-57 -3 -7 -74 -58 -78 0
-98 -51 -94 -54 -37 -31 0
-79 -59 -3 -57 -74 -7 0
-54 -104 -31 -37 -51 -108 0
-80 -7 -3 -57 -60 -74 0
-51 -54 -94 -99 -38 -31 0
-59 -84 -3 -8 -58 -89 0
-51 -54 -104 -109 -38 -31 0
-58 -60 -3 -84 -90 -8 0
-51 -54 -104 -110 -31 -39 0
-60 -59 -3 -94 -9 -100 0
-88 -61 -84 -64 -37 -31 0
-67 -3 -7 -74 -78 -68 0
-61 -94 -37 -64 -31 -98 0
-67 -3 -7 -74 -79 -69 0
-61 -104 -37 -64 -31 -108 0
-67 -70 -74 -3 -80 -7 0
-61 -64 -38 -94 -31 -99 0
-68 -84 -3 -8 -69 -89 0
-61 -64 -104 -31 -38 -109 0
-70 -84 -8 -3 -68 -90 0
-64 -61 -110 -39 -31 -104 0
-70 -100 -3 -94 -9 -69 0
-38 -94 -71 -31 -74 -99 0
-109 -104 -31 -71 -74 -38 0
-110 -104 -71 -74 -31 -39 0
-110 -104 -81 -84 -31 -39 0
-89 -90 -94 -3 -100 -9 0
-57 -56 -4 -65 -67 -6 0
-55 -87 -85 -51 -41 -46 0
-65 -56 -4 -58 -68 -6 0
-55 -46 -41 -95 -97 -51 0
-65 -56 -4 -59 -69 -6 0
-60 -56 -4 -65 -70 -6 0
-55 -88 -51 -85 -47 -41 0
-75 -4 -7 -57 -58 -78 0
-55 -51 -95 -47 -41 -98 0
-75 -4 -7 -59 -79 -57 0
-55 -51 -105 -47 -41 -108 0
-60 -4 -7 -75 -80 -57 0
-55 -51 -95 -99 -41 -48 0
-59 -4 -8 -85 -58 -89 0
-55 -51 -105 -48 -41 -109 0
-51 -110 -41 -105 -55 -49 0
-60 -59 -4 -95 -9 -100 0
-61 -85 -41 -47 -65 -88 0
-75 -4 -7 -67 -78 -68 0
-65 -61 -41 -47 -95 -98 0
-65 -61 -41 -47 -105 -108 0
-70 -75 -4 -7 -80 -67 0
-65 -61 -99 -95 -41 -48 0
-69 -4 -8 -85 -68 -89 0
-61 -109 -105 -65 -41 -48 0
-70 -68 -85 -4 -90 -8 0
-61 -105 -49 -65 -41 -110 0
-69 -4 -9 -95 -70 -100 0
-99 -75 -41 -95 -71 -48 0
-109 -75 -41 -105 -71 -48 0
-110 -75 -105 -41 -71 -49 0
-110 -85 -105 -81 -49 -41 0
-90 -89 -4 -95 -9 -100 0
-57 -86 -61 -66 -51 -88 0
-78 -76 -68 -67 -7 -5 0
-57 -96 -61 -66 -51 -98 0
-79 -76 -69 -67 -7 -5 0
-57 -106 -61 -51 -108 -66 0
-80 -76 -70 -67 -7 -5 0
-58 -61 -99 -66 -51 -96 0
-89 -86 -69 -68 -8 -5 0
-58 -106 -61 -51 -109 -66 0
-86 -70 -8 -68 -90 -5 0
-106 -61 -110 -66 -51 -59 0
-96 -70 -69 -100 -9 -5 0
-59 -106 -81 -51 -86 -110 0
-96 -90 -100 -89 -9 -5 0
-97 -99 -71 -61 -77 -68 0
-107 -61 -71 -68 -109 -77 0
-107 -69 -81 -61 -110 -87 0
-97 -90 -100 -89 -9 -6 0
-73 -33 -75 -32 -24 -22 0
-22 -32 -24 -83 -33 -85 0
-12 -43 -38 -14 -48 -34 0
-33 -93 -95 -24 -32 -22 0
-14 -12 -39 -34 -49 -43 0
-22 -32 -105 -24 -103 -33 0
-12 -50 -40 -14 -34 -43 0
-76 -22 -33 -32 -25 -73 0
-25 -32 -83 -33 -22 -86 0
-22 -25 -93 -96 -32 -33 0
-25 -106 -32 -33 -22 -103 0
-73 -22 -33 -32 -77 -26 0
-16 -67 -12 -63 -37 -36 0
-87 -33 -83 -32 -26 -22 0
-26 -22 -97 -93 -33 -32 0
-22 -27 -32 -83 -88 -33 0
-22 -98 -33 -93 -27 -32 0
-79 -73 -12 -17 -37 -39 0
-27 -32 -103 -108 -33 -22 0
-22 -32 -99 -93 -28 -33 0
-22 -32 -103 -28 -109 -33 0
-22 -33 -110 -103 -32 -29 0
-19 -12 -93 -39 -40 -100 0
-79 -73 -12 -17 -49 -47 0
-47 -80 -17 -12 -50 -73 0
-18 -89 -83 -12 -48 -49 0
-53 -73 -52 -22 -77 -26 0
-22 -53 -52 -26 -87 -83 0
-22 -52 -83 -27 -88 -53 0
-53 -52 -93 -98 -27 -22 0
-53 -52 -103 -108 -27 -22 0
-22 -53 -52 -28 -93 -99 0
-22 -52 -103 -53 -28 -109 0
-22 -52 -110 -103 -29 -53 0
-22 -63 -62 -27 -83 -88 0
-22 -63 -62 -27 -93 -98 0
-79 -73 -12 -17 -69 -67 0
-73 -12 -70 -17 -80 -67 0
-63 -62 -99 -28 -93 -22 0
-63 -62 -109 -28 -22 -103 0
-22 -63 -62 -29 -103 -110 0
-22 -72 -28 -99 -73 -93 0
-22 -109 -103 -73 -72 -28 0
-22 -72 -110 -29 -103 -73 0
-22 -82 -103 -110 -83 -29 0
-58 -13 -54 -15 -48 -45 0
-13 -59 -54 -15 -49 -45 0
-60 -13 -50 -15 -54 -45 0
-13 -16 -64 -69 -49 -46 0
-47 -79 -17 -13 -49 -74 0
-47 -80 -17 -13 -50 -74 0
-13 -18 -48 -84 -49 -89 0
-19 -13 -100 -94 -50 -49 0
-77 -52 -36 -54 -32 -74 0
-52 -36 -84 -54 -32 -87 0
-97 -52 -36 -54 -94 -32 0
-88 -52 -84 -54 -32 -37 0
-98 -52 -94 -54 -32 -37 0
-108 -52 -37 -54 -32 -104 0
-52 -54 -38 -99 -94 -32 0
-52 -54 -38 -109 -104 -32 0
-52 -54 -104 -110 -32 -39 0
-64 -84 -37 -62 -32 -88 0
-67 -17 -68 -13 -78 -74 0
-98 -62 -37 -64 -94 -32 0
-32 -104 -37 -64 -62 -108 0
-80 -17 -70 -13 -67 -74 0
-64 -62 -38 -94 -32 -99 0
-64 -62 -104 -38 -32 -109 0
-62 -32 -39 -110 -64 -104 0
-72 -32 -38 -74 -94 -99 0
-72 -104 -74 -38 -109 -32 0
-72 -110 -74 -39 -104 -32 0
-82 -84 -39 -32 -104 -110 0
-42 -55 -52 -85 -47 -88 0
-52 -47 -95 -55 -98 -42 0
-42 -108 -52 -105 -47 -55 0
-55 -52 -95 -99 -48 -42 0
-42 -52 -105 -109 -55 -48 0
-42 -52 -105 -110 -55 -49 0
-88 -62 -47 -65 -85 -42 0
-67 -17 -75 -14 -78 -68 0
-98 -62 -47 -65 -95 -42 0
-79 -17 -69 -14 -67 -75 0
-42 -47 -65 -62 -108 -105 0
-14 -70 -75 -17 -67 -80 0
-42 -62 -99 -65 -95 -48 0
-42 -62 -105 -109 -65 -48 0
-42 -62 -110 -65 -105 -49 0
-72 -48 -75 -99 -95 -42 0
-42 -48 -105 -75 -72 -109 0
-42 -72 -110 -105 -49 -75 0
-42 -110 -85 -105 -82 -49 0
-62 -88 -66 -57 -52 -86 0
-62 -57 -66 -52 -98 -96 0
-62 -57 -66 -52 -108 -106 0
-62 -52 -99 -96 -66 -58 0
-106 -62 -66 -52 -109 -58 0
-62 -106 -66 -52 -110 -59 0
-76 -96 -52 -58 -99 -72 0
-76 -106 -52 -58 -109 -72 0
-76 -106 -59 -52 -110 -72 0
-106 -59 -52 -82 -86 -110 0
-97 -68 -99 -62 -72 -77 0
-62 -68 -109 -107 -77 -72 0
-77 -107 -62 -69 -72 -110 0
-107 -62 -87 -110 -82 -69 0
-72 -82 -110 -108 -79 -88 0
-54 -23 -45 -25 -58 -48 0
-54 -23 -45 -25 -59 -49 0
-26 -64 -68 -23 -48 -46 0
-26 -69 -46 -23 -64 -49 0
-26 -70 -46 -23 -50 -64 0
-47 -78 -23 -74 -27 -48 0
-79 -23 -49 -27 -74 -47 0
-80 -23 -50 -27 -74 -47 0
-89 -23 -84 -28 -49 -48 0
-90 -23 -28 -84 -48 -50 0
-23 -50 -49 -94 -100 -29 0
-53 -54 -74 -77 -36 -33 0
-54 -33 -84 -87 -36 -53 0
-26 -64 -56 -23 -69 -59 0
-60 -70 -23 -26 -56 -64 0
-53 -88 -54 -37 -33 -84 0
-78 -74 -27 -57 -58 -23 0
-53 -98 -54 -37 -94 -33 0
-57 -23 -74 -27 -59 -79 0
-53 -54 -33 -108 -104 -37 0
-60 -57 -23 -27 -74 -80 0
-53 -54 -99 -38 -94 -33 0
-59 -58 -23 -28 -89 -84 0
-53 -54 -109 -38 -104 -33 0
-53 -54 -110 -39 -104 -33 0
-60 -59 -23 -94 -100 -29 0
-63 -64 -37 -33 -84 -88 0
-78 -68 -23 -27 -67 -74 0
-98 -64 -37 -33 -94 -63 0
-67 -69 -23 -74 -79 -27 0
-108 -64 -104 -37 -63 -33 0
-67 -70 -23 -27 -80 -74 0
-63 -64 -38 -33 -94 -99 0
-68 -84 -28 -89 -69 -23 0
-63 -64 -38 -33 -104 -109 0
-70 -23 -28 -68 -90 -84 0
-63 -64 -110 -33 -104 -39 0
-69 -29 -94 -23 -70 -100 0
-33 -99 -74 -38 -73 -94 0
-73 -104 -74 -38 -109 -33 0
-73 -39 -74 -110 -104 -33 0
-84 -39 -83 -33 -104 -110 0
-90 -23 -94 -89 -100 -29 0
-65 -26 -56 -24 -67 -57 0
-55 -53 -87 -85 -43 -46 0
-65 -26 -56 -24 -58 -68 0
-53 -43 -95 -55 -97 -46 0
-55 -53 -43 -107 -105 -46 0
-55 -53 -88 -85 -47 -43 0
-78 -27 -75 -57 -58 -24 0
-53 -43 -95 -55 -47 -98 0
-27 -59 -75 -79 -57 -24 0
-53 -43 -105 -47 -108 -55 0
-53 -55 -95 -99 -48 -43 0
-59 -58 -24 -28 -85 -89 0
-55 -53 -43 -109 -48 -105 0
-60 -90 -24 -58 -85 -28 0
-55 -53 -43 -110 -49 -105 0
-60 -59 -24 -95 -29 -100 0
-65 -43 -47 -63 -88 -85 0
-67 -68 -24 -27 -75 -78 0
-63 -98 -47 -65 -95 -43 0
-69 -24 -75 -67 -79 -27 0
-47 -43 -105 -65 -63 -108 0
-67 -70 -24 -27 -75 -80 0
-65 -63 -43 -99 -95 -48 0
-68 -69 -24 -28 -85 -89 0
-65 -43 -105 -48 -63 -109 0
-90 -24 -85 -68 -28 -70 0
-65 -105 -49 -43 -63 -110 0
-69 -29 -95 -24 -70 -100 0
-43 -75 -95 -99 -73 -48 0
-109 -43 -75 -105 -73 -48 0
-73 -110 -43 -75 -49 -105 0
-105 -49 -83 -43 -85 -110 0
-90 -89 -100 -24 -29 -95 0
-57 -63 -86 -66 -53 -88 0
-53 -96 -66 -63 -98 -57 0
-79 -76 -25 -27 -67 -69 0
-53 -106 -66 -63 -57 -108 0
-80 -25 -70 -27 -67 -76 0
-53 -63 -99 -96 -58 -66 0
-25 -86 -68 -28 -89 -69 0
-53 -106 -66 -63 -58 -109 0
-25 -70 -28 -68 -86 -90 0
-53 -63 -110 -106 -59 -66 0
-25 -96 -69 -29 -70 -100 0
-53 -76 -96 -58 -99 -73 0
-53 -76 -106 -58 -109 -73 0
-53 -76 -106 -73 -59 -110 0
-53 -106 -59 -83 -86 -110 0
-96 -25 -100 -29 -89 -90 0
-77 -63 -97 -99 -68 -73 0
-63 -68 -109 -107 -73 -77 0
-73 -69 -110 -107 -63 -77 0
-107 -87 -69 -83 -63 -110 0
-26 -90 -29 -89 -100 -97 0
-73 -110 -83 -108 -79 -88 0
-27 -90 -100 -29 -89 -98 0
-54 -46 -85 -44 -87 -55 0
-65 -56 -36 -34 -68 -58 0
-56 -34 -36 -69 -65 -59 0
-65 -70 -34 -36 -56 -60 0
-55 -88 -54 -85 -47 -44 0
-58 -75 -37 -78 -57 -34 0
-55 -98 -54 -44 -47 -95 0
-57 -34 -75 -37 -59 -79 0
-108 -54 -44 -55 -105 -47 0
-57 -34 -75 -37 -60 -80 0
-55 -54 -95 -48 -99 -44 0
-59 -38 -85 -58 -34 -89 0
-54 -55 -44 -109 -48 -105 0
-60 -58 -34 -85 -38 -90 0
-54 -44 -105 -55 -49 -110 0
-60 -95 -39 -100 -34 -59 0
-44 -47 -65 -64 -85 -88 0
-67 -68 -75 -37 -78 -34 0
-44 -47 -65 -64 -95 -98 0
-69 -75 -37 -67 -79 -34 0
-44 -47 -105 -65 -64 -108 0
-67 -70 -34 -37 -80 -75 0
-65 -64 -44 -48 -95 -99 0
-68 -69 -85 -38 -89 -34 0
-64 -65 -44 -109 -105 -48 0
-70 -38 -85 -68 -34 -90 0
-64 -65 -44 -49 -110 -105 0
-70 -95 -39 -34 -100 -69 0
-44 -95 -74 -99 -48 -75 0
-44 -75 -105 -109 -74 -48 0
-110 -75 -105 -49 -74 -44 0
-44 -84 -105 -110 -85 -49 0
-89 -90 -39 -34 -100 -95 0
-57 -86 -54 -88 -64 -66 0
-67 -68 -35 -37 -78 -76 0
-96 -64 -54 -57 -98 -66 0
-79 -67 -35 -37 -69 -76 0
-106 -64 -54 -57 -66 -108 0
-80 -70 -35 -37 -67 -76 0
-58 -64 -66 -54 -96 -99 0
-68 -69 -38 -35 -86 -89 0
-106 -64 -66 -54 -109 -58 0
-70 -35 -38 -68 -90 -86 0
-70 -69 -100 -39 -35 -96 0
-76 -54 -99 -96 -58 -74 0
-76 -106 -54 -109 -58 -74 0
-76 -106 -59 -54 -110 -74 0
-106 -59 -54 -84 -110 -86 0
-96 -90 -100 -39 -35 -89 0
-77 -64 -68 -74 -99 -97 0
-77 -107 -68 -109 -64 -74 0
-77 -107 -64 -110 -69 -74 0
-69 -110 -84 -107 -64 -87 0
-90 -89 -39 -36 -100 -97 0
-79 -110 -84 -108 -88 -74 0
-90 -100 -37 -98 -89 -39 0
-55 -57 -66 -65 -106 -108 0
-68 -89 -45 -48 -69 -86 0
-55 -106 -66 -65 -58 -109 0
-70 -68 -45 -48 -90 -86 0
-55 -65 -59 -66 -106 -110 0
-96 -70 -45 -49 -100 -69 0
-55 -106 -59 -85 -110 -86 0
-96 -89 -45 -90 -49 -100 0
-65 -107 -69 -85 -87 -110 0
-97 -90 -46 -49 -100 -89 0
-110 -85 -75 -108 -79 -88 0
-98 -90 -100 -49 -89 -47 0
-97 -56 -100 -59 -90 -89 0
-76 -86 -110 -108 -79 -88 0
-57 -98 -59 -90 -89 -100 0
-100 -95 -104 -23 -24 -110 -50 -49 -30 0
-79 -78 -94 -27 -99 -89 -88 -29 -23 0
-42 -73 -33 -72 -37 -47 0
-42 -33 -48 -38 -83 -82 0
-42 -92 -49 -93 -39 -33 0
-42 -102 -50 -103 -40 -33 0
-63 -62 -52 -36 -33 -56 0
-72 -52 -33 -37 -57 -73 0
-52 -33 -83 -58 -82 -38 0
-59 -52 -93 -33 -92 -39 0
-60 -102 -52 -103 -40 -33 0
-72 -67 -62 -33 -37 -73 0
-62 -82 -83 -33 -68 -38 0
-92 -62 -39 -33 -93 -69 0
-102 -62 -70 -103 -40 -33 0
-78 -82 -38 -83 -33 -72 0
-79 -92 -39 -93 -33 -72 0
-80 -33 -40 -72 -102 -103 0
-89 -92 -39 -93 -33 -82 0
-82 -33 -40 -102 -103 -90 0
-92 -33 -40 -103 -102 -100 0
-63 -56 -43 -62 -52 -46 0
-52 -43 -47 -57 -72 -73 0
-58 -82 -43 -83 -52 -48 0
-59 -52 -93 -92 -49 -43 0
-60 -102 -52 -103 -50 -43 0
-72 -62 -47 -67 -73 -43 0
-68 -43 -83 -82 -48 -62 0
-92 -62 -43 -69 -49 -93 0
-102 -62 -70 -103 -50 -43 0
-78 -72 -43 -83 -82 -48 0
-92 -79 -49 -93 -43 -72 0
-80 -102 -43 -50 -103 -72 0
-89 -92 -93 -43 -49 -82 0
-102 -103 -43 -50 -90 -82 0
-103 -100 -43 -50 -102 -92 0
-67 -53 -72 -73 -57 -62 0
-53 -62 -82 -58 -83 -68 0
-53 -92 -62 -93 -59 -69 0
-60 -102 -70 -103 -62 -53 0
-53 -58 -83 -82 -78 -72 0
-53 -59 -93 -92 -79 -72 0
-80 -53 -103 -60 -72 -102 0
-53 -92 -82 -59 -89 -93 0
-60 -53 -102 -103 -82 -90 0
-60 -53 -102 -103 -100 -92 0
-78 -68 -83 -63 -82 -72 0
-79 -92 -93 -69 -63 -72 0
-72 -70 -103 -102 -63 -80 0
-89 -82 -93 -92 -63 -69 0
-102 -63 -70 -90 -103 -82 0
-102 -92 -70 -63 -100 -103 0
-79 -73 -93 -82 -92 -89 0
-80 -82 -103 -73 -102 -90 0
-80 -100 -103 -73 -102 -92 0
-102 -92 -90 -83 -103 -100 0
-64 -56 -46 -52 -62 -44 0
-72 -52 -47 -57 -74 -44 0
-52 -82 -44 -48 -84 -58 0
-59 -52 -94 -92 -49 -44 0
-60 -102 -44 -104 -52 -50 0
-72 -62 -47 -67 -74 -44 0
-62 -68 -84 -82 -44 -48 0
-92 -62 -94 -69 -49 -44 0
-102 -62 -70 -104 -44 -50 0
-78 -72 -44 -84 -48 -82 0
-79 -92 -94 -44 -49 -72 0
-80 -102 -44 -104 -72 -50 0
-89 -92 -94 -44 -49 -82 0
-102 -90 -44 -104 -82 -50 0
-102 -92 -44 -104 -100 -50 0
-72 -62 -54 -67 -57 -74 0
-62 -82 -54 -58 -84 -68 0
-62 -59 -94 -92 -69 -54 0
-102 -70 -54 -60 -104 -62 0
-58 -54 -84 -82 -78 -72 0
-72 -59 -94 -92 -54 -79 0
-80 -54 -104 -60 -72 -102 0
-92 -82 -54 -89 -59 -94 0
-60 -82 -104 -54 -102 -90 0
-60 -92 -104 -54 -102 -100 0
-64 -72 -68 -82 -78 -84 0
-79 -69 -94 -92 -64 -72 0
-80 -102 -70 -104 -64 -72 0
-64 -82 -94 -69 -92 -89 0
-64 -70 -104 -82 -90 -102 0
-102 -70 -100 -64 -104 -92 0
-79 -82 -94 -92 -89 -74 0
-80 -82 -104 -74 -102 -90 0
-80 -92 -104 -74 -102 -100 0
-102 -92 -90 -84 -104 -100 0
-55 -67 -75 -57 -72 -62 0
-55 -62 -82 -58 -68 -85 0
-59 -69 -95 -92 -55 -62 0
-55 -102 -70 -62 -105 -60 0
-78 -55 -82 -58 -85 -72 0
-55 -72 -95 -92 -59 -79 0
-80 -55 -102 -60 -105 -72 0
-92 -55 -59 -89 -82 -95 0
-60 -90 -105 -82 -102 -55 0
-19 -45 -41 -11 -9 -5 0
-55 -92 -105 -102 -60 -100 0
-72 -68 -85 -82 -65 -78 0
-65 -92 -69 -72 -79 -95 0
-102 -72 -70 -65 -105 -80 0
-65 -92 -69 -82 -95 -89 0
-102 -65 -70 -82 -105 -90 0
-19 -46 -41 -11 -9 -6 0
-102 -92 -70 -65 -100 -105 0
-79 -82 -95 -92 -75 -89 0
-80 -90 -75 -102 -105 -82 0
-92 -75 -105 -102 -80 -100 0
-102 -92 -90 -105 -85 -100 0
-86 -68 -66 -72 -78 -82 0
-72 -92 -69 -66 -79 -96 0
-80 -72 -66 -70 -102 -106 0
-96 -92 -89 -66 -69 -82 0
-106 -102 -70 -66 -90 -82 0
-92 -66 -100 -70 -102 -106 0
-102 -106 -100 -76 -80 -92 0
-102 -106 -90 -86 -92 -100 0
-92 -89 -82 -97 -79 -77 0
-80 -102 -107 -92 -77 -100 0
-107 -87 -100 -90 -102 -92 0
-108 -90 -100 -88 -102 -92 0
-25 -34 -21 -31 -4 -5 0
-26 -34 -21 -31 -4 -6 0
-27 -4 -31 -7 -34 -21 0
-4 -31 -28 -8 -21 -34 0
-34 -4 -29 -9 -31 -21 0
-26 -35 -31 -21 -6 -5 0
-27 -31 -21 -7 -35 -5 0
-35 -31 -21 -8 -28 -5 0
-35 -31 -21 -29 -9 -5 0
-27 -36 -31 -21 -7 -6 0
-36 -31 -21 -8 -28 -6 0
-36 -31 -21 -9 -29 -6 0
-55 -63 -85 -68 -83 -58 0
-26 -41 -21 -45 -6 -5 0
-45 -41 -21 -7 -27 -5 0
-59 -95 -83 -93 -55 -89 0
-41 -45 -28 -8 -21 -5 0
-45 -41 -21 -29 -9 -5 0
-27 -41 -21 -46 -7 -6 0
-46 -41 -21 -8 -28 -6 0
-46 -41 -21 -29 -9 -6 0
-27 -51 -21 -56 -7 -6 0
-51 -56 -21 -28 -8 -6 0
-51 -56 -21 -29 -9 -6 0
-36 -45 -41 -31 -6 -5 0
-45 -41 -7 -31 -37 -5 0
-38 -41 -31 -8 -45 -5 0
-41 -45 -31 -9 -39 -5 0
-46 -41 -31 -37 -7 -6 0
-46 -41 -31 -8 -38 -6 0
-46 -41 -39 -9 -31 -6 0
-56 -51 -31 -37 -7 -6 0
-79 -96 -66 -74 -69 -94 0
-56 -38 -31 -8 -51 -6 0
-56 -51 -31 -9 -39 -6 0
-56 -51 -41 -47 -7 -6 0
-51 -56 -41 -48 -8 -6 0
-56 -51 -49 -41 -9 -6 0
-56 -64 -46 -44 -53 -63 0
-53 -73 -47 -57 -74 -44 0
-53 -44 -83 -58 -84 -48 0
-53 -59 -94 -44 -49 -93 0
-60 -44 -103 -104 -53 -50 0
-44 -47 -63 -67 -73 -74 0
-63 -44 -83 -48 -68 -84 0
-63 -93 -94 -49 -69 -44 0
-63 -44 -103 -104 -50 -70 0
-78 -44 -83 -84 -48 -73 0
-73 -93 -94 -44 -79 -49 0
-80 -44 -103 -104 -50 -73 0
-89 -94 -83 -49 -44 -93 0
-90 -44 -103 -104 -50 -83 0
-103 -93 -104 -100 -50 -44 0
-57 -73 -54 -63 -67 -74 0
-58 -54 -83 -63 -84 -68 0
-54 -93 -94 -69 -63 -59 0
-60 -54 -104 -103 -70 -63 0
-58 -54 -84 -83 -78 -73 0
-79 -54 -93 -59 -94 -73 0
-80 -54 -104 -60 -73 -103 0
-89 -54 -93 -59 -94 -83 0
-60 -104 -83 -103 -54 -90 0
-54 -93 -104 -103 -60 -100 0
-73 -68 -84 -83 -64 -78 0
-73 -69 -94 -93 -64 -79 0
-80 -70 -104 -103 -64 -73 0
-69 -94 -83 -64 -93 -89 0
-70 -104 -83 -103 -64 -90 0
-70 -103 -93 -64 -100 -104 0
-79 -94 -83 -74 -93 -89 0
-80 -104 -83 -103 -74 -90 0
-80 -93 -104 -103 -74 -100 0
-90 -100 -104 -103 -84 -93 0
-57 -63 -75 -73 -55 -67 0
-59 -69 -95 -93 -55 -63 0
-60 -63 -105 -103 -70 -55 0
-73 -58 -85 -83 -78 -55 0
-73 -59 -95 -93 -55 -79 0
-80 -73 -105 -103 -60 -55 0
-90 -105 -83 -55 -60 -103 0
-100 -103 -105 -93 -55 -60 0
-78 -68 -85 -83 -73 -65 0
-79 -69 -95 -93 -65 -73 0
-80 -70 -103 -73 -65 -105 0
-89 -69 -95 -93 -65 -83 0
-65 -70 -103 -83 -90 -105 0
-65 -70 -100 -93 -105 -103 0
-79 -75 -95 -93 -83 -89 0
-75 -105 -83 -90 -80 -103 0
-100 -75 -105 -93 -80 -103 0
-90 -100 -85 -93 -103 -105 0
-78 -86 -66 -83 -68 -73 0
-73 -96 -69 -93 -79 -66 0
-106 -66 -103 -70 -73 -80 0
-89 -93 -83 -66 -69 -96 0
-106 -70 -83 -66 -90 -103 0
-70 -103 -93 -66 -106 -100 0
-79 -76 -96 -83 -93 -89 0
-80 -76 -103 -106 -83 -90 0
-80 -76 -103 -106 -100 -93 0
-106 -100 -103 -93 -90 -86 0
-79 -77 -97 -93 -83 -89 0
-77 -107 -90 -103 -83 -80 0
-107 -87 -100 -90 -103 -93 0
-22 -19 -78 -18 -29 -72 0
-108 -90 -100 -88 -103 -93 0
-79 -75 -94 -95 -89 -84 0
-89 -84 -94 -66 -96 -69 0
-57 -64 -75 -74 -55 -67 0
-64 -68 -85 -84 -58 -55 0
-64 -59 -95 -94 -55 -69 0
-55 -70 -104 -64 -105 -60 0
-58 -85 -74 -84 -55 -78 0
-79 -59 -95 -94 -55 -74 0
-25 -33 -43 -27 -45 -37 0
-80 -74 -105 -104 -55 -60 0
-59 -84 -95 -94 -55 -89 0
-25 -33 -45 -43 -28 -38 0
-60 -55 -84 -90 -104 -105 0
-55 -105 -94 -100 -104 -60 0
-78 -65 -68 -84 -85 -74 0
-79 -69 -95 -94 -65 -74 0
-43 -26 -33 -46 -37 -27 0
-80 -70 -105 -104 -65 -74 0
-69 -84 -95 -94 -65 -89 0
-70 -84 -105 -90 -104 -65 0
-70 -105 -94 -104 -65 -100 0
-38 -47 -28 -43 -27 -33 0
-90 -75 -105 -104 -84 -80 0
-27 -43 -39 -29 -33 -47 0
-100 -105 -104 -94 -75 -80 0
-33 -29 -39 -28 -48 -43 0
-90 -105 -94 -104 -85 -100 0
-86 -68 -66 -74 -84 -78 0
-53 -26 -56 -27 -33 -37 0
-80 -70 -104 -74 -106 -66 0
-53 -26 -56 -38 -33 -28 0
-106 -70 -84 -90 -104 -66 0
-53 -26 -56 -39 -29 -33 0
-106 -104 -94 -100 -70 -66 0
-79 -89 -94 -96 -76 -84 0
-53 -38 -28 -57 -27 -33 0
-80 -90 -104 -76 -106 -84 0
-53 -57 -29 -39 -27 -33 0
-80 -76 -104 -94 -106 -100 0
-53 -58 -39 -33 -28 -29 0
-90 -104 -94 -86 -106 -100 0
-77 -97 -89 -94 -84 -79 0
-63 -33 -28 -67 -27 -38 0
-80 -107 -90 -104 -84 -77 0
-63 -27 -29 -39 -33 -67 0
-77 -107 -100 -94 -104 -80 0
-63 -68 -29 -33 -28 -39 0
-87 -104 -94 -90 -107 -100 0
-78 -39 -28 -33 -29 -73 0
-108 -90 -104 -94 -88 -100 0
-79 -66 -75 -69 -95 -96 0
-53 -26 -56 -27 -43 -47 0
-53 -56 -43 -28 -26 -48 0
-106 -70 -105 -66 -85 -90 0
-53 -56 -43 -29 -49 -26 0
-53 -57 -43 -28 -27 -48 0
-53 -57 -29 -43 -27 -49 0
-58 -53 -49 -43 -28 -29 0
-63 -67 -48 -28 -27 -43 0
-63 -67 -49 -29 -27 -43 0
-63 -68 -49 -29 -28 -43 0
-107 -87 -100 -90 -95 -105 0
-78 -73 -29 -43 -49 -28 0
-53 -63 -28 -27 -58 -67 0
-67 -53 -29 -27 -59 -63 0
-63 -59 -29 -28 -53 -68 0
-78 -59 -28 -29 -53 -73 0
-78 -69 -28 -29 -63 -73 0
-68 -85 -75 -66 -78 -86 0
-56 -36 -37 -54 -47 -44 0
-80 -106 -105 -66 -75 -70 0
-96 -66 -95 -69 -85 -89 0
-56 -44 -36 -54 -48 -38 0
-56 -54 -44 -39 -49 -36 0
-106 -70 -105 -66 -95 -100 0
-79 -76 -95 -96 -89 -85 0
-54 -57 -44 -48 -37 -38 0
-80 -106 -105 -85 -76 -90 0
-57 -54 -39 -44 -37 -49 0
-80 -76 -95 -106 -105 -100 0
-58 -54 -39 -44 -38 -49 0
-106 -90 -105 -86 -95 -100 0
-79 -77 -97 -89 -85 -95 0
-64 -67 -44 -38 -48 -37 0
-80 -77 -107 -85 -105 -90 0
-67 -64 -39 -44 -37 -49 0
-80 -107 -100 -105 -77 -95 0
-64 -68 -44 -49 -38 -39 0
-78 -38 -49 -39 -74 -44 0
-108 -90 -100 -88 -95 -105 0
-67 -58 -64 -38 -54 -37 0
-67 -64 -54 -59 -39 -37 0
-59 -54 -38 -68 -39 -64 0
-78 -59 -54 -38 -39 -74 0
-108 -90 -100 -88 -96 -106 0
-78 -69 -38 -64 -39 -74 0
-67 -48 -47 -58 -65 -55 0
-55 -67 -47 -49 -59 -65 0
-55 -65 -68 -59 -48 -49 0
-78 -75 -49 -55 -59 -48 0
-78 -65 -69 -75 -49 -48 0
-107 -97 -90 -88 -108 -100 0
-76 -58 -66 -69 -78 -59 0
-108 -50 -3 -37 -33 -74 -102 -10 -80 -73 -42 0
-90 -100 -4 -43 -110 -93 -95 -82 -49 -10 -102 0
-92 -87 -99 -89 -83 -79 -72 -68 -63 -9 -6 0
-79 -44 -4 -99 -84 -85 -9 -92 -72 -48 -89 0
-102 -100 -110 -96 -94 -90 -82 -59 -54 -10 -5 0
-55 -100 -95 -96 -102 -90 -82 -59 -110 -10 -5 0
-100 -96 -103 -110 -70 -94 -63 -59 -54 -10 -5 0
-96 -100 -103 -83 -90 -110 -94 -59 -54 -10 -5 0
-86 -89 -99 -93 -85 -69 -63 -58 -55 -9 -5 0
-96 -100 -103 -63 -95 -110 -55 -59 -70 -10 -5 0
-89 -99 -85 -93 -79 -87 -73 -68 -65 -9 -6 0
-79 -19 -15 -74 -55 -58 -85 -94 -99 -86 -89 0
-34 -33 -101 -107 -37 -108 -25 -24 -21 -2 -5 -6 0
-107 -33 -101 -34 -38 -109 -25 -24 -21 -2 -5 -6 0
-107 -33 -101 -39 -110 -34 -25 -24 -21 -2 -5 -6 0
-73 -63 -62 -76 -7 -1 -5 0
-63 -86 -62 -83 -8 -1 -5 0
-63 -96 -93 -62 -9 -1 -5 0
-63 -106 -62 -103 -10 -1 -5 0
-17 -88 -81 -83 -15 -2 -5 0
-72 -73 -86 -83 -8 -1 -5 0
-72 -73 -96 -93 -9 -1 -5 0
-108 -103 -101 -17 -15 -2 -5 0
-72 -73 -103 -106 -10 -1 -5 0
-18 -99 -91 -93 -15 -2 -5 0
-82 -93 -83 -96 -9 -1 -5 0
-109 -103 -101 -18 -15 -2 -5 0
-82 -103 -83 -106 -10 -1 -5 0
-19 -110 -101 -103 -15 -2 -5 0
-92 -103 -93 -106 -10 -1 -5 0
-73 -87 -8 -83 -72 -1 -6 0
-72 -73 -93 -97 -9 -1 -6 0
-72 -73 -107 -103 -10 -1 -6 0
-16 -18 -93 -91 -99 -2 -6 0
-82 -93 -83 -97 -9 -1 -6 0
-16 -109 -103 -101 -18 -2 -6 0
-107 -103 -83 -82 -10 -1 -6 0
-107 -103 -93 -92 -10 -1 -6 0
-76 -62 -74 -64 -7 -1 -5 0
-86 -62 -84 -64 -8 -1 -5 0
-96 -62 -94 -64 -9 -1 -5 0
-106 -62 -104 -64 -10 -1 -5 0
-15 -17 -3 -84 -88 -81 -5 0
-86 -84 -74 -72 -8 -1 -5 0
-96 -94 -74 -72 -9 -1 -5 0
-72 -106 -104 -74 -10 -1 -5 0
-82 -84 -9 -96 -94 -1 -5 0
-15 -109 -101 -104 -3 -18 -5 0
-106 -84 -104 -82 -10 -1 -5 0
-92 -104 -94 -106 -10 -1 -5 0
-87 -84 -74 -72 -8 -1 -6 0
-97 -94 -74 -72 -9 -1 -6 0
-72 -107 -104 -74 -10 -1 -6 0
-82 -84 -94 -97 -9 -1 -6 0
-107 -84 -104 -82 -10 -1 -6 0
-107 -104 -94 -92 -10 -1 -6 0
-62 -65 -86 -85 -8 -1 -5 0
-62 -65 -96 -95 -9 -1 -5 0
-106 -62 -105 -65 -10 -1 -5 0
-72 -86 -85 -75 -8 -1 -5 0
-72 -96 -95 -75 -9 -1 -5 0
-106 -75 -105 -72 -10 -1 -5 0
-18 -15 -4 -95 -91 -99 -5 0
-82 -85 -9 -96 -95 -1 -5 0
-106 -85 -105 -82 -10 -1 -5 0
-92 -105 -95 -106 -10 -1 -5 0
-72 -87 -85 -75 -8 -1 -6 0
-72 -97 -95 -75 -9 -1 -6 0
-72 -107 -105 -75 -10 -1 -6 0
-82 -85 -95 -97 -9 -1 -6 0
-107 -85 -105 -82 -10 -1 -6 0
-107 -105 -95 -92 -10 -1 -6 0
-16 -17 -81 -88 -86 -6 -5 0
-16 -17 -91 -98 -96 -6 -5 0
-16 -106 -101 -17 -108 -6 -5 0
-19 -18 -101 -106 -110 -8 -5 0
-76 -63 -64 -2 -7 -74 -5 0
-63 -86 -64 -2 -8 -84 -5 0
-63 -96 -64 -2 -9 -94 -5 0
-63 -104 -2 -106 -10 -64 -5 0
-25 -27 -81 -84 -88 -3 -5 0
-73 -84 -8 -74 -2 -86 -5 0
-27 -98 -94 -91 -25 -3 -5 0
-73 -94 -74 -9 -2 -96 -5 0
-27 -108 -101 -104 -25 -3 -5 0
-73 -104 -2 -106 -10 -74 -5 0
-99 -91 -28 -94 -25 -3 -5 0
-84 -94 -83 -9 -2 -96 -5 0
-25 -101 -28 -104 -109 -3 -5 0
-106 -104 -2 -10 -83 -84 -5 0
-110 -29 -101 -104 -25 -3 -5 0
-93 -104 -94 -10 -2 -106 -5 0
-26 -27 -81 -88 -84 -3 -6 0
-73 -84 -8 -74 -2 -87 -6 0
-26 -27 -91 -94 -98 -3 -6 0
-97 -2 -74 -9 -73 -94 -6 0
-26 -27 -101 -104 -108 -3 -6 0
-73 -107 -104 -2 -10 -74 -6 0
-26 -99 -91 -28 -94 -3 -6 0
-84 -94 -83 -9 -2 -97 -6 0
-26 -101 -28 -104 -109 -3 -6 0
-107 -104 -2 -10 -83 -84 -6 0
-26 -110 -101 -104 -29 -3 -6 0
-107 -10 -94 -2 -93 -104 -6 0
-94 -7 -28 -3 -91 -27 -99 0
-27 -101 -7 -104 -3 -109 -28 0
-110 -101 -7 -104 -3 -27 -29 0
-110 -101 -28 -104 -3 -8 -29 0
-65 -63 -86 -2 -8 -85 -5 0
-65 -63 -96 -2 -9 -95 -5 0
-63 -106 -105 -2 -10 -65 -5 0
-25 -27 -4 -85 -81 -88 -5 0
-73 -85 -2 -8 -75 -86 -5 0
-25 -27 -4 -95 -98 -91 -5 0
-73 -95 -2 -9 -75 -96 -5 0
-25 -108 -101 -105 -4 -27 -5 0
-73 -106 -105 -2 -10 -75 -5 0
-25 -4 -28 -95 -99 -91 -5 0
-95 -2 -83 -9 -85 -96 -5 0
-25 -105 -28 -4 -101 -109 -5 0
-106 -10 -2 -105 -83 -85 -5 0
-110 -29 -101 -105 -4 -25 -5 0
-93 -95 -10 -105 -2 -106 -5 0
-26 -27 -4 -85 -88 -81 -6 0
-73 -85 -2 -8 -75 -87 -6 0
-26 -27 -4 -95 -98 -91 -6 0
-73 -97 -2 -9 -75 -95 -6 0
-26 -27 -101 -105 -4 -108 -6 0
-73 -107 -105 -2 -10 -75 -6 0
-26 -4 -28 -95 -91 -99 -6 0
-97 -85 -2 -9 -83 -95 -6 0
-109 -101 -28 -105 -4 -26 -6 0
-107 -10 -2 -105 -83 -85 -6 0
-110 -29 -101 -105 -4 -26 -6 0
-107 -10 -2 -105 -93 -95 -6 0
-27 -95 -28 -7 -99 -4 -91 0
-109 -101 -7 -4 -105 -27 -28 0
-4 -29 -7 -27 -110 -105 -101 0
-29 -101 -28 -8 -4 -110 -105 0
-26 -27 -81 -88 -86 -6 -5 0
-26 -27 -91 -98 -96 -6 -5 0
-26 -106 -101 -108 -27 -6 -5 0
-26 -96 -91 -28 -99 -6 -5 0
-26 -106 -101 -109 -28 -6 -5 0
-26 -106 -101 -29 -110 -6 -5 0
-27 -91 -28 -7 -96 -99 -5 0
-106 -101 -7 -28 -27 -109 -5 0
-27 -29 -101 -7 -106 -110 -5 0
-29 -101 -28 -8 -106 -110 -5 0
-27 -91 -28 -99 -97 -7 -6 0
-107 -101 -28 -27 -109 -7 -6 0
-27 -110 -101 -29 -107 -7 -6 0
-107 -101 -28 -8 -29 -110 -6 0
-65 -64 -86 -3 -8 -85 -5 0
-65 -64 -96 -3 -9 -95 -5 0
-106 -64 -105 -3 -10 -65 -5 0
-35 -85 -37 -81 -88 -4 -5 0
-75 -85 -3 -8 -74 -86 -5 0
-35 -91 -37 -95 -98 -4 -5 0
-75 -3 -95 -9 -74 -96 -5 0
-35 -101 -37 -105 -108 -4 -5 0
-106 -105 -3 -74 -10 -75 -5 0
-35 -38 -91 -95 -99 -4 -5 0
-84 -3 -95 -9 -85 -96 -5 0
-38 -35 -101 -105 -109 -4 -5 0
-106 -3 -10 -105 -84 -85 -5 0
-35 -101 -39 -105 -110 -4 -5 0
-95 -10 -94 -105 -3 -106 -5 0
-36 -37 -81 -88 -85 -4 -6 0
-75 -87 -3 -8 -74 -85 -6 0
-36 -95 -37 -91 -98 -4 -6 0
-97 -75 -9 -3 -74 -95 -6 0
-36 -101 -37 -105 -108 -4 -6 0
-107 -105 -3 -74 -10 -75 -6 0
-36 -38 -95 -91 -99 -4 -6 0
-97 -85 -3 -9 -84 -95 -6 0
-36 -38 -101 -105 -109 -4 -6 0
-107 -3 -10 -105 -84 -85 -6 0
-36 -110 -101 -105 -39 -4 -6 0
-107 -3 -10 -105 -94 -95 -6 0
-38 -4 -7 -37 -91 -95 -99 0
-38 -105 -7 -4 -101 -37 -109 0
-101 -105 -37 -7 -110 -4 -39 0
-38 -110 -8 -4 -105 -101 -39 0
-86 -36 -81 -37 -88 -6 -5 0
-98 -36 -37 -91 -96 -6 -5 0
-106 -36 -101 -108 -37 -6 -5 0
-96 -36 -91 -38 -99 -6 -5 0
-106 -36 -101 -109 -38 -6 -5 0
-106 -36 -101 -39 -110 -6 -5 0
-38 -91 -37 -7 -96 -99 -5 0
-106 -38 -101 -37 -7 -109 -5 0
-101 -39 -37 -7 -106 -110 -5 0
-38 -101 -39 -8 -110 -106 -5 0
-38 -91 -37 -97 -99 -7 -6 0
-107 -101 -7 -109 -37 -38 -6 0
-107 -101 -7 -110 -37 -39 -6 0
-107 -39 -8 -38 -101 -110 -6 0
-96 -46 -91 -48 -99 -6 -5 0
-106 -46 -101 -48 -109 -6 -5 0
-106 -46 -101 -49 -110 -6 -5 0
-48 -91 -7 -47 -96 -99 -5 0
-48 -47 -101 -106 -7 -109 -5 0
-47 -49 -101 -110 -106 -7 -5 0
-48 -49 -101 -8 -110 -106 -5 0
-48 -47 -91 -99 -97 -7 -6 0
-48 -47 -101 -107 -109 -7 -6 0
-47 -49 -101 -107 -110 -7 -6 0
-107 -49 -101 -48 -110 -8 -6 0
-57 -58 -91 -99 -97 -7 -6 0
-57 -58 -101 -107 -109 -7 -6 0
-57 -59 -101 -107 -110 -7 -6 0
-58 -59 -101 -8 -107 -110 -6 0
-16 -26 -14 -109 -28 -102 -105 0
-18 -15 -38 -39 -106 -102 -110 0
-102 -15 -106 -17 -110 -47 -49 0
-18 -15 -49 -48 -106 -110 -102 0
-16 -17 -110 -102 -107 -47 -49 0
-102 -18 -48 -17 -108 -49 -110 0
-65 -25 -23 -64 -95 -29 -96 0
-25 -23 -105 -65 -106 -64 -30 0
-25 -35 -24 -37 -85 -88 -83 0
-23 -85 -75 -28 -86 -25 -74 0
-96 -29 -74 -23 -25 -95 -75 0
-106 -30 -74 -25 -105 -75 -23 0
-25 -35 -24 -38 -95 -93 -99 0
-25 -30 -85 -84 -106 -23 -105 0
-25 -110 -105 -35 -39 -24 -103 0
-25 -23 -105 -95 -94 -30 -106 0
-26 -36 -83 -24 -88 -37 -85 0
-26 -23 -75 -87 -28 -74 -85 0
-36 -24 -37 -26 -95 -93 -98 0
-26 -97 -75 -29 -95 -74 -23 0
-26 -36 -37 -24 -103 -108 -105 0
-26 -23 -75 -107 -30 -74 -105 0
-26 -38 -93 -24 -95 -99 -36 0
-26 -23 -95 -97 -84 -85 -29 0
-36 -24 -105 -38 -26 -103 -109 0
-26 -23 -85 -107 -30 -84 -105 0
-24 -105 -39 -110 -36 -26 -103 0
-26 -23 -105 -95 -94 -30 -107 0
-27 -38 -93 -95 -99 -37 -24 0
-98 -85 -29 -84 -95 -27 -23 0
-27 -103 -37 -24 -38 -105 -109 0
-27 -30 -105 -85 -108 -84 -23 0
-27 -110 -37 -105 -24 -39 -103 0
-108 -30 -105 -95 -94 -23 -27 0
-103 -38 -105 -39 -110 -24 -28 0
-30 -95 -28 -105 -109 -94 -23 0
-25 -38 -93 -27 -96 -99 -37 0
-86 -84 -29 -96 -98 -23 -27 0
-27 -103 -37 -25 -106 -38 -109 0
-106 -86 -23 -30 -27 -108 -84 0
-25 -106 -39 -27 -37 -103 -110 0
-106 -96 -30 -27 -23 -94 -108 0
-103 -38 -28 -39 -106 -110 -25 0
-106 -96 -30 -28 -23 -94 -109 0
-26 -27 -38 -99 -97 -93 -37 0
-87 -23 -84 -27 -98 -97 -29 0
-27 -103 -37 -107 -109 -26 -38 0
-107 -23 -84 -87 -108 -27 -30 0
-26 -107 -39 -103 -110 -37 -27 0
-108 -97 -30 -107 -94 -27 -23 0
-26 -107 -110 -103 -28 -39 -38 0
-107 -97 -94 -28 -109 -23 -30 0
-27 -103 -38 -110 -39 -108 -28 0
-98 -109 -94 -108 -28 -30 -23 0
-25 -47 -93 -27 -99 -48 -96 0
-98 -24 -85 -86 -27 -96 -29 0
-27 -103 -47 -25 -109 -48 -106 0
-106 -24 -85 -30 -27 -108 -86 0
-27 -103 -47 -25 -110 -106 -49 0
-108 -24 -95 -27 -96 -106 -30 0
-25 -106 -48 -28 -103 -49 -110 0
-106 -96 -30 -28 -95 -24 -109 0
-26 -27 -93 -99 -97 -47 -48 0
-97 -87 -24 -29 -98 -85 -27 0
-26 -107 -48 -27 -109 -47 -103 0
-87 -24 -85 -27 -108 -107 -30 0
-27 -103 -49 -110 -107 -47 -26 0
-97 -108 -24 -30 -27 -107 -95 0
-26 -107 -110 -103 -28 -49 -48 0
-107 -97 -30 -24 -95 -109 -28 0
-27 -103 -28 -108 -49 -48 -110 0
-109 -24 -95 -108 -28 -30 -98 0
-58 -27 -110 -59 -108 -28 -103 0
-98 -30 -28 -96 -25 -108 -109 0
-108 -68 -69 -27 -28 -110 -103 0
-26 -97 -30 -108 -98 -28 -109 0
-48 -94 -37 -96 -99 -35 -47 0
-85 -39 -37 -34 -98 -86 -96 0
-106 -35 -104 -37 -48 -47 -109 0
-106 -34 -85 -86 -37 -40 -108 0
-106 -35 -104 -110 -37 -49 -47 0
-106 -34 -95 -96 -108 -37 -40 0
-106 -35 -49 -38 -110 -104 -48 0
-106 -96 -34 -40 -109 -38 -95 0
-36 -47 -37 -99 -97 -94 -48 0
-85 -39 -37 -34 -97 -87 -98 0
-47 -104 -37 -36 -109 -107 -48 0
-107 -87 -40 -108 -85 -34 -37 0
-47 -104 -37 -36 -49 -107 -110 0
-108 -97 -40 -95 -107 -37 -34 0
-107 -49 -104 -38 -36 -48 -110 0
-97 -34 -95 -38 -109 -40 -107 0
-48 -104 -37 -110 -38 -108 -49 0
-108 -34 -95 -40 -98 -38 -109 0
-57 -107 -36 -37 -58 -104 -109 0
-59 -104 -37 -107 -57 -110 -36 0
-58 -107 -104 -38 -59 -110 -36 0
-58 -59 -110 -104 -108 -38 -37 0
-96 -35 -40 -98 -38 -108 -109 0
-68 -69 -110 -108 -104 -38 -37 0
-97 -36 -40 -109 -108 -98 -38 0
-58 -48 -105 -107 -59 -110 -46 0
-59 -47 -105 -58 -108 -48 -110 0
-98 -109 -50 -96 -108 -48 -45 0
-68 -47 -105 -69 -108 -110 -48 0
-97 -46 -50 -109 -108 -48 -98 0
-11 -13 -12 0
-11 -14 -12 0
-11 -14 -13 0
-14 -13 -12 0
-22 -23 -21 0
-22 -24 -21 0
-23 -24 -21 0
-22 -23 -24 0
-32 -33 -31 0
-32 -34 -31 0
-34 -33 -31 0
-32 -34 -33 0
-1 -2 0
-1 -3 0
-1 -4 0
-3 -2 0
-4 -2 0
-3 -4 0
-42 -41 0
-43 -41 0
-44 -41 0
-42 -43 0
-42 -44 0
-44 -43 0
-55 -57 -56 0
-67 -65 -66 0
-45 -47 0
-46 -47 0
-76 -75 0
-77 -75 0
-77 -76 0
-89 -88 -81 0
-88 -90 -81 0
-89 -90 -81 0
-88 -89 -90 0
-98 -99 -91 0
-98 -100 -91 0
-100 -99 -91 0
-98 -100 -99 0
-108 -109 -101 0
-108 -110 -101 0
-109 -110 -101 0
-108 -109 -110 0
-78 -71 0
-79 -71 0
-80 -71 0
-79 -78 0
-80 -78 0
-80 -79 0
-7 -8 0
-9 -7 0
-10 -7 0
-9 -8 0
-10 -8 0
-10 -9 0
-1 713 -7 -6 -5 0
709 -713 0
714 -713 0
-1 -8 715 -6 -5 0
709 -715 0
714 -715 0
-1 716 -9 -6 -5 0
709 -716 0
714 -716 0
-1 -10 717 -6 -5 0
709 -717 0
714 -717 0
718 -2 -7 -6 -5 0
709 -718 0
714 -718 0
-2 -8 719 -6 -5 0
709 -719 0
714 -719 0
720 -2 -9 -6 -5 0
709 -720 0
714 -720 0
-2 -10 721 -6 -5 0
709 -721 0
714 -721 0
-7 -3 722 -6 -5 0
709 -722 0
714 -722 0
-3 -8 723 -6 -5 0
709 -723 0
714 -723 0
724 -3 -9 -6 -5 0
709 -724 0
714 -724 0
-3 -10 725 -6 -5 0
709 -725 0
714 -725 0
-4 726 -7 -6 -5 0
709 -726 0
714 -726 0
-4 -8 727 -6 -5 0
709 -727 0
714 -727 0
-4 728 -9 -6 -5 0
709 -728 0
714 -728 0
-4 -10 729 -6 -5 0
709 -729 0
714 -729 0
-730 732 0
734 -733 0
740 -739 0
742 -741 0
742 -743 0
742 -744 0
742 -745 0
742 -746 0
-747 740 0
742 -747 0
749 -748 0
736 -750 0
749 -750 0
737 -751 0
749 -751 0
738 -752 0
749 -752 0
740 -753 0
749 -753 0
736 -754 0
737 -756 0
738 -757 0
-11 -16 -12 758 -20 0
740 -758 0
737 -759 0
760 -759 0
738 -761 0
760 -761 0
740 -762 0
760 -762 0
-11 763 -18 -12 -19 0
738 -763 0
740 -765 0
764 -765 0
-20 -19 -12 -11 766 0
740 -766 0
767 -766 0
734 -768 0
742 -768 0
742 -769 0
742 -770 0
742 -771 0
742 -772 0
-773 740 0
742 -773 0
749 -774 0
736 -775 0
749 -775 0
737 -776 0
749 -776 0
738 -777 0
749 -777 0
740 -778 0
749 -778 0
736 -779 0
737 -780 0
738 -781 0
740 -782 0
-11 783 -17 -13 -18 0
737 -783 0
760 -783 0
738 -784 0
760 -784 0
740 -785 0
760 -785 0
-11 -13 -18 786 -19 0
738 -786 0
740 -787 0
764 -787 0
-20 -19 -13 -11 788 0
740 -788 0
767 -788 0
749 -789 0
-11 -15 -17 -14 790 0
736 -790 0
749 -790 0
737 -791 0
749 -791 0
738 -792 0
749 -792 0
740 -793 0
749 -793 0
736 -794 0
737 -795 0
738 -796 0
740 -797 0
737 -798 0
760 -798 0
738 -799 0
760 -799 0
740 -800 0
760 -800 0
-11 -14 -18 801 -19 0
738 -801 0
740 -802 0
764 -802 0
-20 -19 -14 -11 803 0
740 -803 0
767 -803 0
736 -804 0
737 -805 0
738 -806 0
740 -807 0
737 -808 0
738 -809 0
740 -810 0
-11 -19 -18 -15 811 0
738 -811 0
-20 -11 -18 -15 812 0
740 -812 0
-20 -19 -15 -11 813 0
740 -813 0
-11 -16 -18 814 -17 0
737 -814 0
-11 -16 -17 815 -19 0
738 -815 0
740 -816 0
738 -817 0
740 -818 0
740 -819 0
-11 -18 -17 -19 820 0
738 -820 0
-11 -18 -17 821 -20 0
740 -821 0
740 -822 0
740 -823 0
-824 732 0
-825 732 0
-826 732 0
732 -827 0
-828 732 0
-829 732 0
-830 732 0
734 -831 0
732 -831 0
-13 -15 -12 -18 832 0
734 -832 0
732 -832 0
734 -833 0
732 -833 0
734 -834 0
732 -834 0
735 -835 0
732 -835 0
735 -836 0
732 -836 0
735 -837 0
732 -837 0
735 -838 0
732 -838 0
736 -839 0
732 -839 0
736 -840 0
732 -840 0
736 -841 0
732 -841 0
737 -842 0
732 -842 0
737 -843 0
732 -843 0
738 -844 0
732 -844 0
742 -845 0
-15 846 -12 -14 -17 0
-846 734 0
742 -846 0
-847 734 0
742 -847 0
-15 848 -12 -14 -19 0
-848 734 0
742 -848 0
-849 734 0
742 -849 0
-16 -14 -12 850 -17 0
735 -850 0
742 -850 0
735 -851 0
742 -851 0
-16 -14 -12 852 -19 0
735 -852 0
742 -852 0
735 -853 0
742 -853 0
736 -854 0
742 -854 0
-19 -14 -12 855 -17 0
736 -855 0
742 -855 0
736 -856 0
742 -856 0
737 -857 0
742 -857 0
-20 -14 -12 858 -18 0
737 -858 0
742 -858 0
738 -859 0
742 -859 0
-860 749 0
-861 749 0
-862 749 0
749 -863 0
736 -864 0
749 -864 0
-15 865 -12 -17 -19 0
736 -865 0
749 -865 0
-15 866 -12 -17 -20 0
736 -866 0
749 -866 0
867 -15 -12 -18 -19 0
737 -867 0
749 -867 0
868 -15 -12 -18 -20 0
737 -868 0
749 -868 0
-19 -15 869 -12 -20 0
738 -869 0
749 -869 0
-16 870 -12 -17 -18 0
736 -870 0
755 -870 0
-16 871 -12 -17 -19 0
736 -871 0
755 -871 0
-16 872 -12 -17 -20 0
736 -872 0
755 -872 0
-16 873 -18 -12 -19 0
737 -873 0
755 -873 0
-16 874 -18 -12 -20 0
737 -874 0
755 -874 0
738 -875 0
755 -875 0
737 -876 0
877 -18 -12 -17 -20 0
737 -877 0
878 -19 -12 -17 -20 0
738 -878 0
738 -879 0
742 -880 0
-15 -14 -13 881 -17 0
-881 734 0
742 -881 0
-882 734 0
742 -882 0
-15 -14 -13 883 -19 0
-883 734 0
742 -883 0
-884 734 0
742 -884 0
-16 -14 -17 -13 885 0
735 -885 0
742 -885 0
735 -886 0
742 -886 0
-16 -14 -13 887 -19 0
735 -887 0
742 -887 0
735 -888 0
742 -888 0
736 -889 0
742 -889 0
890 -14 -13 -17 -19 0
736 -890 0
742 -890 0
736 -891 0
742 -891 0
737 -892 0
742 -892 0
-20 -14 -13 893 -18 0
737 -893 0
742 -893 0
738 -894 0
742 -894 0
-895 749 0
-896 749 0
-897 749 0
-898 749 0
736 -899 0
-899 749 0
-15 900 -13 -17 -19 0
736 -900 0
-900 749 0
736 -901 0
-901 749 0
-19 -13 -18 -15 902 0
737 -902 0
-902 749 0
737 -903 0
-903 749 0
-19 -15 -13 904 -20 0
738 -904 0
-904 749 0
-16 905 -17 -13 -18 0
736 -905 0
755 -905 0
-16 906 -17 -13 -19 0
736 -906 0
755 -906 0
-20 -16 -17 -13 907 0
736 -907 0
755 -907 0
-16 -13 -18 908 -19 0
737 -908 0
755 -908 0
-16 -13 -18 909 -20 0
737 -909 0
755 -909 0
738 -910 0
755 -910 0
737 -911 0
737 -912 0
738 -913 0
738 -914 0
-915 749 0
-916 749 0
-917 749 0
-918 749 0
736 -919 0
-919 749 0
736 -920 0
-920 749 0
736 -921 0
-921 749 0
737 -922 0
-922 749 0
737 -923 0
-923 749 0
-19 -15 924 -14 -20 0
738 -924 0
-924 749 0
736 -925 0
755 -925 0
736 -926 0
755 -926 0
736 -927 0
755 -927 0
737 -928 0
755 -928 0
737 -929 0
755 -929 0
-16 930 -14 -19 -20 0
738 -930 0
755 -930 0
737 -931 0
737 -932 0
-20 -19 -14 933 -17 0
738 -933 0
738 -934 0
736 -935 0
736 -936 0
736 -937 0
737 -938 0
737 -939 0
738 -940 0
737 -941 0
737 -942 0
738 -943 0
738 -944 0
737 -945 0
737 -946 0
738 -947 0
738 -948 0
738 -949 0
953 -952 0
955 -954 0
957 -956 0
959 -958 0
961 -960 0
950 -962 0
963 -962 0
953 -964 0
955 -965 0
957 -966 0
959 -967 0
961 -968 0
950 -969 0
963 -969 0
-970 950 0
-22 -25 -21 971 -27 0
950 -971 0
957 -971 0
-22 -25 -21 -28 972 0
950 -972 0
959 -972 0
-22 -25 -29 -21 973 0
950 -973 0
961 -973 0
-22 -25 -30 -21 974 0
950 -974 0
963 -974 0
-22 -26 -21 975 -27 0
950 -975 0
957 -975 0
-22 -26 -21 976 -28 0
950 -976 0
959 -976 0
-22 -26 -21 977 -29 0
950 -977 0
961 -977 0
-22 -26 -30 -21 978 0
950 -978 0
963 -978 0
-27 979 -21 -28 -22 0
950 -979 0
959 -979 0
-22 980 -21 -27 -29 0
950 -980 0
961 -980 0
-22 981 -21 -27 -30 0
950 -981 0
963 -981 0
-22 -29 -28 -21 982 0
950 -982 0
961 -982 0
-22 983 -30 -28 -21 0
950 -983 0
963 -983 0
-22 -30 -29 -21 984 0
950 -984 0
963 -984 0
986 -985 0
951 -985 0
988 -987 0
990 -989 0
992 -991 0
994 -993 0
996 -995 0
-25 -27 -21 -23 997 0
990 -997 0
953 -997 0
-25 -23 -21 -28 998 0
992 -998 0
953 -998 0
-25 999 -29 -21 -23 0
994 -999 0
953 -999 0
-30 -25 -21 -23 1000 0
996 -1000 0
953 -1000 0
-26 -27 -23 -21 1001 0
990 -1001 0
955 -1001 0
-26 -23 -28 -21 1002 0
992 -1002 0
955 -1002 0
-26 1003 -29 -21 -23 0
994 -1003 0
955 -1003 0
-26 1004 -21 -23 -30 0
996 -1004 0
955 -1004 0
-27 -23 -21 -28 1005 0
992 -1005 0
957 -1005 0
1006 -27 -21 -23 -29 0
994 -1006 0
957 -1006 0
1007 -27 -21 -23 -30 0
996 -1007 0
957 -1007 0
-23 -29 -21 -28 1008 0
994 -1008 0
959 -1008 0
-23 1009 -21 -28 -30 0
996 -1009 0
959 -1009 0
-30 -23 -21 -29 1010 0
996 -1010 0
961 -1010 0
1011 -25 -24 -27 -21 0
990 -1011 0
953 -1011 0
1012 -25 -24 -28 -21 0
992 -1012 0
953 -1012 0
1013 -25 -29 -24 -21 0
994 -1013 0
953 -1013 0
-25 -30 -24 -21 1014 0
996 -1014 0
953 -1014 0
-26 -27 -21 -24 1015 0
990 -1015 0
955 -1015 0
-26 1016 -21 -28 -24 0
992 -1016 0
955 -1016 0
-26 1017 -21 -29 -24 0
994 -1017 0
955 -1017 0
-26 1018 -30 -24 -21 0
996 -1018 0
955 -1018 0
-27 -24 1019 -21 -28 0
992 -1019 0
957 -1019 0
-27 1020 -29 -24 -21 0
994 -1020 0
957 -1020 0
1021 -27 -24 -30 -21 0
996 -1021 0
957 -1021 0
-24 -29 -28 1022 -21 0
994 -1022 0
959 -1022 0
-30 1023 -28 -21 -24 0
996 -1023 0
959 -1023 0
1024 -30 -29 -24 -21 0
996 -1024 0
961 -1024 0
990 -1025 0
992 -1026 0
994 -1027 0
996 -1028 0
-25 -27 -21 -28 1029 0
992 -1029 0
957 -1029 0
-27 -25 -21 -29 1030 0
994 -1030 0
957 -1030 0
-25 -27 -30 1031 -21 0
996 -1031 0
957 -1031 0
-25 1032 -21 -29 -28 0
994 -1032 0
959 -1032 0
-25 -30 -21 -28 1033 0
996 -1033 0
959 -1033 0
-30 -25 -29 -21 1034 0
996 -1034 0
961 -1034 0
-26 -27 -21 -28 1035 0
992 -1035 0
957 -1035 0
-26 -27 -21 -29 1036 0
994 -1036 0
957 -1036 0
-27 -26 -21 -30 1037 0
996 -1037 0
957 -1037 0
-26 1038 -29 -21 -28 0
994 -1038 0
959 -1038 0
1039 -26 -21 -30 -28 0
996 -1039 0
959 -1039 0
1040 -26 -21 -30 -29 0
996 -1040 0
961 -1040 0
-27 -29 -21 -28 1041 0
994 -1041 0
959 -1041 0
-27 -30 1042 -21 -28 0
996 -1042 0
959 -1042 0
1043 -27 -21 -30 -29 0
996 -1043 0
961 -1043 0
-30 -29 -21 -28 1044 0
996 -1044 0
961 -1044 0
986 -1045 0
951 -1045 0
988 -1046 0
990 -1047 0
992 -1048 0
994 -1049 0
996 -1050 0
-22 -25 -23 -27 1051 0
990 -1051 0
953 -1051 0
-22 -25 -23 -28 1052 0
992 -1052 0
953 -1052 0
-22 -25 -29 -23 1053 0
994 -1053 0
953 -1053 0
-22 -30 -23 -25 1054 0
996 -1054 0
953 -1054 0
-22 -26 -27 -23 1055 0
990 -1055 0
955 -1055 0
-22 -26 -23 -28 1056 0
992 -1056 0
955 -1056 0
-22 -26 -23 -29 1057 0
994 -1057 0
955 -1057 0
-22 -30 -26 -23 1058 0
996 -1058 0
955 -1058 0
-22 -23 1059 -27 -28 0
992 -1059 0
957 -1059 0
-22 1060 -23 -27 -29 0
994 -1060 0
957 -1060 0
-22 -30 -23 -27 1061 0
996 -1061 0
957 -1061 0
-22 -23 1062 -28 -29 0
994 -1062 0
959 -1062 0
-22 -23 1063 -28 -30 0
996 -1063 0
959 -1063 0
-22 1064 -29 -23 -30 0
996 -1064 0
961 -1064 0
-22 -25 -24 -27 1065 0
990 -1065 0
953 -1065 0
-22 -25 -24 -28 1066 0
992 -1066 0
953 -1066 0
-22 -25 -29 -24 1067 0
994 -1067 0
953 -1067 0
-22 -30 -24 1068 -25 0
996 -1068 0
953 -1068 0
-22 -26 -27 -24 1069 0
990 -1069 0
955 -1069 0
-22 -26 -24 -28 1070 0
992 -1070 0
955 -1070 0
-22 -26 -24 -29 1071 0
994 -1071 0
955 -1071 0
-22 -30 -26 -24 1072 0
996 -1072 0
955 -1072 0
-22 -24 1073 -27 -28 0
992 -1073 0
957 -1073 0
-22 1074 -24 -27 -29 0
994 -1074 0
957 -1074 0
-22 -30 -27 -24 1075 0
996 -1075 0
957 -1075 0
-22 -24 -29 1076 -28 0
994 -1076 0
959 -1076 0
-22 -24 1077 -28 -30 0
996 -1077 0
959 -1077 0
-22 1078 -29 -24 -30 0
996 -1078 0
961 -1078 0
990 -1079 0
992 -1080 0
994 -1081 0
996 -1082 0
-22 -25 -28 -27 1083 0
992 -1083 0
957 -1083 0
-22 -27 -29 -25 1084 0
994 -1084 0
957 -1084 0
-22 -30 1085 -25 -27 0
996 -1085 0
957 -1085 0
-22 -25 -29 -28 1086 0
994 -1086 0
959 -1086 0
-22 -30 1087 -25 -28 0
996 -1087 0
959 -1087 0
-22 -30 1088 -25 -29 0
996 -1088 0
961 -1088 0
-22 -26 -27 -28 1089 0
992 -1089 0
957 -1089 0
-22 -26 -27 -29 1090 0
994 -1090 0
957 -1090 0
-22 -30 -27 -26 1091 0
996 -1091 0
957 -1091 0
-22 -26 -29 -28 1092 0
994 -1092 0
959 -1092 0
-22 -30 -28 -26 1093 0
996 -1093 0
959 -1093 0
-22 -30 -29 -26 1094 0
996 -1094 0
961 -1094 0
-22 -27 -29 1095 -28 0
994 -1095 0
959 -1095 0
-22 -30 -27 1096 -28 0
996 -1096 0
959 -1096 0
-22 -30 -27 1097 -29 0
996 -1097 0
961 -1097 0
996 -1098 0
961 -1098 0
986 -1099 0
951 -1099 0
-25 1100 -23 -24 -27 0
986 -1100 0
951 -1100 0
-25 1101 -23 -24 -28 0
986 -1101 0
951 -1101 0
-25 1102 -23 -24 -29 0
986 -1102 0
951 -1102 0
-25 1103 -23 -24 -30 0
986 -1103 0
951 -1103 0
-26 1104 -23 -24 -27 0
988 -1104 0
951 -1104 0
-26 1105 -23 -24 -28 0
988 -1105 0
951 -1105 0
-26 -24 -29 -23 1106 0
988 -1106 0
951 -1106 0
-26 1107 -23 -24 -30 0
988 -1107 0
951 -1107 0
-23 -24 1108 -27 -28 0
990 -1108 0
951 -1108 0
1109 -23 -24 -27 -29 0
990 -1109 0
951 -1109 0
1110 -23 -24 -27 -30 0
990 -1110 0
951 -1110 0
-23 -24 1111 -28 -29 0
992 -1111 0
951 -1111 0
-23 -24 1112 -28 -30 0
992 -1112 0
951 -1112 0
1113 -23 -29 -24 -30 0
994 -1113 0
951 -1113 0
-25 -23 -28 -27 1114 0
990 -1114 0
953 -1114 0
-25 -27 -23 -29 1115 0
990 -1115 0
953 -1115 0
-25 -27 -23 -30 1116 0
990 -1116 0
953 -1116 0
-25 -23 -28 -29 1117 0
992 -1117 0
953 -1117 0
-25 1118 -23 -28 -30 0
992 -1118 0
953 -1118 0
-25 1119 -29 -23 -30 0
994 -1119 0
953 -1119 0
-26 -23 -28 -27 1120 0
990 -1120 0
955 -1120 0
-26 -27 -23 -29 1121 0
990 -1121 0
955 -1121 0
-26 1122 -27 -23 -30 0
990 -1122 0
955 -1122 0
-26 -23 -29 -28 1123 0
992 -1123 0
955 -1123 0
-26 1124 -23 -28 -30 0
992 -1124 0
955 -1124 0
-26 1125 -23 -29 -30 0
994 -1125 0
955 -1125 0
-27 -23 -28 1126 -29 0
992 -1126 0
957 -1126 0
-27 -23 -28 1127 -30 0
992 -1127 0
957 -1127 0
1128 -27 -30 -23 -29 0
994 -1128 0
957 -1128 0
994 -1129 0
959 -1129 0
-25 -27 -24 -28 1130 0
990 -1130 0
953 -1130 0
-25 -27 -29 -24 1131 0
990 -1131 0
953 -1131 0
-25 -27 -24 -30 1132 0
990 -1132 0
953 -1132 0
-25 1133 -29 -24 -28 0
992 -1133 0
953 -1133 0
1134 -25 -24 -28 -30 0
992 -1134 0
953 -1134 0
-25 -30 -29 -24 1135 0
994 -1135 0
953 -1135 0
-26 -27 -24 -28 1136 0
990 -1136 0
955 -1136 0
-26 -27 -29 -24 1137 0
990 -1137 0
955 -1137 0
-26 1138 -27 -24 -30 0
990 -1138 0
955 -1138 0
-26 1139 -29 -24 -28 0
992 -1139 0
955 -1139 0
-26 1140 -24 -28 -30 0
992 -1140 0
955 -1140 0
-26 -30 -24 -29 1141 0
994 -1141 0
955 -1141 0
-27 -29 -28 1142 -24 0
992 -1142 0
957 -1142 0
-27 -24 1143 -28 -30 0
992 -1143 0
957 -1143 0
1144 -27 -29 -24 -30 0
994 -1144 0
957 -1144 0
994 -1145 0
959 -1145 0
990 -1146 0
990 -1147 0
990 -1148 0
992 -1149 0
992 -1150 0
994 -1151 0
992 -1152 0
957 -1152 0
992 -1153 0
957 -1153 0
994 -1154 0
957 -1154 0
994 -1155 0
959 -1155 0
992 -1156 0
957 -1156 0
992 -1157 0
957 -1157 0
994 -1158 0
957 -1158 0
994 -1159 0
959 -1159 0
994 -1160 0
959 -1160 0
1163 -1161 0
1163 -1164 0
1163 -1165 0
1163 -1166 0
1163 -1167 0
1163 -1168 0
1163 -1169 0
1171 -1170 0
-1170 1172 0
1171 -1173 0
1174 -1173 0
1171 -1175 0
1176 -1175 0
1171 -1177 0
1178 -1177 0
1171 -1179 0
1180 -1179 0
1171 -1181 0
1182 -1181 0
1171 -1183 0
-32 -35 -31 -37 1184 0
1171 -1184 0
1176 -1184 0
-32 -35 -31 -38 1185 0
1171 -1185 0
1178 -1185 0
1186 -35 -31 -39 -32 0
1171 -1186 0
1180 -1186 0
-32 -35 -40 -31 1187 0
1171 -1187 0
1182 -1187 0
-32 -36 -31 -37 1188 0
1171 -1188 0
1176 -1188 0
-32 -36 -31 -38 1189 0
1171 -1189 0
1178 -1189 0
-32 -36 -39 -31 1190 0
1171 -1190 0
1180 -1190 0
-32 -36 -31 1191 -40 0
1171 -1191 0
1182 -1191 0
-32 1192 -31 -38 -37 0
1171 -1192 0
1178 -1192 0
-32 1193 -31 -37 -39 0
1171 -1193 0
1180 -1193 0
-32 1194 -31 -37 -40 0
1171 -1194 0
1182 -1194 0
-32 1195 -38 -31 -39 0
1171 -1195 0
1180 -1195 0
-32 1196 -40 -31 -38 0
1171 -1196 0
1182 -1196 0
-32 -40 -31 -39 1197 0
1171 -1197 0
1182 -1197 0
1171 -1198 0
-1198 1172 0
1171 -1199 0
1174 -1199 0
1171 -1200 0
1176 -1200 0
1171 -1201 0
1178 -1201 0
1171 -1202 0
1180 -1202 0
1171 -1203 0
1182 -1203 0
1171 -1204 0
-35 -33 -31 -37 1205 0
1171 -1205 0
1176 -1205 0
-35 -33 -31 -38 1206 0
1171 -1206 0
1178 -1206 0
1207 -35 -31 -39 -33 0
1171 -1207 0
1180 -1207 0
-35 -33 -31 -40 1208 0
1171 -1208 0
1182 -1208 0
-33 -36 -31 -37 1209 0
1171 -1209 0
1176 -1209 0
-36 -33 -31 -38 1210 0
1171 -1210 0
1178 -1210 0
-36 1211 -39 -31 -33 0
1171 -1211 0
1180 -1211 0
-36 1212 -31 -33 -40 0
1171 -1212 0
1182 -1212 0
1213 -33 -31 -38 -37 0
1171 -1213 0
1178 -1213 0
-33 1214 -31 -37 -39 0
1171 -1214 0
1180 -1214 0
-33 1215 -31 -37 -40 0
1171 -1215 0
1182 -1215 0
-33 1216 -31 -38 -39 0
1171 -1216 0
1180 -1216 0
-33 1217 -31 -40 -38 0
1171 -1217 0
1182 -1217 0
-33 1218 -31 -40 -39 0
1171 -1218 0
1182 -1218 0
-34 -35 -37 -31 1219 0
1220 -1219 0
-1219 1172 0
-34 -35 -31 1221 -38 0
1222 -1221 0
-1221 1172 0
-34 -35 -39 -31 1223 0
1224 -1223 0
-1223 1172 0
-34 -35 -40 1225 -31 0
1226 -1225 0
-1225 1172 0
-36 -34 -31 -37 1227 0
1220 -1227 0
1174 -1227 0
-34 -36 -38 1228 -31 0
1222 -1228 0
1174 -1228 0
-34 -36 -39 -31 1229 0
1224 -1229 0
1174 -1229 0
-34 -36 -40 1230 -31 0
1226 -1230 0
1174 -1230 0
1231 -34 -31 -37 -38 0
1222 -1231 0
1176 -1231 0
-34 -39 -37 1232 -31 0
1224 -1232 0
1176 -1232 0
1233 -40 -37 -34 -31 0
1226 -1233 0
1176 -1233 0
-34 -38 -39 1234 -31 0
1224 -1234 0
1178 -1234 0
1235 -38 -40 -34 -31 0
1226 -1235 0
1178 -1235 0
1236 -34 -31 -40 -39 0
1226 -1236 0
1180 -1236 0
1224 -1237 0
1226 -1238 0
-35 -38 -31 -37 1239 0
1222 -1239 0
1176 -1239 0
-35 -39 -37 -31 1240 0
1224 -1240 0
1176 -1240 0
-35 -40 -37 -31 1241 0
1226 -1241 0
1176 -1241 0
-35 -38 -39 -31 1242 0
1224 -1242 0
1178 -1242 0
-35 1243 -31 -40 -38 0
1226 -1243 0
1178 -1243 0
-35 -40 -39 -31 1244 0
1226 -1244 0
-1244 1180 0
-36 -38 -37 1245 -31 0
1222 -1245 0
1176 -1245 0
-36 -39 -37 -31 1246 0
1224 -1246 0
1176 -1246 0
-36 1247 -31 -37 -40 0
1226 -1247 0
1176 -1247 0
-36 -38 -39 -31 1248 0
1224 -1248 0
1178 -1248 0
-36 1249 -31 -38 -40 0
1226 -1249 0
1178 -1249 0
-36 1250 -31 -39 -40 0
1226 -1250 0
1180 -1250 0
-38 -39 -37 1251 -31 0
1224 -1251 0
1178 -1251 0
1252 -40 -37 -38 -31 0
1226 -1252 0
1178 -1252 0
1253 -40 -37 -31 -39 0
1226 -1253 0
-1253 1180 0
1226 -1254 0
-1254 1180 0
-1255 1172 0
1174 -1256 0
1176 -1257 0
1178 -1258 0
1182 -1259 0
-1260 1162 0
-32 -33 -37 -35 1261 0
1162 -1261 0
1176 -1261 0
-32 -35 -38 -33 1262 0
1162 -1262 0
1178 -1262 0
-32 -33 1263 -39 -35 0
1162 -1263 0
-32 -33 -40 -35 1264 0
1162 -1264 0
1182 -1264 0
-36 1265 -37 -33 -32 0
1162 -1265 0
1176 -1265 0
-36 1266 -38 -33 -32 0
1162 -1266 0
1178 -1266 0
-32 -36 -39 -33 1267 0
1162 -1267 0
1180 -1267 0
-36 1268 -40 -33 -32 0
1162 -1268 0
1182 -1268 0
-33 -38 -37 -32 1269 0
1162 -1269 0
1178 -1269 0
-32 -39 -37 -33 1270 0
1162 -1270 0
-32 -33 -37 1271 -40 0
1162 -1271 0
1182 -1271 0
-32 -33 -38 -39 1272 0
1162 -1272 0
-32 -33 -38 1273 -40 0
1162 -1273 0
1182 -1273 0
-32 -40 -39 -33 1274 0
1162 -1274 0
1182 -1274 0
-34 -35 -37 -32 1275 0
1220 -1275 0
-1275 1172 0
-32 -34 -35 -38 1276 0
1222 -1276 0
-1276 1172 0
-34 -35 -39 1277 -32 0
1224 -1277 0
-1277 1172 0
-34 -32 -35 1278 -40 0
1226 -1278 0
-1278 1172 0
-34 -36 -37 -32 1279 0
1220 -1279 0
1174 -1279 0
-32 -34 -36 -38 1280 0
1222 -1280 0
1174 -1280 0
-32 -34 -36 -39 1281 0
1224 -1281 0
1174 -1281 0
-34 -32 -36 1282 -40 0
1226 -1282 0
1174 -1282 0
1283 -32 -34 -38 -37 0
1222 -1283 0
1176 -1283 0
1284 -32 -34 -37 -39 0
1224 -1284 0
1176 -1284 0
-32 -34 1285 -37 -40 0
1226 -1285 0
1176 -1285 0
1286 -32 -34 -38 -39 0
1224 -1286 0
1178 -1286 0
-32 -34 1287 -38 -40 0
1226 -1287 0
1178 -1287 0
-32 -34 1288 -39 -40 0
1226 -1288 0
-1288 1180 0
1224 -1289 0
1226 -1290 0
-35 -38 -37 -32 1291 0
1222 -1291 0
1176 -1291 0
-35 1292 -37 -32 -39 0
1224 -1292 0
1176 -1292 0
-32 -35 -37 1293 -40 0
1226 -1293 0
1176 -1293 0
-35 1294 -38 -32 -39 0
1224 -1294 0
1178 -1294 0
-32 -35 -38 1295 -40 0
1226 -1295 0
1178 -1295 0
-32 -35 -40 1296 -39 0
1226 -1296 0
-1296 1180 0
-36 -38 -37 -32 1297 0
1222 -1297 0
1176 -1297 0
-32 -39 -37 -36 1298 0
1224 -1298 0
1176 -1298 0
-32 -36 -37 1299 -40 0
1226 -1299 0
1176 -1299 0
-32 -38 -39 -36 1300 0
1224 -1300 0
1178 -1300 0
-32 -36 -38 1301 -40 0
1226 -1301 0
1178 -1301 0
-32 -40 -39 -36 1302 0
1226 -1302 0
1180 -1302 0
1303 -39 -37 -32 -38 0
1224 -1303 0
1178 -1303 0
-32 1304 -37 -38 -40 0
1226 -1304 0
1178 -1304 0
-32 1305 -37 -39 -40 0
1226 -1305 0
-1305 1180 0
1226 -1306 0
-1306 1180 0
-34 -35 -37 -33 1307 0
1220 -1307 0
-1307 1172 0
-34 -35 -38 -33 1308 0
1222 -1308 0
-1308 1172 0
-34 -35 -39 1309 -33 0
1224 -1309 0
-1309 1172 0
-34 -35 -40 -33 1310 0
1226 -1310 0
-1310 1172 0
-34 -36 -37 -33 1311 0
1220 -1311 0
1174 -1311 0
-34 -36 -38 -33 1312 0
1222 -1312 0
1174 -1312 0
-34 -36 -39 1313 -33 0
1224 -1313 0
1174 -1313 0
-34 -36 -40 -33 1314 0
1226 -1314 0
1174 -1314 0
1315 -34 -33 -38 -37 0
1222 -1315 0
1176 -1315 0
1316 -34 -39 -33 -37 0
1224 -1316 0
1176 -1316 0
-34 -33 -40 1317 -37 0
1226 -1317 0
1176 -1317 0
1318 -34 -39 -33 -38 0
1224 -1318 0
1178 -1318 0
-34 -33 -40 1319 -38 0
1226 -1319 0
1178 -1319 0
1320 -40 -39 -33 -34 0
1226 -1320 0
-1320 1180 0
1224 -1321 0
1226 -1322 0
-35 -38 -37 -33 1323 0
1222 -1323 0
1176 -1323 0
-33 -39 -37 1324 -35 0
1224 -1324 0
1176 -1324 0
-33 -40 -37 -35 1325 0
1226 -1325 0
1176 -1325 0
-35 1326 -38 -39 -33 0
1224 -1326 0
1178 -1326 0
-33 -38 -40 -35 1327 0
1226 -1327 0
1178 -1327 0
-35 -40 -39 1328 -33 0
1226 -1328 0
-1328 1180 0
-36 -38 -37 -33 1329 0
1222 -1329 0
1176 -1329 0
-36 -39 -37 1330 -33 0
1224 -1330 0
1176 -1330 0
-33 -40 -37 -36 1331 0
1226 -1331 0
1176 -1331 0
-36 -38 -39 -33 1332 0
1224 -1332 0
1178 -1332 0
-36 -38 -40 -33 1333 0
1226 -1333 0
1178 -1333 0
-36 -40 -39 -33 1334 0
1226 -1334 0
1180 -1334 0
-38 -39 -37 -33 1335 0
1224 -1335 0
1178 -1335 0
-33 -38 -37 1336 -40 0
1226 -1336 0
1178 -1336 0
-40 -39 -37 -33 1337 0
1226 -1337 0
-1337 1180 0
1226 -1338 0
-1338 1180 0
-34 -35 -37 -38 1339 0
1220 -1339 0
-1339 1172 0
-34 -35 -37 -39 1340 0
1220 -1340 0
-1340 1172 0
-34 -35 -37 1341 -40 0
1220 -1341 0
-1341 1172 0
-34 -35 -38 -39 1342 0
1222 -1342 0
-1342 1172 0
-34 -35 -38 1343 -40 0
1222 -1343 0
-1343 1172 0
-34 -40 -39 -35 1344 0
1224 -1344 0
-1344 1172 0
-34 -36 -37 -38 1345 0
1220 -1345 0
1174 -1345 0
-34 -39 -37 -36 1346 0
1220 -1346 0
1174 -1346 0
-34 -36 -37 -40 1347 0
1220 -1347 0
1174 -1347 0
-34 -38 -39 -36 1348 0
1222 -1348 0
1174 -1348 0
-34 -36 -38 1349 -40 0
1222 -1349 0
1174 -1349 0
-34 -36 -40 -39 1350 0
1224 -1350 0
1174 -1350 0
1351 -34 -37 -38 -39 0
1222 -1351 0
1176 -1351 0
-34 1352 -37 -38 -40 0
1222 -1352 0
1176 -1352 0
-34 -39 -37 1353 -40 0
1224 -1353 0
1176 -1353 0
1224 -1354 0
1178 -1354 0
1224 -1355 0
-35 1356 -38 -37 -39 0
1222 -1356 0
1176 -1356 0
1222 -1357 0
1176 -1357 0
1224 -1358 0
1176 -1358 0
1224 -1359 0
1178 -1359 0
-36 -38 -37 1360 -39 0
1222 -1360 0
1176 -1360 0
1222 -1361 0
1176 -1361 0
-36 -40 -37 1362 -39 0
1224 -1362 0
1176 -1362 0
1224 -1363 0
1178 -1363 0
1224 -1364 0
1178 -1364 0
-45 -48 -41 -49 1374 0
1372 -1374 0
1369 -1374 0
1375 -45 -41 -48 -50 0
1373 -1375 0
1369 -1375 0
-45 -50 -49 1376 -41 0
1373 -1376 0
1370 -1376 0
-46 -48 -41 -49 1377 0
1372 -1377 0
1369 -1377 0
-46 1378 -41 -50 -48 0
1373 -1378 0
1369 -1378 0
-46 -50 -41 -49 1379 0
1373 -1379 0
1370 -1379 0
1380 -47 -41 -49 -48 0
1372 -1380 0
1369 -1380 0
1381 -47 -50 -48 -41 0
1373 -1381 0
1369 -1381 0
-47 -50 -49 1382 -41 0
1373 -1382 0
1370 -1382 0
-48 -50 -49 1383 -41 0
1373 -1383 0
1370 -1383 0
-42 -48 -49 -45 1384 0
1372 -1384 0
1369 -1384 0
-42 -48 -50 -45 1385 0
1373 -1385 0
1369 -1385 0
-42 1386 -50 -45 -49 0
1373 -1386 0
1370 -1386 0
-42 -48 -49 -46 1387 0
1372 -1387 0
1369 -1387 0
-42 -48 -50 -46 1388 0
1373 -1388 0
1369 -1388 0
-42 -50 -49 1389 -46 0
1373 -1389 0
1370 -1389 0
-42 -47 1390 -49 -48 0
1372 -1390 0
1369 -1390 0
-42 -47 1391 -48 -50 0
1373 -1391 0
1369 -1391 0
-42 -47 1392 -49 -50 0
1373 -1392 0
1370 -1392 0
-42 -48 -50 -49 1393 0
1373 -1393 0
1370 -1393 0
-43 1394 -49 -48 -45 0
1372 -1394 0
1369 -1394 0
-43 1395 -50 -48 -45 0
1373 -1395 0
1369 -1395 0
-43 -50 -49 -45 1396 0
1373 -1396 0
1370 -1396 0
-46 -43 -49 1397 -48 0
1372 -1397 0
1369 -1397 0
-46 -43 -50 1398 -48 0
1373 -1398 0
1369 -1398 0
-46 -50 -49 -43 1399 0
1373 -1399 0
1370 -1399 0
-47 -43 1400 -49 -48 0
1372 -1400 0
1369 -1400 0
-47 -43 -50 -48 1401 0
1373 -1401 0
1369 -1401 0
-47 -43 -50 1402 -49 0
1373 -1402 0
1370 -1402 0
-43 -50 -49 -48 1403 0
1373 -1403 0
1370 -1403 0
1404 -44 -49 -48 -45 0
1372 -1404 0
1369 -1404 0
-44 1405 -50 -48 -45 0
1373 -1405 0
1369 -1405 0
-44 -50 -49 -45 1406 0
1373 -1406 0
1370 -1406 0
1407 -44 -49 -46 -48 0
1372 -1407 0
1369 -1407 0
-44 -46 -50 1408 -48 0
1373 -1408 0
1369 -1408 0
-44 -46 -50 -49 1409 0
1373 -1409 0
1370 -1409 0
-44 -47 1410 -49 -48 0
1372 -1410 0
1369 -1410 0
-47 -44 -50 -48 1411 0
1373 -1411 0
1369 -1411 0
-44 -47 -50 1412 -49 0
1373 -1412 0
1370 -1412 0
-44 -50 -49 1413 -48 0
1373 -1413 0
1370 -1413 0
-48 -50 -49 -45 1414 0
1372 -1414 0
1369 -1414 0
-48 -50 -49 -46 1415 0
1372 -1415 0
1369 -1415 0
-47 -50 -49 1416 -48 0
1372 -1416 0
1369 -1416 0
1418 -1417 0
1419 -1417 0
-53 -55 -51 -52 1420 0
1418 -1420 0
1419 -1420 0
1421 -53 -51 -56 -52 0
1422 -1421 0
1423 -1421 0
-53 -57 -51 -52 1424 0
1422 -1424 0
1423 -1424 0
-53 -58 -51 -52 1425 0
1422 -1425 0
1423 -1425 0
-53 -59 -51 -52 1426 0
1422 -1426 0
1423 -1426 0
1427 -60 -51 -53 -52 0
1422 -1427 0
1423 -1427 0
-55 -54 -51 -52 1428 0
-1428 1429 0
1430 -54 -51 -56 -52 0
1422 -1430 0
1423 -1430 0
-57 1431 -51 -52 -54 0
1422 -1431 0
1423 -1431 0
-58 1432 -51 -52 -54 0
1422 -1432 0
1423 -1432 0
1433 -59 -51 -52 -54 0
1422 -1433 0
1423 -1433 0
-60 1434 -51 -52 -54 0
1422 -1434 0
1423 -1434 0
1435 -55 -51 -52 -56 0
1422 -1435 0
1423 -1435 0
-55 -57 -51 -52 1436 0
1422 -1436 0
1423 -1436 0
-55 -58 -51 -52 1437 0
1422 -1437 0
1423 -1437 0
1438 -59 -51 -52 -55 0
1422 -1438 0
1423 -1438 0
1439 -60 -51 -52 -55 0
1422 -1439 0
1423 -1439 0
-57 1440 -56 -51 -52 0
-1440 1441 0
1442 -1440 0
-58 1443 -56 -51 -52 0
-1443 1441 0
1444 -1443 0
1445 -59 -56 -52 -51 0
-1445 1441 0
1446 -1445 0
-60 1447 -56 -51 -52 0
1441 -1447 0
1448 -1447 0
-57 -58 -51 -52 1449 0
-1449 1441 0
1444 -1449 0
-57 -59 -52 -51 1450 0
-1450 1441 0
1446 -1450 0
-60 -57 -51 1451 -52 0
1441 -1451 0
1448 -1451 0
-58 1452 -51 -52 -59 0
-1452 1441 0
1446 -1452 0
-60 -58 -51 -52 1453 0
1441 -1453 0
1448 -1453 0
1454 -60 -59 -51 -52 0
1441 -1454 0
1448 -1454 0
-55 -53 -51 -54 1455 0
-1455 1429 0
1456 -1455 0
1457 -53 -51 -56 -54 0
-1457 1418 0
1423 -1457 0
-53 -57 -51 -54 1458 0
-1458 1418 0
1423 -1458 0
-53 -58 -51 1459 -54 0
-1459 1418 0
1423 -1459 0
-53 -59 -51 -54 1460 0
-1460 1418 0
1423 -1460 0
-60 -53 -51 -54 1461 0
-1461 1418 0
1423 -1461 0
-53 -55 -51 1462 -56 0
-1462 1418 0
1423 -1462 0
-55 -53 -51 -57 1463 0
-1463 1418 0
1423 -1463 0
-55 -53 -51 -58 1464 0
-1464 1418 0
1423 -1464 0
-55 -53 -51 -59 1465 0
-1465 1418 0
1423 -1465 0
1466 -60 -51 -53 -55 0
-1466 1418 0
1423 -1466 0
-53 -57 -56 -51 1467 0
-1467 1441 0
1442 -1467 0
-53 -58 -56 -51 1468 0
-1468 1441 0
1444 -1468 0
-53 -59 -56 1469 -51 0
-1469 1441 0
1446 -1469 0
-60 -53 -56 -51 1470 0
1441 -1470 0
1448 -1470 0
-53 -58 -51 -57 1471 0
-1471 1441 0
1444 -1471 0
-53 -57 -59 -51 1472 0
-1472 1441 0
1446 -1472 0
-60 -57 -51 -53 1473 0
1441 -1473 0
1448 -1473 0
-53 -58 -51 1474 -59 0
-1474 1441 0
1446 -1474 0
-60 -58 -51 -53 1475 0
1441 -1475 0
1448 -1475 0
-60 -53 -59 -51 1476 0
1441 -1476 0
1448 -1476 0
1477 -55 -51 -54 -56 0
-1477 1429 0
1423 -1477 0
-55 -57 -51 -54 1478 0
-1478 1429 0
1423 -1478 0
-55 -58 -51 -54 1479 0
-1479 1429 0
1423 -1479 0
-55 -59 -54 -51 1480 0
-1480 1429 0
1423 -1480 0
1481 -60 -51 -54 -55 0
-1481 1429 0
1423 -1481 0
1482 -57 -51 -54 -56 0
1441 -1482 0
1442 -1482 0
-58 1483 -56 -51 -54 0
1441 -1483 0
1444 -1483 0
1484 -59 -56 -54 -51 0
1441 -1484 0
1446 -1484 0
-60 1485 -51 -56 -54 0
1441 -1485 0
1448 -1485 0
-57 -58 -51 1486 -54 0
1441 -1486 0
1444 -1486 0
1487 -57 -51 -54 -59 0
1441 -1487 0
1446 -1487 0
-60 -57 -51 -54 1488 0
1441 -1488 0
1448 -1488 0
-59 -58 -51 1489 -54 0
1441 -1489 0
1446 -1489 0
-60 -58 -51 -54 1490 0
1441 -1490 0
1448 -1490 0
-60 1491 -54 -59 -51 0
1441 -1491 0
1448 -1491 0
1441 -1492 0
-55 -58 -51 1493 -56 0
1441 -1493 0
1444 -1493 0
1494 -55 -59 -51 -56 0
1441 -1494 0
1446 -1494 0
-55 -60 -51 -56 1495 0
1441 -1495 0
1448 -1495 0
-55 -57 -51 -58 1496 0
1441 -1496 0
1444 -1496 0
-55 -57 -51 1497 -59 0
1441 -1497 0
1446 -1497 0
-60 -57 -51 1498 -55 0
1441 -1498 0
1448 -1498 0
-59 -58 -51 -55 1499 0
1441 -1499 0
1446 -1499 0
-60 -58 -51 1500 -55 0
1441 -1500 0
1448 -1500 0
1501 -60 -59 -51 -55 0
1441 -1501 0
1448 -1501 0
-57 -58 -51 -56 1502 0
1503 -1502 0
-1502 1442 0
-57 1504 -59 -56 -51 0
-1504 1442 0
-60 -57 -51 -56 1506 0
1507 -1506 0
1442 -1506 0
-59 -58 -51 -56 1508 0
-1508 1444 0
-60 -58 -51 -56 1509 0
1507 -1509 0
1444 -1509 0
-60 1510 -59 -56 -51 0
1507 -1510 0
1446 -1510 0
-57 -58 -51 1511 -59 0
1505 -1511 0
-1511 1444 0
-60 -58 -51 -57 1512 0
1507 -1512 0
1444 -1512 0
-57 -60 -59 1513 -51 0
1507 -1513 0
1446 -1513 0
-59 -58 -51 -60 1514 0
1507 -1514 0
-1515 1429 0
1456 -1515 0
1418 -1516 0
1419 -1516 0
1418 -1517 0
1419 -1517 0
1418 -1518 0
1419 -1518 0
1418 -1519 0
1419 -1519 0
1418 -1520 0
1419 -1520 0
-53 -55 -56 -52 1521 0
1418 -1521 0
1419 -1521 0
-53 -57 -52 1522 -55 0
1418 -1522 0
1419 -1522 0
-53 -58 -52 1523 -55 0
1418 -1523 0
1419 -1523 0
1524 -55 -53 -59 -52 0
1418 -1524 0
1419 -1524 0
-55 -53 -52 -60 1525 0
1418 -1525 0
1419 -1525 0
-53 -57 -56 -52 1526 0
1422 -1526 0
1442 -1526 0
-53 -58 -56 -52 1527 0
1422 -1527 0
1444 -1527 0
-53 -59 -56 -52 1528 0
1422 -1528 0
1446 -1528 0
-53 -60 -56 -52 1529 0
1422 -1529 0
1448 -1529 0
-53 -57 -52 1530 -58 0
1422 -1530 0
1444 -1530 0
-53 -57 -52 1531 -59 0
1422 -1531 0
1446 -1531 0
-53 -57 -52 1532 -60 0
1422 -1532 0
-1532 1448 0
-53 -59 -52 -58 1533 0
1422 -1533 0
1446 -1533 0
-60 -53 -58 -52 1534 0
1422 -1534 0
-1534 1448 0
-60 -59 -52 -53 1535 0
1422 -1535 0
-1535 1448 0
-55 1536 -52 -56 -54 0
-1536 1429 0
-55 -57 -52 -54 1537 0
-1537 1429 0
-55 -58 -52 -54 1538 0
-1538 1429 0
-55 -59 -52 -54 1539 0
-1539 1429 0
-55 1540 -52 -54 -60 0
-1540 1429 0
-57 1541 -56 -52 -54 0
1422 -1541 0
1442 -1541 0
-58 1542 -56 -52 -54 0
1422 -1542 0
1444 -1542 0
-59 1543 -56 -52 -54 0
1422 -1543 0
1446 -1543 0
-60 1544 -56 -52 -54 0
1422 -1544 0
1448 -1544 0
-57 -58 -54 -52 1545 0
1422 -1545 0
1444 -1545 0
-57 -59 -52 -54 1546 0
1422 -1546 0
1446 -1546 0
-60 -57 -52 -54 1547 0
1422 -1547 0
-1547 1448 0
-58 -59 -54 -52 1548 0
1422 -1548 0
1446 -1548 0
-60 -58 -52 -54 1549 0
1422 -1549 0
-1549 1448 0
-60 -59 -52 -54 1550 0
1422 -1550 0
-1550 1448 0
1422 -1551 0
-55 -58 -56 -52 1552 0
1422 -1552 0
1444 -1552 0
-55 -59 -56 -52 1553 0
1422 -1553 0
1446 -1553 0
-55 -60 -56 -52 1554 0
1422 -1554 0
1448 -1554 0
-57 -58 1555 -52 -55 0
1422 -1555 0
1444 -1555 0
-57 -59 -52 1556 -55 0
1422 -1556 0
1446 -1556 0
-55 -60 -52 -57 1557 0
1422 -1557 0
1448 -1557 0
-55 -58 -59 -52 1558 0
1422 -1558 0
1446 -1558 0
-55 -60 -52 -58 1559 0
1422 -1559 0
1448 -1559 0
-55 -60 -52 -59 1560 0
1422 -1560 0
1448 -1560 0
-57 -58 -56 -52 1561 0
1503 -1561 0
-1561 1442 0
-57 -59 -56 -52 1562 0
-1562 1442 0
-60 -57 -56 -52 1563 0
1507 -1563 0
1442 -1563 0
-58 -59 -56 -52 1564 0
-1564 1444 0
-60 -58 -56 -52 1565 0
1507 -1565 0
1444 -1565 0
1566 -60 -56 -52 -59 0
1507 -1566 0
1446 -1566 0
-57 -58 1567 -52 -59 0
1505 -1567 0
-1567 1444 0
-60 -57 -58 -52 1568 0
1507 -1568 0
1444 -1568 0
-60 -57 -52 -59 1569 0
1507 -1569 0
1446 -1569 0
1507 -1570 0
-55 -53 -54 -56 1571 0
-1571 1429 0
1456 -1571 0
-55 -53 -54 -57 1572 0
-1572 1429 0
1456 -1572 0
-55 -53 -54 -58 1573 0
-1573 1429 0
1456 -1573 0
-55 -53 -54 -59 1574 0
-1574 1429 0
1456 -1574 0
-55 -53 -54 1575 -60 0
-1575 1429 0
1456 -1575 0
-53 -57 -56 -54 1576 0
-1576 1418 0
1442 -1576 0
-53 -58 -56 -54 1577 0
-1577 1418 0
1444 -1577 0
-53 -59 -56 -54 1578 0
-1578 1418 0
1446 -1578 0
-53 -60 -56 -54 1579 0
-1579 1418 0
1448 -1579 0
-53 -58 -54 -57 1580 0
-1580 1418 0
1444 -1580 0
-53 -59 -54 -57 1581 0
-1581 1418 0
1446 -1581 0
-60 -53 -54 -57 1582 0
-1582 1418 0
-1582 1448 0
-53 -58 -59 -54 1583 0
-1583 1418 0
1446 -1583 0
-60 1584 -58 -53 -54 0
-1584 1418 0
-1584 1448 0
1585 -60 -59 -53 -54 0
-1585 1418 0
-1585 1448 0
-1586 1418 0
-55 -53 1587 -56 -58 0
-1587 1418 0
1444 -1587 0
-55 -53 -56 -59 1588 0
-1588 1418 0
1446 -1588 0
-55 -53 -56 -60 1589 0
-1589 1418 0
1448 -1589 0
-55 -53 1590 -57 -58 0
-1590 1418 0
1444 -1590 0
-55 -53 1591 -57 -59 0
-1591 1418 0
1446 -1591 0
-55 -60 -53 -57 1592 0
-1592 1418 0
-1592 1448 0
-53 -58 -59 -55 1593 0
-1593 1418 0
1446 -1593 0
-55 -53 -58 -60 1594 0
-1594 1418 0
-1594 1448 0
-55 -53 -59 -60 1595 0
-1595 1418 0
-1595 1448 0
-53 -57 -56 -58 1596 0
1503 -1596 0
-1596 1442 0
-53 -57 -56 -59 1597 0
1505 -1597 0
-1597 1442 0
-60 -53 -56 -57 1598 0
1507 -1598 0
1442 -1598 0
-53 -58 -59 -56 1599 0
1505 -1599 0
-1599 1444 0
-53 -60 -56 -58 1600 0
1507 -1600 0
1444 -1600 0
-53 -60 -56 -59 1601 0
1507 -1601 0
1446 -1601 0
-53 -58 -59 -57 1602 0
1505 -1602 0
-1602 1444 0
-60 -53 -58 -57 1603 0
1507 -1603 0
1444 -1603 0
-60 -53 -59 -57 1604 0
1507 -1604 0
1446 -1604 0
1507 -1605 0
-1606 1429 0
-55 -58 -56 -54 1607 0
-1607 1429 0
1444 -1607 0
-55 -59 -56 -54 1608 0
-1608 1429 0
1446 -1608 0
-55 -60 -54 -56 1609 0
-1609 1429 0
1448 -1609 0
-55 -58 -54 -57 1610 0
-1610 1429 0
1444 -1610 0
-55 -59 -54 -57 1611 0
-1611 1429 0
1446 -1611 0
-55 -60 -57 -54 1612 0
-1612 1429 0
-1612 1448 0
-55 -59 -54 -58 1613 0
-1613 1429 0
1446 -1613 0
-55 -60 -54 -58 1614 0
-1614 1429 0
-1614 1448 0
-55 -60 -59 -54 1615 0
-1615 1429 0
-1615 1448 0
-57 -58 -56 -54 1616 0
1503 -1616 0
1442 -1616 0
-57 -59 -56 -54 1617 0
1505 -1617 0
1442 -1617 0
-60 -57 -56 -54 1618 0
1507 -1618 0
1442 -1618 0
-58 -59 -56 -54 1619 0
1505 -1619 0
1444 -1619 0
-60 -58 -56 -54 1620 0
1507 -1620 0
1444 -1620 0
-60 -59 -56 -54 1621 0
1507 -1621 0
1446 -1621 0
-57 -58 -54 1622 -59 0
1505 -1622 0
1444 -1622 0
-60 -58 -54 -57 1623 0
1507 -1623 0
1444 -1623 0
-60 -59 -54 -57 1624 0
1507 -1624 0
1446 -1624 0
1507 -1625 0
1503 -1626 0
1442 -1626 0
1505 -1627 0
1507 -1628 0
1442 -1628 0
-55 -58 -59 -56 1629 0
1505 -1629 0
1444 -1629 0
-55 -60 -56 -58 1630 0
1507 -1630 0
1444 -1630 0
-60 -55 -56 -59 1631 0
1507 -1631 0
1446 -1631 0
-57 -58 -59 -55 1632 0
1505 -1632 0
1444 -1632 0
-55 -60 -57 -58 1633 0
1507 -1633 0
1444 -1633 0
-55 -60 -57 -59 1634 0
1507 -1634 0
1446 -1634 0
1507 -1635 0
-57 -58 -59 -56 1636 0
1503 -1636 0
-1636 1442 0
-60 -57 -58 -56 1637 0
1503 -1637 0
1442 -1637 0
-60 -57 -56 -59 1638 0
1505 -1638 0
1442 -1638 0
1505 -1639 0
1444 -1639 0
1505 -1640 0
1444 -1640 0
-63 -62 -61 1641 -64 0
1642 -1641 0
1643 -1641 0
-65 -63 -61 -62 1644 0
1642 -1644 0
1643 -1644 0
-62 -63 -61 -66 1645 0
1642 -1645 0
1643 -1645 0
-67 -63 -61 1646 -62 0
1647 -1646 0
-1646 1648 0
-63 -62 -61 -68 1649 0
1647 -1649 0
-1649 1648 0
-63 -62 -61 1650 -69 0
1647 -1650 0
-1650 1648 0
-63 -62 -61 -70 1651 0
1647 -1651 0
-1651 1648 0
-65 -64 1652 -62 -61 0
1653 -1652 0
-1652 1643 0
1654 -64 -61 -66 -62 0
1653 -1654 0
-1654 1643 0
-67 -64 -61 1655 -62 0
1647 -1655 0
1648 -1655 0
1656 -64 -61 -68 -62 0
1647 -1656 0
1648 -1656 0
-69 -64 -61 1657 -62 0
1647 -1657 0
1648 -1657 0
1658 -64 -70 -62 -61 0
1647 -1658 0
1648 -1658 0
-62 -65 -61 -66 1659 0
1660 -1659 0
-1659 1643 0
-62 -65 -61 -67 1661 0
1647 -1661 0
1648 -1661 0
-65 -68 -61 1662 -62 0
1647 -1662 0
1648 -1662 0
-62 -65 -61 1663 -69 0
1647 -1663 0
1648 -1663 0
-65 -62 -61 -70 1664 0
1647 -1664 0
1648 -1664 0
-62 1665 -61 -66 -67 0
1647 -1665 0
1648 -1665 0
1666 -62 -66 -61 -68 0
1647 -1666 0
1648 -1666 0
-62 1667 -61 -66 -69 0
1647 -1667 0
1648 -1667 0
-62 1668 -61 -70 -66 0
1647 -1668 0
1648 -1668 0
-67 -68 -61 1669 -62 0
1670 -1669 0
-1669 1671 0
-67 -62 -61 -69 1672 0
1670 -1672 0
-1672 1673 0
-67 -62 -61 -70 1674 0
1670 -1674 0
-1674 1675 0
-62 -68 -69 -61 1676 0
1670 -1676 0
-1676 1673 0
-62 1677 -61 -70 -68 0
1670 -1677 0
-1677 1675 0
-62 -70 -69 1678 -61 0
1670 -1678 0
-1678 1675 0
-65 -63 -64 -61 1679 0
1653 -1679 0
1680 -1679 0
-64 -63 -61 -66 1681 0
1653 -1681 0
1680 -1681 0
-63 -67 -61 -64 1682 0
-1682 1642 0
1648 -1682 0
-63 -64 -61 -68 1683 0
-1683 1642 0
1648 -1683 0
-63 -64 -61 1684 -69 0
-1684 1642 0
1648 -1684 0
-63 -64 -61 -70 1685 0
-1685 1642 0
1648 -1685 0
-65 -63 -61 -66 1686 0
1660 -1686 0
1680 -1686 0
-65 -63 -61 -67 1687 0
-1687 1642 0
1648 -1687 0
-65 -63 -61 -68 1688 0
-1688 1642 0
1648 -1688 0
-65 -63 -61 1689 -69 0
-1689 1642 0
1648 -1689 0
-65 -63 -61 -70 1690 0
-1690 1642 0
1648 -1690 0
1691 -63 -61 -66 -67 0
-1691 1642 0
1648 -1691 0
1692 -63 -61 -66 -68 0
-1692 1642 0
1648 -1692 0
-63 1693 -61 -66 -69 0
-1693 1642 0
1648 -1693 0
-63 1694 -61 -70 -66 0
-1694 1642 0
1648 -1694 0
-63 -67 -61 -68 1695 0
1670 -1695 0
-1695 1671 0
-63 -67 -61 -69 1696 0
1670 -1696 0
-1696 1673 0
-67 -63 -61 -70 1697 0
1670 -1697 0
-1697 1675 0
-63 -68 -61 -69 1698 0
1670 -1698 0
-1698 1673 0
-63 1699 -61 -70 -68 0
1670 -1699 0
-1699 1675 0
-63 -70 -69 -61 1700 0
1670 -1700 0
-1700 1675 0
-65 -64 -66 -61 1701 0
1660 -1701 0
1702 -1701 0
-65 -67 -64 -61 1703 0
1653 -1703 0
1648 -1703 0
-65 -64 -68 -61 1704 0
1653 -1704 0
1648 -1704 0
-65 -64 1705 -61 -69 0
1653 -1705 0
1648 -1705 0
-65 -64 1706 -61 -70 0
1653 -1706 0
1648 -1706 0
-64 -66 -61 1707 -67 0
1653 -1707 0
1648 -1707 0
-64 -66 -61 1708 -68 0
1653 -1708 0
1648 -1708 0
-69 -64 -61 -66 1709 0
1653 -1709 0
1648 -1709 0
-64 1710 -61 -70 -66 0
1653 -1710 0
1648 -1710 0
-67 -64 -68 -61 1711 0
1670 -1711 0
1671 -1711 0
-67 -64 1712 -61 -69 0
1670 -1712 0
1673 -1712 0
-67 -64 -61 -70 1713 0
1670 -1713 0
1675 -1713 0
1714 -64 -61 -68 -69 0
1670 -1714 0
1673 -1714 0
-64 1715 -61 -70 -68 0
1670 -1715 0
1675 -1715 0
-69 -64 -70 1716 -61 0
1670 -1716 0
1675 -1716 0
1660 -1717 0
1648 -1717 0
-65 1718 -61 -66 -68 0
1660 -1718 0
1648 -1718 0
-65 1719 -61 -66 -69 0
1660 -1719 0
1648 -1719 0
-65 1720 -70 -66 -61 0
1660 -1720 0
1648 -1720 0
-67 -65 -61 -68 1721 0
1670 -1721 0
1671 -1721 0
-67 -65 -61 1722 -69 0
1670 -1722 0
1673 -1722 0
-67 -65 -61 -70 1723 0
1670 -1723 0
1675 -1723 0
-65 -68 -61 -69 1724 0
1670 -1724 0
1673 -1724 0
-65 1725 -61 -70 -68 0
1670 -1725 0
1675 -1725 0
-65 -70 -69 -61 1726 0
1670 -1726 0
1675 -1726 0
1727 -67 -61 -68 -66 0
1670 -1727 0
1671 -1727 0
-67 1728 -61 -66 -69 0
1670 -1728 0
1673 -1728 0
1729 -67 -61 -70 -66 0
1670 -1729 0
1675 -1729 0
1730 -68 -66 -61 -69 0
1670 -1730 0
1673 -1730 0
1731 -70 -66 -61 -68 0
1670 -1731 0
1675 -1731 0
1732 -70 -61 -69 -66 0
1670 -1732 0
1675 -1732 0
-67 -68 -61 -69 1733 0
1734 -1733 0
-1733 1671 0
-67 1735 -61 -70 -68 0
1736 -1735 0
-1735 1671 0
-67 -70 -69 -61 1737 0
1736 -1737 0
-1737 1673 0
1738 -70 -69 -61 -68 0
1736 -1738 0
-1738 1673 0
-1739 1653 0
1680 -1739 0
-1740 1653 0
1680 -1740 0
1642 -1741 0
1643 -1741 0
1642 -1742 0
1643 -1742 0
1642 -1743 0
1643 -1743 0
1642 -1744 0
1643 -1744 0
1680 -1745 0
-65 -63 -62 -67 1746 0
1642 -1746 0
1643 -1746 0
-65 -63 -68 1747 -62 0
1642 -1747 0
1643 -1747 0
-65 -63 -62 -69 1748 0
1642 -1748 0
1643 -1748 0
-65 -63 -70 1749 -62 0
1642 -1749 0
1643 -1749 0
-67 -62 -66 1750 -63 0
1642 -1750 0
1643 -1750 0
-62 -63 -68 -66 1751 0
1642 -1751 0
1643 -1751 0
-62 -63 -66 -69 1752 0
1642 -1752 0
1643 -1752 0
-66 -62 -70 -63 1753 0
1642 -1753 0
1643 -1753 0
-63 -62 -68 -67 1754 0
1647 -1754 0
-1754 1671 0
-63 -62 1755 -67 -69 0
1647 -1755 0
-1755 1673 0
-63 -62 1756 -67 -70 0
1647 -1756 0
-1756 1675 0
-63 -62 -68 -69 1757 0
1647 -1757 0
-1757 1673 0
-62 -63 -70 -68 1758 0
1647 -1758 0
-1758 1675 0
-63 -70 -69 -62 1759 0
1647 -1759 0
-1759 1675 0
-65 -64 -66 -62 1760 0
-1760 1660 0
-65 -67 -64 -62 1761 0
1653 -1761 0
-1761 1643 0
-65 -64 -68 -62 1762 0
1653 -1762 0
-1762 1643 0
-65 -64 1763 -69 -62 0
1653 -1763 0
-1763 1643 0
-62 -65 -64 1764 -70 0
-1764 1653 0
-1764 1643 0
-67 -62 -66 -64 1765 0
1653 -1765 0
-1765 1643 0
-62 -64 -68 -66 1766 0
1653 -1766 0
-1766 1643 0
-62 -64 -66 -69 1767 0
-1767 1653 0
-1767 1643 0
-64 -66 -62 1768 -70 0
-1768 1653 0
-1768 1643 0
-67 -62 -68 1769 -64 0
1647 -1769 0
1671 -1769 0
-67 -62 1770 -69 -64 0
1647 -1770 0
1673 -1770 0
-67 -64 -70 -62 1771 0
1647 -1771 0
1675 -1771 0
1772 -62 -68 -69 -64 0
1647 -1772 0
-1772 1673 0
-64 -62 -70 -68 1773 0
1647 -1773 0
-1773 1675 0
-62 -70 -69 1774 -64 0
1647 -1774 0
-1774 1675 0
1660 -1775 0
-1775 1643 0
-65 -62 -68 -66 1776 0
1660 -1776 0
-1776 1643 0
-65 -62 -69 -66 1777 0
1660 -1777 0
-1777 1643 0
-62 -65 1778 -66 -70 0
1660 -1778 0
-1778 1643 0
-67 -62 -68 1779 -65 0
1647 -1779 0
1671 -1779 0
-67 -62 1780 -69 -65 0
1647 -1780 0
1673 -1780 0
-67 -65 -62 -70 1781 0
1647 -1781 0
1675 -1781 0
-65 -62 -69 -68 1782 0
1647 -1782 0
1673 -1782 0
-65 -62 -70 -68 1783 0
1647 -1783 0
1675 -1783 0
-65 -62 -70 -69 1784 0
1647 -1784 0
1675 -1784 0
-67 -62 -66 1785 -68 0
1647 -1785 0
1671 -1785 0
-62 -67 -66 -69 1786 0
1647 -1786 0
1673 -1786 0
-66 -62 -70 -67 1787 0
1647 -1787 0
1675 -1787 0
-62 -68 -66 -69 1788 0
1647 -1788 0
1673 -1788 0
-66 -62 -70 -68 1789 0
1647 -1789 0
1675 -1789 0
-62 -70 -69 -66 1790 0
1647 -1790 0
1675 -1790 0
-67 -62 1791 -69 -68 0
1734 -1791 0
-1791 1671 0
-62 -67 -70 -68 1792 0
1736 -1792 0
-1792 1671 0
-67 -70 -69 -62 1793 0
1736 -1793 0
-1793 1673 0
1736 -1794 0
-1794 1673 0
-65 -64 -66 -63 1795 0
-1795 1660 0
-65 -64 -63 -67 1796 0
1653 -1796 0
1680 -1796 0
-65 -64 -63 -68 1797 0
1653 -1797 0
1680 -1797 0
-65 -64 -63 -69 1798 0
1653 -1798 0
1680 -1798 0
-65 -64 -63 1799 -70 0
-1799 1653 0
1680 -1799 0
-67 -64 -66 -63 1800 0
1653 -1800 0
1680 -1800 0
-66 -64 -68 -63 1801 0
1653 -1801 0
1680 -1801 0
-69 -64 -66 -63 1802 0
-1802 1653 0
1680 -1802 0
1803 -64 -66 -63 -70 0
-1803 1653 0
1680 -1803 0
-63 -64 -68 -67 1804 0
-1804 1642 0
1671 -1804 0
-67 -63 -69 1805 -64 0
-1805 1642 0
1673 -1805 0
-63 -64 -70 -67 1806 0
-1806 1642 0
1675 -1806 0
-63 -64 -68 -69 1807 0
-1807 1642 0
-1807 1673 0
-63 -64 -70 -68 1808 0
-1808 1642 0
-1808 1675 0
-63 -64 -70 -69 1809 0
-1809 1642 0
-1809 1675 0
1660 -1810 0
1680 -1810 0
-65 -63 -66 -68 1811 0
1660 -1811 0
1680 -1811 0
-65 -63 -66 -69 1812 0
1660 -1812 0
1680 -1812 0
1813 -65 -63 -66 -70 0
1660 -1813 0
1680 -1813 0
-67 -65 -63 1814 -68 0
-1814 1642 0
1671 -1814 0
-67 -65 -63 1815 -69 0
-1815 1642 0
1673 -1815 0
-65 -63 -70 -67 1816 0
-1816 1642 0
1675 -1816 0
-65 -63 -69 -68 1817 0
-1817 1642 0
1673 -1817 0
-65 -63 -70 -68 1818 0
-1818 1642 0
1675 -1818 0
-65 -63 -70 -69 1819 0
-1819 1642 0
1675 -1819 0
-67 -63 -66 -68 1820 0
-1820 1642 0
1671 -1820 0
-67 -63 -69 -66 1821 0
-1821 1642 0
1673 -1821 0
-67 -63 -66 -70 1822 0
-1822 1642 0
1675 -1822 0
-63 -68 -69 -66 1823 0
-1823 1642 0
1673 -1823 0
-63 1824 -66 -70 -68 0
-1824 1642 0
1675 -1824 0
-63 -70 -69 -66 1825 0
-1825 1642 0
1675 -1825 0
-63 -68 -69 -67 1826 0
1734 -1826 0
-1826 1671 0
-63 -67 -70 -68 1827 0
1736 -1827 0
-1827 1671 0
-63 -70 -69 -67 1828 0
1736 -1828 0
-1828 1673 0
1736 -1829 0
-1829 1673 0
-65 -64 1830 -66 -68 0
1660 -1830 0
-65 -64 -66 1831 -69 0
1660 -1831 0
-65 -64 -66 -70 1832 0
1660 -1832 0
-65 -64 -68 -67 1833 0
1653 -1833 0
1671 -1833 0
-65 -64 -69 -67 1834 0
1653 -1834 0
1673 -1834 0
-65 -64 -70 -67 1835 0
1653 -1835 0
1675 -1835 0
-65 -64 -69 -68 1836 0
1653 -1836 0
1673 -1836 0
-65 -64 -70 -68 1837 0
1653 -1837 0
1675 -1837 0
-65 -70 -69 -64 1838 0
1653 -1838 0
1675 -1838 0
-67 -64 -66 -68 1839 0
1653 -1839 0
1671 -1839 0
-67 -64 -69 -66 1840 0
1653 -1840 0
1673 -1840 0
-67 -64 -66 -70 1841 0
1653 -1841 0
1675 -1841 0
-69 -64 -68 -66 1842 0
1653 -1842 0
1673 -1842 0
-64 1843 -66 -70 -68 0
1653 -1843 0
1675 -1843 0
-69 -64 -70 -66 1844 0
-1844 1653 0
1675 -1844 0
-67 -64 1845 -69 -68 0
1734 -1845 0
1671 -1845 0
-64 -67 -70 -68 1846 0
1736 -1846 0
1671 -1846 0
-67 -64 -70 -69 1847 0
1736 -1847 0
1673 -1847 0
1736 -1848 0
-1848 1673 0
1660 -1849 0
1671 -1849 0
1660 -1850 0
1673 -1850 0
-65 -68 -69 -66 1851 0
1660 -1851 0
1673 -1851 0
-65 1852 -66 -70 -68 0
1660 -1852 0
1675 -1852 0
-65 -70 -69 -66 1853 0
1660 -1853 0
1675 -1853 0
-67 -65 -69 -68 1854 0
1734 -1854 0
1671 -1854 0
-67 -65 -70 -68 1855 0
1736 -1855 0
1671 -1855 0
-67 -70 -69 -65 1856 0
1736 -1856 0
1673 -1856 0
1736 -1857 0
1673 -1857 0
-67 -68 -69 -66 1858 0
1734 -1858 0
1671 -1858 0
-67 1859 -66 -70 -68 0
1736 -1859 0
1671 -1859 0
-67 -70 -69 -66 1860 0
1736 -1860 0
1673 -1860 0
1861 -70 -69 -66 -68 0
1736 -1861 0
1673 -1861 0
1734 -1862 0
-72 1863 -71 -74 -73 0
1864 -1863 0
1865 -1863 0
1866 -72 -71 -75 -73 0
1864 -1866 0
1865 -1866 0
-72 -76 -71 1867 -73 0
1864 -1867 0
1865 -1867 0
-72 -77 -71 -73 1868 0
1864 -1868 0
1865 -1868 0
-72 1870 -71 -74 -75 0
1871 -1870 0
-1870 1865 0
-72 -76 -74 1872 -71 0
1871 -1872 0
-1872 1865 0
-72 -77 -71 -74 1873 0
1871 -1873 0
-1873 1865 0
1878 -75 -74 -71 -73 0
1871 -1878 0
1879 -1878 0
-73 -76 -71 -74 1880 0
1871 -1880 0
1879 -1880 0
-77 -73 -71 -74 1881 0
1871 -1881 0
1879 -1881 0
1879 -1882 0
1879 -1883 0
1879 -1884 0
1885 -75 -74 -72 -73 0
-1885 1871 0
1879 -1885 0
-72 -73 -74 -76 1886 0
-1886 1871 0
1879 -1886 0
-72 -73 -74 -77 1887 0
-1887 1871 0
1879 -1887 0
-73 -72 -74 1888 -78 0
1864 -1888 0
1865 -1888 0
-79 -74 -73 1889 -72 0
1864 -1889 0
1865 -1889 0
-73 -72 -74 1890 -80 0
1864 -1890 0
1865 -1890 0
1879 -1891 0
1879 -1892 0
-78 1893 -75 -73 -72 0
1864 -1893 0
1865 -1893 0
-79 -73 -75 -72 1894 0
1864 -1894 0
1865 -1894 0
-73 -72 -75 1895 -80 0
1864 -1895 0
1865 -1895 0
-1896 1879 0
-78 -72 -73 -76 1897 0
1864 -1897 0
1865 -1897 0
-79 -72 -73 -76 1898 0
1864 -1898 0
1865 -1898 0
-80 -72 -76 1899 -73 0
1864 -1899 0
1865 -1899 0
-78 -72 -77 1900 -73 0
1864 -1900 0
1865 -1900 0
-79 -72 -77 -73 1901 0
1864 -1901 0
1865 -1901 0
-80 -72 -77 -73 1902 0
1864 -1902 0
1865 -1902 0
-72 -75 -74 1903 -78 0
1871 -1903 0
-1903 1865 0
-79 1904 -75 -74 -72 0
1871 -1904 0
-1904 1865 0
-72 -75 -74 1905 -80 0
1871 -1905 0
-1905 1865 0
-72 -76 -74 1906 -78 0
1871 -1906 0
-1906 1865 0
-72 -76 -74 1907 -79 0
1871 -1907 0
-1907 1865 0
-72 -76 -74 1908 -80 0
1871 -1908 0
-1908 1865 0
-78 -72 -77 -74 1909 0
1871 -1909 0
-1909 1865 0
-72 -77 -74 1910 -79 0
1871 -1910 0
1865 -1910 0
-80 -72 -77 -74 1911 0
1871 -1911 0
-1911 1865 0
-1912 1865 0
-78 1913 -75 -74 -73 0
1871 -1913 0
1879 -1913 0
-79 1914 -75 -74 -73 0
1871 -1914 0
1879 -1914 0
-80 1915 -75 -74 -73 0
1871 -1915 0
1879 -1915 0
-78 -74 -73 -76 1916 0
1871 -1916 0
1879 -1916 0
-79 -74 -73 -76 1917 0
1871 -1917 0
1879 -1917 0
-73 -76 -74 1918 -80 0
1871 -1918 0
1879 -1918 0
-77 -73 -74 1919 -78 0
1871 -1919 0
1879 -1919 0
-79 -74 -77 -73 1920 0
1871 -1920 0
1879 -1920 0
-80 -74 -77 -73 1921 0
1871 -1921 0
1879 -1921 0
1879 -1922 0
1879 -1923 0
1879 -1924 0
1879 -1925 0
1879 -1926 0
1879 -1927 0
1879 -1928 0
1879 -1929 0
1879 -1930 0
1871 -1931 0
1871 -1932 0
1871 -1933 0
1935 -1934 0
1936 -1934 0
1937 -85 -83 -81 -82 0
1935 -1937 0
1936 -1937 0
-82 -86 -81 -83 1938 0
1935 -1938 0
1936 -1938 0
-82 -87 -81 -83 1939 0
1935 -1939 0
1936 -1939 0
1940 -82 -81 -83 -88 0
1935 -1940 0
1936 -1940 0
-89 -82 -81 1941 -83 0
1942 -1941 0
1943 -1941 0
1944 -90 -81 -82 -83 0
1942 -1944 0
-1944 1943 0
-82 -84 -85 -81 1945 0
1946 -1945 0
-1945 1936 0
-86 -82 -81 -84 1947 0
1946 -1947 0
-1947 1936 0
-87 -82 -81 -84 1948 0
1946 -1948 0
-1948 1936 0
-88 -82 -84 1949 -81 0
1946 -1949 0
-1949 1936 0
-89 -82 -81 1950 -84 0
1942 -1950 0
1943 -1950 0
-82 -90 -81 -84 1951 0
1942 -1951 0
1943 -1951 0
-86 -82 -81 -85 1952 0
1953 -1952 0
-1952 1936 0
-87 -82 -85 -81 1954 0
1953 -1954 0
-1954 1936 0
-88 1955 -85 -82 -81 0
1953 -1955 0
-1955 1936 0
-89 -82 -81 1956 -85 0
1942 -1956 0
1943 -1956 0
-90 -82 -85 -81 1957 0
1942 -1957 0
1943 -1957 0
-1958 1936 0
-86 1960 -82 -81 -88 0
1959 -1960 0
-1960 1936 0
-89 -82 -81 1961 -86 0
1942 -1961 0
1943 -1961 0
-86 -82 -81 -90 1962 0
1942 -1962 0
1943 -1962 0
-88 -87 -81 -82 1963 0
1964 -1963 0
-1963 1936 0
-89 -82 -81 -87 1965 0
1942 -1965 0
1943 -1965 0
1966 -82 -81 -90 -87 0
1942 -1966 0
1943 -1966 0
1942 -1967 0
1943 -1967 0
1942 -1968 0
1943 -1968 0
1970 -1969 0
1971 -1969 0
-84 -85 -83 -81 1972 0
1946 -1972 0
1973 -1972 0
-86 -84 -81 -83 1974 0
1946 -1974 0
1973 -1974 0
-87 -84 -81 -83 1975 0
1946 -1975 0
1973 -1975 0
-88 -84 -83 1976 -81 0
1946 -1976 0
1973 -1976 0
1977 -89 -81 -83 -84 0
-1977 1935 0
1943 -1977 0
-90 -84 -81 -83 1978 0
-1978 1935 0
1943 -1978 0
-86 -85 -83 -81 1979 0
1953 -1979 0
1973 -1979 0
-87 -85 -83 -81 1980 0
1953 -1980 0
1973 -1980 0
1981 -85 -83 -81 -88 0
1953 -1981 0
1973 -1981 0
-89 -85 -83 -81 1982 0
-1982 1935 0
1943 -1982 0
-90 -85 -83 -81 1983 0
-1983 1935 0
1943 -1983 0
1973 -1984 0
-86 1985 -81 -83 -88 0
1959 -1985 0
1973 -1985 0
-89 -86 -81 -83 1986 0
-1986 1935 0
1943 -1986 0
-90 -86 -81 -83 1987 0
-1987 1935 0
1943 -1987 0
-87 1988 -81 -83 -88 0
1964 -1988 0
1973 -1988 0
-87 1989 -81 -83 -89 0
-1989 1935 0
1943 -1989 0
-90 1990 -81 -83 -87 0
-1990 1935 0
1943 -1990 0
-1991 1935 0
1943 -1991 0
-1992 1935 0
1943 -1992 0
1970 -1993 0
1971 -1993 0
-86 -84 -85 -81 1994 0
1953 -1994 0
1995 -1994 0
-87 -84 -85 1996 -81 0
1953 -1996 0
1995 -1996 0
-88 -84 -85 1997 -81 0
1953 -1997 0
1995 -1997 0
-89 -84 -85 -81 1998 0
1946 -1998 0
1943 -1998 0
-90 1999 -85 -81 -84 0
1946 -1999 0
1943 -1999 0
-86 2000 -81 -84 -88 0
1959 -2000 0
1995 -2000 0
-89 -86 -81 2001 -84 0
1946 -2001 0
1943 -2001 0
2002 -90 -81 -86 -84 0
1946 -2002 0
1943 -2002 0
-88 -87 -84 2003 -81 0
1964 -2003 0
1995 -2003 0
-89 -87 -81 -84 2004 0
1946 -2004 0
1943 -2004 0
-87 -90 -81 -84 2005 0
1946 -2005 0
1943 -2005 0
1946 -2006 0
1943 -2006 0
1946 -2007 0
1943 -2007 0
1970 -2008 0
1971 -2008 0
-86 2010 -85 -88 -81 0
1959 -2010 0
2009 -2010 0
-89 2011 -85 -81 -86 0
1953 -2011 0
1943 -2011 0
-90 -86 -85 -81 2012 0
1953 -2012 0
1943 -2012 0
-88 -87 -85 2013 -81 0
1964 -2013 0
2009 -2013 0
-87 2014 -85 -81 -89 0
1953 -2014 0
1943 -2014 0
-90 -87 -85 -81 2015 0
1953 -2015 0
1943 -2015 0
1953 -2016 0
1943 -2016 0
1953 -2017 0
1943 -2017 0
1970 -2018 0
1971 -2018 0
1964 -2019 0
2020 -2019 0
1943 -2021 0
1943 -2022 0
1959 -2023 0
1943 -2023 0
1959 -2024 0
1943 -2024 0
1970 -2025 0
1971 -2025 0
1964 -2026 0
1943 -2026 0
1964 -2027 0
1943 -2027 0
1970 -2028 0
1971 -2028 0
1970 -2029 0
1971 -2029 0
-2030 1946 0
1973 -2030 0
-2031 1946 0
1973 -2031 0
-2032 1946 0
1973 -2032 0
-2033 1946 0
1973 -2033 0
1935 -2034 0
1936 -2034 0
1935 -2035 0
1936 -2035 0
1953 -2036 0
1973 -2036 0
1953 -2037 0
1973 -2037 0
-88 -85 -83 -82 2038 0
1953 -2038 0
1973 -2038 0
2039 -85 -83 -82 -89 0
1935 -2039 0
1936 -2039 0
-90 -85 -83 -82 2040 0
1935 -2040 0
1936 -2040 0
-2041 1973 0
-88 -82 -83 -86 2042 0
1959 -2042 0
1973 -2042 0
-86 -82 -83 2043 -89 0
1935 -2043 0
1936 -2043 0
-86 -90 -83 -82 2044 0
1935 -2044 0
1936 -2044 0
-87 2045 -83 -82 -88 0
1964 -2045 0
1973 -2045 0
-87 2046 -83 -82 -89 0
1935 -2046 0
1936 -2046 0
-87 2047 -83 -82 -90 0
1935 -2047 0
1936 -2047 0
-88 -89 -82 2048 -83 0
1935 -2048 0
1936 -2048 0
-88 -90 -83 2049 -82 0
1935 -2049 0
1936 -2049 0
-89 -90 -83 -82 2050 0
1942 -2050 0
1971 -2050 0
-86 -84 -85 -82 2051 0
1953 -2051 0
1995 -2051 0
-2052 1953 0
-2052 1995 0
-88 -84 -85 -82 2053 0
-2053 1953 0
-2053 1995 0
-89 -84 -85 -82 2054 0
1946 -2054 0
-2054 1936 0
2055 -84 -85 -82 -90 0
1946 -2055 0
-2055 1936 0
-86 -82 -84 -88 2056 0
-2056 1959 0
-2056 1995 0
-86 -89 -84 -82 2057 0
1946 -2057 0
-2057 1936 0
-86 -82 -84 2058 -90 0
1946 -2058 0
-2058 1936 0
-88 -82 -84 -87 2059 0
1964 -2059 0
-2059 1995 0
-89 -87 -84 -82 2060 0
1946 -2060 0
-2060 1936 0
2061 -87 -84 -82 -90 0
1946 -2061 0
-2061 1936 0
-88 -89 -84 -82 2062 0
1946 -2062 0
-2062 1936 0
-88 -82 -90 -84 2063 0
1946 -2063 0
-2063 1936 0
-89 -82 -90 -84 2064 0
1942 -2064 0
1971 -2064 0
-86 -82 -85 -88 2065 0
-2065 1959 0
2009 -2065 0
-86 -89 -85 -82 2066 0
1953 -2066 0
-2066 1936 0
-86 -90 -85 -82 2067 0
1953 -2067 0
-2067 1936 0
-88 -82 -85 -87 2068 0
1964 -2068 0
2009 -2068 0
-87 2069 -85 -82 -89 0
-2069 1953 0
-2069 1936 0
-87 2070 -85 -82 -90 0
-2070 1953 0
-2070 1936 0
-88 -89 -85 -82 2071 0
-2071 1953 0
-2071 1936 0
-88 -90 -85 -82 2072 0
-2072 1953 0
-2072 1936 0
-89 -90 -85 -82 2073 0
1942 -2073 0
1971 -2073 0
1964 -2074 0
2020 -2074 0
-2075 1936 0
-2076 1936 0
-88 -89 -82 -86 2077 0
1959 -2077 0
-2077 1936 0
-88 -86 -90 -82 2078 0
1959 -2078 0
-2078 1936 0
-86 -89 -90 -82 2079 0
1942 -2079 0
1971 -2079 0
-88 -87 2080 -82 -89 0
1964 -2080 0
-2080 1936 0
-88 -87 2081 -82 -90 0
1964 -2081 0
-2081 1936 0
-89 -87 2082 -82 -90 0
1942 -2082 0
1971 -2082 0
1942 -2083 0
1971 -2083 0
-84 -85 -83 -86 2084 0
1953 -2084 0
1995 -2084 0
-2085 1953 0
-2085 1995 0
-88 -84 -85 -83 2086 0
-2086 1953 0
-2086 1995 0
-89 -84 -83 2087 -85 0
1946 -2087 0
1973 -2087 0
-90 -85 -83 -84 2088 0
1946 -2088 0
1973 -2088 0
-88 -84 -83 -86 2089 0
-2089 1959 0
-2089 1995 0
-86 -89 -83 2090 -84 0
1946 -2090 0
1973 -2090 0
-86 -90 -83 2091 -84 0
1946 -2091 0
1973 -2091 0
-88 -84 -83 -87 2092 0
1964 -2092 0
-2092 1995 0
-87 -84 -83 2093 -89 0
1946 -2093 0
1973 -2093 0
-87 -84 -83 2094 -90 0
1946 -2094 0
1973 -2094 0
-88 -89 -84 -83 2095 0
1946 -2095 0
1973 -2095 0
-88 -90 -83 -84 2096 0
1946 -2096 0
1973 -2096 0
-89 -90 -83 -84 2097 0
-2097 1935 0
1971 -2097 0
2009 -2098 0
-88 -85 -83 -86 2099 0
-2099 1959 0
2009 -2099 0
-89 -85 -83 -86 2100 0
1953 -2100 0
1973 -2100 0
-90 -85 -83 -86 2101 0
1953 -2101 0
1973 -2101 0
-88 -85 -83 -87 2102 0
1964 -2102 0
2009 -2102 0
-87 -85 -83 2103 -89 0
1953 -2103 0
1973 -2103 0
-87 -85 -83 2104 -90 0
1953 -2104 0
1973 -2104 0
-88 -89 -85 -83 2105 0
1953 -2105 0
1973 -2105 0
-88 -90 -85 -83 2106 0
1953 -2106 0
1973 -2106 0
-89 2107 -85 -83 -90 0
-2107 1935 0
1971 -2107 0
-2108 1964 0
2020 -2108 0
-2109 1973 0
-2110 1973 0
-88 -89 -83 -86 2111 0
1959 -2111 0
1973 -2111 0
-88 -90 -83 -86 2112 0
1959 -2112 0
1973 -2112 0
-86 -90 -83 -89 2113 0
-2113 1935 0
1971 -2113 0
-88 -87 -83 2114 -89 0
1964 -2114 0
1973 -2114 0
-88 -87 -83 2115 -90 0
1964 -2115 0
1973 -2115 0
-87 2116 -83 -90 -89 0
-2116 1935 0
1971 -2116 0
-2117 1935 0
1971 -2117 0
2009 -2118 0
-88 -84 -85 -86 2119 0
-2119 1959 0
2009 -2119 0
-86 -84 -85 2120 -89 0
1953 -2120 0
1995 -2120 0
-86 -90 -85 -84 2121 0
1953 -2121 0
1995 -2121 0
-87 -84 -85 2122 -88 0
1964 -2122 0
2009 -2122 0
-87 -84 -85 2123 -89 0
1953 -2123 0
1995 -2123 0
-87 -84 -85 2124 -90 0
1953 -2124 0
1995 -2124 0
-88 -89 -85 2125 -84 0
1953 -2125 0
1995 -2125 0
-88 -90 -85 -84 2126 0
1953 -2126 0
1995 -2126 0
-89 -90 -85 -84 2127 0
1946 -2127 0
1971 -2127 0
-2128 1964 0
2020 -2128 0
-86 -89 -84 -88 2129 0
1959 -2129 0
1995 -2129 0
-86 -88 -90 -84 2130 0
1959 -2130 0
1995 -2130 0
-89 -86 -90 2131 -84 0
1946 -2131 0
1971 -2131 0
-88 -89 -84 -87 2132 0
1964 -2132 0
1995 -2132 0
-88 -87 -90 -84 2133 0
1964 -2133 0
1995 -2133 0
2134 -87 -84 -90 -89 0
1946 -2134 0
1971 -2134 0
1946 -2135 0
1971 -2135 0
-2136 1964 0
2020 -2136 0
2009 -2137 0
2009 -2138 0
-88 -89 -85 -86 2139 0
1959 -2139 0
2009 -2139 0
-88 -90 -85 -86 2140 0
1959 -2140 0
2009 -2140 0
-86 -90 -85 2141 -89 0
1953 -2141 0
1971 -2141 0
-88 -89 -85 -87 2142 0
1964 -2142 0
2009 -2142 0
-88 -90 -85 -87 2143 0
1964 -2143 0
2009 -2143 0
-87 2144 -85 -90 -89 0
1971 -2144 0
1971 -2145 0
1964 -2146 0
1964 -2147 0
2020 -2147 0
1971 -2148 0
2150 -2149 0
2151 -2149 0
-92 2152 -91 -95 -93 0
2150 -2152 0
2151 -2152 0
-92 -96 -93 -91 2153 0
2150 -2153 0
2151 -2153 0
-92 -97 2154 -93 -91 0
2150 -2154 0
2151 -2154 0
-92 -98 -93 -91 2155 0
2150 -2155 0
2151 -2155 0
-92 -99 -91 -93 2156 0
2150 -2156 0
2151 -2156 0
-92 -100 -91 2157 -93 0
2158 -2157 0
-2157 2159 0
-92 -95 -94 -91 2160 0
2161 -2160 0
-2160 2151 0
-96 -92 -94 -91 2162 0
2161 -2162 0
-2162 2151 0
-92 -97 -94 -91 2163 0
2161 -2163 0
-2163 2151 0
2164 -92 -94 -91 -98 0
2161 -2164 0
-2164 2151 0
-92 -99 -91 2165 -94 0
2161 -2165 0
-2165 2151 0
-92 -100 -91 2166 -94 0
2158 -2166 0
2159 -2166 0
-92 -96 -91 -95 2167 0
2168 -2167 0
-2167 2151 0
-92 -97 -95 -91 2169 0
2168 -2169 0
-2169 2151 0
-92 -98 -91 -95 2170 0
2168 -2170 0
-2170 2151 0
2171 -99 -95 -92 -91 0
2168 -2171 0
-2171 2151 0
-92 -100 -91 2172 -95 0
2158 -2172 0
2159 -2172 0
2174 -2173 0
-2173 2151 0
-92 -96 -91 2175 -98 0
2174 -2175 0
-2175 2151 0
-92 -96 -91 -99 2176 0
2174 -2176 0
-2176 2151 0
-92 -100 -91 -96 2177 0
2158 -2177 0
2159 -2177 0
-92 -98 -97 -91 2178 0
2179 -2178 0
-2178 2151 0
-92 -97 2180 -91 -99 0
2179 -2180 0
-2180 2151 0
-92 -100 -91 -97 2181 0
2158 -2181 0
2159 -2181 0
2183 -2182 0
2158 -2184 0
2158 -2185 0
2159 -2185 0
-93 -95 -94 -91 2186 0
2161 -2186 0
2187 -2186 0
-96 -93 -94 -91 2188 0
2161 -2188 0
2187 -2188 0
-97 -93 -94 2189 -91 0
2161 -2189 0
2187 -2189 0
-98 -93 -94 -91 2190 0
2161 -2190 0
2187 -2190 0
2191 -93 -94 -91 -99 0
2161 -2191 0
2187 -2191 0
-100 -93 -91 -94 2192 0
-2192 2150 0
2159 -2192 0
-96 -93 -95 -91 2193 0
2168 -2193 0
2187 -2193 0
-97 2194 -95 -93 -91 0
2168 -2194 0
2187 -2194 0
-98 -93 -95 -91 2195 0
2168 -2195 0
2187 -2195 0
2196 -93 -95 -99 -91 0
2168 -2196 0
2187 -2196 0
-100 -93 -91 -95 2197 0
-2197 2150 0
2159 -2197 0
2174 -2198 0
2187 -2198 0
-96 -98 -91 -93 2199 0
2174 -2199 0
2187 -2199 0
-96 2200 -91 -93 -99 0
2174 -2200 0
2187 -2200 0
-96 -100 -91 -93 2201 0
-2201 2150 0
2159 -2201 0
-98 -97 2202 -93 -91 0
2179 -2202 0
2187 -2202 0
-97 2203 -99 -93 -91 0
2179 -2203 0
2187 -2203 0
-100 -97 -91 -93 2204 0
-2204 2150 0
2159 -2204 0
2183 -2205 0
2187 -2205 0
-2206 2150 0
2159 -2206 0
-2207 2150 0
2159 -2207 0
-96 -95 -94 2208 -91 0
2168 -2208 0
2209 -2208 0
-97 -95 -94 2210 -91 0
2168 -2210 0
2209 -2210 0
-98 -95 -94 2211 -91 0
2168 -2211 0
2209 -2211 0
2212 -95 -94 -99 -91 0
2168 -2212 0
2209 -2212 0
-100 -95 -91 -94 2213 0
2161 -2213 0
2159 -2213 0
2214 -96 -94 -98 -91 0
2174 -2214 0
2209 -2214 0
2215 -96 -94 -99 -91 0
2174 -2215 0
2209 -2215 0
-96 -100 -91 2216 -94 0
2161 -2216 0
2159 -2216 0
-98 -97 -94 -91 2217 0
2179 -2217 0
2209 -2217 0
-97 -99 -94 -91 2218 0
2179 -2218 0
2209 -2218 0
-97 -100 -94 -91 2219 0
2161 -2219 0
2159 -2219 0
2183 -2220 0
2209 -2220 0
2161 -2221 0
2159 -2221 0
2161 -2222 0
2159 -2222 0
2224 -2223 0
-96 2225 -95 -98 -91 0
2174 -2225 0
2224 -2225 0
-99 -96 -95 2226 -91 0
2174 -2226 0
2224 -2226 0
-96 2227 -91 -95 -100 0
2168 -2227 0
2159 -2227 0
-97 2228 -95 -98 -91 0
2179 -2228 0
2224 -2228 0
-97 2229 -95 -99 -91 0
2179 -2229 0
2224 -2229 0
-97 -100 -95 -91 2230 0
2168 -2230 0
2159 -2230 0
2183 -2231 0
2224 -2231 0
2168 -2232 0
2168 -2233 0
2159 -2233 0
2174 -2235 0
2159 -2235 0
2183 -2236 0
2174 -2237 0
2174 -2238 0
2159 -2238 0
2183 -2239 0
2240 -2239 0
2179 -2241 0
2159 -2241 0
2159 -2242 0
2183 -2243 0
2159 -2243 0
-2244 2161 0
2187 -2244 0
-2245 2161 0
2187 -2245 0
-2246 2161 0
2187 -2246 0
-92 -93 -94 -98 2247 0
-2247 2161 0
2187 -2247 0
2248 -93 -94 -92 -99 0
-2248 2161 0
2187 -2248 0
-92 -93 -94 2249 -100 0
2150 -2249 0
2151 -2249 0
2168 -2250 0
2187 -2250 0
2168 -2251 0
2187 -2251 0
-92 2252 -95 -98 -93 0
2168 -2252 0
2187 -2252 0
-92 -93 -95 2253 -99 0
2168 -2253 0
2187 -2253 0
-92 -100 -95 -93 2254 0
2150 -2254 0
2151 -2254 0
2174 -2255 0
2187 -2255 0
-92 -96 -93 -98 2256 0
2174 -2256 0
2187 -2256 0
-92 -96 -93 2257 -99 0
2174 -2257 0
2187 -2257 0
-92 -96 -93 2258 -100 0
2150 -2258 0
2151 -2258 0
-92 -98 -97 -93 2259 0
2179 -2259 0
2187 -2259 0
-92 -97 2260 -93 -99 0
2179 -2260 0
2187 -2260 0
-92 -97 2261 -93 -100 0
2150 -2261 0
2151 -2261 0
-92 2262 -93 -98 -99 0
2183 -2262 0
2187 -2262 0
-98 -100 2263 -93 -92 0
2150 -2263 0
2151 -2263 0
-92 -100 2264 -93 -99 0
2150 -2264 0
2151 -2264 0
2168 -2265 0
2209 -2265 0
2168 -2266 0
2209 -2266 0
-92 -95 -94 -98 2267 0
2168 -2267 0
2209 -2267 0
-92 -95 -94 -99 2268 0
2168 -2268 0
2209 -2268 0
2269 -95 -94 -92 -100 0
2161 -2269 0
-2269 2151 0
2174 -2270 0
2209 -2270 0
-92 -96 -94 -98 2271 0
2174 -2271 0
2209 -2271 0
-92 -96 -94 -99 2272 0
2174 -2272 0
2209 -2272 0
-92 -96 -100 2273 -94 0
2161 -2273 0
-2273 2151 0
-92 -97 -94 -98 2274 0
2179 -2274 0
2209 -2274 0
-92 -97 -94 -99 2275 0
2179 -2275 0
-2275 2209 0
-92 -97 -100 -94 2276 0
2161 -2276 0
-2276 2151 0
-92 -98 -94 -99 2277 0
2183 -2277 0
2209 -2277 0
-92 -98 -94 -100 2278 0
2161 -2278 0
-2278 2151 0
-92 -100 -94 -99 2279 0
2161 -2279 0
-2279 2151 0
2224 -2280 0
-92 -96 -95 -98 2281 0
2174 -2281 0
2224 -2281 0
-92 -99 -95 -96 2282 0
2174 -2282 0
2224 -2282 0
-92 -96 -95 2283 -100 0
2168 -2283 0
-2283 2151 0
-92 -97 -95 -98 2284 0
2179 -2284 0
2224 -2284 0
-92 -99 -95 -97 2285 0
2179 -2285 0
2224 -2285 0
-92 -97 -100 -95 2286 0
2168 -2286 0
-2286 2151 0
-98 -99 -95 2287 -92 0
2183 -2287 0
2224 -2287 0
-92 -100 -95 -98 2288 0
2168 -2288 0
-2288 2151 0
-100 -99 -95 -92 2289 0
2168 -2289 0
-2289 2151 0
2234 -2290 0
2174 -2291 0
-92 -98 -99 -96 2292 0
2183 -2292 0
2234 -2292 0
-92 -96 -100 -98 2293 0
2174 -2293 0
-2293 2151 0
-92 -100 -99 -96 2294 0
2174 -2294 0
-2294 2151 0
-92 -97 2295 -98 -99 0
2183 -2295 0
2240 -2295 0
-92 -97 2296 -98 -100 0
2179 -2296 0
-2296 2151 0
-92 -97 -100 -99 2297 0
2179 -2297 0
-2297 2151 0
2183 -2298 0
-2298 2151 0
2168 -2299 0
2209 -2299 0
-2300 2168 0
2209 -2300 0
-93 -95 -94 -98 2301 0
-2301 2168 0
2209 -2301 0
-93 -95 -94 -99 2302 0
-2302 2168 0
2209 -2302 0
2303 -95 -94 -93 -100 0
2161 -2303 0
2187 -2303 0
-2304 2209 0
-96 -93 -94 -98 2305 0
-2305 2174 0
-2305 2209 0
-96 -93 -94 -99 2306 0
-2306 2174 0
-2306 2209 0
-96 -93 -94 2307 -100 0
2161 -2307 0
2187 -2307 0
-98 -97 -94 -93 2308 0
-2308 2179 0
-2308 2209 0
-97 -93 -94 -99 2309 0
-2309 2179 0
-2309 2209 0
-97 -93 -94 -100 2310 0
2161 -2310 0
2187 -2310 0
-98 2311 -94 -99 -93 0
2183 -2311 0
2209 -2311 0
-98 -93 -94 -100 2312 0
2161 -2312 0
2187 -2312 0
-100 -93 -94 -99 2313 0
2161 -2313 0
2187 -2313 0
-2314 2224 0
-96 -93 -95 -98 2315 0
-2315 2174 0
2224 -2315 0
-96 -93 -95 -99 2316 0
-2316 2174 0
2224 -2316 0
-96 -93 -95 2317 -100 0
2168 -2317 0
2187 -2317 0
-98 -97 -95 -93 2318 0
-2318 2179 0
2224 -2318 0
-97 -99 -95 -93 2319 0
-2319 2179 0
2224 -2319 0
-97 2320 -95 -93 -100 0
2168 -2320 0
2187 -2320 0
-98 -93 -95 -99 2321 0
2183 -2321 0
2224 -2321 0
-98 -100 -95 -93 2322 0
2168 -2322 0
2187 -2322 0
-100 -99 -95 -93 2323 0
2168 -2323 0
2187 -2323 0
2174 -2324 0
2187 -2324 0
-98 -96 -93 -99 2325 0
2183 -2325 0
2234 -2325 0
-96 -98 -100 -93 2326 0
2174 -2326 0
2187 -2326 0
-96 -100 -93 -99 2327 0
2174 -2327 0
2187 -2327 0
-98 -97 -93 -99 2328 0
2183 -2328 0
2240 -2328 0
-98 -97 2329 -93 -100 0
2179 -2329 0
2187 -2329 0
2330 -97 -100 -93 -99 0
2179 -2330 0
2187 -2330 0
2183 -2331 0
2187 -2331 0
-2332 2224 0
-96 -95 -94 2333 -98 0
-2333 2174 0
2224 -2333 0
-96 -95 -94 2334 -99 0
-2334 2174 0
2224 -2334 0
-96 -95 -94 2335 -100 0
2168 -2335 0
2209 -2335 0
-97 -95 -94 -98 2336 0
-2336 2179 0
2224 -2336 0
-97 -95 -94 -99 2337 0
-2337 2179 0
2224 -2337 0
-97 -95 -94 2338 -100 0
2168 -2338 0
2209 -2338 0
-98 -95 -94 -99 2339 0
2183 -2339 0
2224 -2339 0
-98 -95 -94 -100 2340 0
2168 -2340 0
2209 -2340 0
-100 -95 -94 -99 2341 0
2168 -2341 0
2209 -2341 0
-98 -96 -94 -99 2342 0
2183 -2342 0
2234 -2342 0
-96 -98 -94 -100 2343 0
2174 -2343 0
2209 -2343 0
-96 -100 -94 -99 2344 0
2174 -2344 0
2209 -2344 0
-98 -97 -94 -99 2345 0
2183 -2345 0
2240 -2345 0
-97 -98 -94 -100 2346 0
2179 -2346 0
2209 -2346 0
-97 -100 -94 -99 2347 0
2179 -2347 0
2209 -2347 0
2183 -2348 0
2209 -2348 0
2224 -2349 0
-98 -99 -95 -96 2350 0
2183 -2350 0
2234 -2350 0
-96 2351 -95 -98 -100 0
2174 -2351 0
2224 -2351 0
-100 -99 -95 -96 2352 0
2174 -2352 0
2224 -2352 0
-98 -99 -95 -97 2353 0
2183 -2353 0
2240 -2353 0
-97 -100 -95 -98 2354 0
2179 -2354 0
2224 -2354 0
-100 -99 -95 -97 2355 0
2179 -2355 0
2224 -2355 0
2183 -2356 0
2224 -2356 0
-2357 2183 0
2183 -2358 0
2183 -2359 0
2240 -2359 0
2361 -2360 0
2362 -2360 0
-102 2363 -101 -103 -105 0
2361 -2363 0
2362 -2363 0
-102 2364 -101 -103 -106 0
2361 -2364 0
2362 -2364 0
-102 -107 -101 -103 2365 0
2361 -2365 0
2362 -2365 0
-102 2366 -101 -103 -108 0
2361 -2366 0
2362 -2366 0
-102 2367 -101 -103 -109 0
2361 -2367 0
2362 -2367 0
-102 2368 -101 -103 -110 0
2361 -2368 0
2362 -2368 0
-102 -105 -101 -104 2369 0
2370 -2369 0
2362 -2369 0
-102 -106 -101 -104 2371 0
2370 -2371 0
2362 -2371 0
-102 -107 -101 -104 2372 0
2370 -2372 0
2362 -2372 0
-102 -108 -101 -104 2373 0
2370 -2373 0
2362 -2373 0
-102 2374 -101 -104 -109 0
2370 -2374 0
2362 -2374 0
-102 -110 -104 2375 -101 0
2370 -2375 0
2362 -2375 0
-102 -106 -105 2376 -101 0
2377 -2376 0
2362 -2376 0
-107 -102 -101 -105 2378 0
2377 -2378 0
2362 -2378 0
-102 2379 -101 -105 -108 0
2377 -2379 0
2362 -2379 0
-109 -102 -101 -105 2380 0
2377 -2380 0
2362 -2380 0
-102 -110 -101 -105 2381 0
2377 -2381 0
2362 -2381 0
-2382 2362 0
-102 -106 2384 -101 -108 0
2383 -2384 0
2362 -2384 0
-102 -109 -101 -106 2385 0
2383 -2385 0
2362 -2385 0
-102 -110 -101 -106 2386 0
2383 -2386 0
2362 -2386 0
-102 -107 -101 2387 -108 0
2388 -2387 0
2362 -2387 0
-102 -109 -101 -107 2389 0
2388 -2389 0
2362 -2389 0
-102 -110 -101 2390 -107 0
2388 -2390 0
2362 -2390 0
2392 -2391 0
2362 -2391 0
2392 -2393 0
2362 -2393 0
2362 -2394 0
-103 -105 -101 -104 2396 0
2370 -2396 0
2397 -2396 0
-106 -103 -104 2398 -101 0
2370 -2398 0
2397 -2398 0
-103 -107 -101 -104 2399 0
2370 -2399 0
2397 -2399 0
2400 -103 -101 -104 -108 0
2370 -2400 0
2397 -2400 0
-103 -109 -101 -104 2401 0
2370 -2401 0
2397 -2401 0
2402 -103 -104 -110 -101 0
2370 -2402 0
2397 -2402 0
-103 -106 -101 -105 2403 0
2377 -2403 0
2397 -2403 0
-107 -103 -101 -105 2404 0
2377 -2404 0
2397 -2404 0
2405 -103 -101 -105 -108 0
2377 -2405 0
2397 -2405 0
-109 -103 -101 -105 2406 0
2377 -2406 0
2397 -2406 0
-110 -103 -101 -105 2407 0
2377 -2407 0
2397 -2407 0
2397 -2408 0
-106 2409 -103 -108 -101 0
2383 -2409 0
2397 -2409 0
-106 -103 -101 2410 -109 0
2383 -2410 0
2397 -2410 0
-106 2411 -110 -103 -101 0
2383 -2411 0
2397 -2411 0
-107 -103 -101 2412 -108 0
2388 -2412 0
2397 -2412 0
-109 -103 -101 -107 2413 0
2388 -2413 0
2397 -2413 0
-107 -110 -101 -103 2414 0
2388 -2414 0
2397 -2414 0
2392 -2415 0
2397 -2415 0
2392 -2416 0
2397 -2416 0
2397 -2417 0
-106 -105 -101 -104 2418 0
2377 -2418 0
2419 -2418 0
-107 -105 -101 -104 2420 0
2377 -2420 0
2419 -2420 0
-108 -105 -101 -104 2421 0
2377 -2421 0
2419 -2421 0
2422 -105 -101 -104 -109 0
2377 -2422 0
2419 -2422 0
-110 -105 -104 2423 -101 0
2377 -2423 0
2419 -2423 0
2419 -2424 0
2425 -106 -104 -108 -101 0
2383 -2425 0
2419 -2425 0
-106 2426 -101 -104 -109 0
2383 -2426 0
2419 -2426 0
-106 -110 -101 -104 2427 0
2383 -2427 0
2419 -2427 0
-107 2428 -104 -108 -101 0
2388 -2428 0
2419 -2428 0
-107 2429 -104 -109 -101 0
2388 -2429 0
2419 -2429 0
-107 2430 -104 -110 -101 0
2388 -2430 0
2419 -2430 0
2392 -2431 0
2419 -2431 0
2392 -2432 0
2419 -2432 0
2419 -2433 0
2435 -2434 0
-106 2436 -101 -105 -108 0
2383 -2436 0
2435 -2436 0
-106 2437 -105 -109 -101 0
2383 -2437 0
2435 -2437 0
-106 -110 -101 -105 2438 0
2383 -2438 0
2435 -2438 0
-107 2439 -105 -108 -101 0
2388 -2439 0
2435 -2439 0
-107 2440 -101 -105 -109 0
2388 -2440 0
2435 -2440 0
-107 -110 -105 2441 -101 0
2388 -2441 0
2435 -2441 0
2392 -2442 0
2435 -2442 0
2392 -2443 0
2435 -2443 0
2435 -2444 0
2392 -2446 0
2445 -2446 0
2392 -2447 0
2445 -2447 0
2445 -2448 0
2392 -2449 0
2450 -2449 0
2392 -2451 0
2450 -2451 0
2450 -2452 0
2370 -2453 0
2397 -2453 0
2370 -2454 0
2397 -2454 0
2370 -2455 0
2397 -2455 0
2370 -2456 0
2397 -2456 0
2370 -2457 0
2397 -2457 0
2370 -2458 0
2397 -2458 0
-102 -106 -105 -103 2459 0
2377 -2459 0
2397 -2459 0
2377 -2460 0
2397 -2460 0
-108 -103 -105 2461 -102 0
2377 -2461 0
2397 -2461 0
-109 -103 -105 2462 -102 0
2377 -2462 0
2397 -2462 0
-110 -105 2463 -103 -102 0
2377 -2463 0
2397 -2463 0
2397 -2464 0
-102 -108 -103 -106 2465 0
2383 -2465 0
2397 -2465 0
-102 -109 -103 -106 2466 0
2383 -2466 0
2397 -2466 0
-102 -106 -110 -103 2467 0
2383 -2467 0
2397 -2467 0
-102 -108 -103 -107 2468 0
2388 -2468 0
2397 -2468 0
-102 -109 -103 -107 2469 0
2388 -2469 0
2397 -2469 0
-102 -107 -110 -103 2470 0
2388 -2470 0
2397 -2470 0
-102 -109 -103 -108 2471 0
2392 -2471 0
2397 -2471 0
-108 -103 2472 -110 -102 0
2392 -2472 0
2397 -2472 0
-102 -109 -110 2473 -103 0
-2473 2395 0
2397 -2473 0
2377 -2474 0
2419 -2474 0
2377 -2475 0
2419 -2475 0
-102 2476 -105 -104 -108 0
2377 -2476 0
2419 -2476 0
-102 -105 -104 -109 2477 0
2377 -2477 0
2419 -2477 0
-102 2478 -105 -104 -110 0
2377 -2478 0
2419 -2478 0
2419 -2479 0
-102 -108 -104 -106 2480 0
2383 -2480 0
2419 -2480 0
-102 -106 -104 2481 -109 0
2383 -2481 0
2419 -2481 0
-102 -106 -104 2482 -110 0
2383 -2482 0
2419 -2482 0
-102 -108 -104 -107 2483 0
2388 -2483 0
2419 -2483 0
-102 -107 -104 2484 -109 0
2388 -2484 0
2419 -2484 0
-102 -107 -104 2485 -110 0
2388 -2485 0
2419 -2485 0
-102 -108 -104 -109 2486 0
2392 -2486 0
2419 -2486 0
-102 -108 -110 -104 2487 0
2392 -2487 0
2419 -2487 0
-102 -109 -110 -104 2488 0
-2488 2395 0
2419 -2488 0
2435 -2489 0
-102 -108 -105 -106 2490 0
2383 -2490 0
2435 -2490 0
-102 -109 -105 -106 2491 0
2383 -2491 0
2435 -2491 0
-102 -110 -105 -106 2492 0
2383 -2492 0
2435 -2492 0
-102 -108 -105 -107 2493 0
2388 -2493 0
2435 -2493 0
-102 -109 -105 -107 2494 0
2388 -2494 0
2435 -2494 0
-102 -110 -105 -107 2495 0
2388 -2495 0
2435 -2495 0
-102 -109 -105 -108 2496 0
2392 -2496 0
2435 -2496 0
-102 -110 -105 -108 2497 0
2392 -2497 0
2435 -2497 0
-102 -109 -105 -110 2498 0
-2498 2395 0
2435 -2498 0
-102 -108 -109 -106 2499 0
2392 -2499 0
2445 -2499 0
-102 -106 -110 -108 2500 0
2392 -2500 0
2445 -2500 0
-102 -109 -110 -106 2501 0
-2501 2395 0
2445 -2501 0
-102 -108 -109 -107 2502 0
2392 -2502 0
2450 -2502 0
-102 -108 -110 -107 2503 0
2392 -2503 0
2450 -2503 0
-102 -109 -110 -107 2504 0
-2504 2395 0
2450 -2504 0
2377 -2505 0
2419 -2505 0
2377 -2506 0
2419 -2506 0
2507 -105 -104 -103 -108 0
2377 -2507 0
2419 -2507 0
-109 -103 -105 2508 -104 0
2377 -2508 0
2419 -2508 0
-110 -105 -104 -103 2509 0
2377 -2509 0
2419 -2509 0
2419 -2510 0
-108 -103 -104 -106 2511 0
2383 -2511 0
2419 -2511 0
-106 -103 -104 -109 2512 0
2383 -2512 0
2419 -2512 0
-106 -110 -104 -103 2513 0
2383 -2513 0
2419 -2513 0
-108 -103 -104 -107 2514 0
2388 -2514 0
2419 -2514 0
-107 -103 -104 -109 2515 0
2388 -2515 0
2419 -2515 0
-107 -110 -104 -103 2516 0
2388 -2516 0
2419 -2516 0
-108 -103 -104 -109 2517 0
2392 -2517 0
2419 -2517 0
-108 -110 -104 2518 -103 0
2392 -2518 0
2419 -2518 0
-109 -103 -104 -110 2519 0
-2519 2395 0
2419 -2519 0
2435 -2520 0
-108 -103 -105 -106 2521 0
2383 -2521 0
2435 -2521 0
-109 -103 -105 -106 2522 0
2383 -2522 0
2435 -2522 0
-106 -110 -105 -103 2523 0
2383 -2523 0
2435 -2523 0
-108 -103 -105 -107 2524 0
2388 -2524 0
2435 -2524 0
-109 -103 -105 -107 2525 0
2388 -2525 0
2435 -2525 0
-107 -110 -105 -103 2526 0
2388 -2526 0
2435 -2526 0
-109 -103 -105 -108 2527 0
2392 -2527 0
2435 -2527 0
-108 -110 -105 -103 2528 0
2392 -2528 0
2435 -2528 0
-109 -103 -105 -110 2529 0
-2529 2395 0
2435 -2529 0
-108 -109 -103 -106 2530 0
2392 -2530 0
2445 -2530 0
-108 -106 -110 -103 2531 0
2392 -2531 0
2445 -2531 0
-109 -106 -103 -110 2532 0
-2532 2395 0
2445 -2532 0
-108 -109 -103 -107 2533 0
2392 -2533 0
2450 -2533 0
-108 -107 -110 -103 2534 0
2392 -2534 0
2450 -2534 0
-109 -107 -103 -110 2535 0
-2535 2395 0
2450 -2535 0
2435 -2536 0
-108 -105 -104 -106 2537 0
2383 -2537 0
2435 -2537 0
-106 -105 -104 -109 2538 0
2383 -2538 0
2435 -2538 0
-106 -110 -105 -104 2539 0
2383 -2539 0
2435 -2539 0
-108 -105 -104 -107 2540 0
2388 -2540 0
2435 -2540 0
-107 -105 -104 -109 2541 0
2388 -2541 0
2435 -2541 0
-107 -110 -105 -104 2542 0
2388 -2542 0
2435 -2542 0
-108 -109 -105 2543 -104 0
2392 -2543 0
2435 -2543 0
-108 -110 -105 2544 -104 0
2392 -2544 0
2435 -2544 0
-110 -105 -104 -109 2545 0
-2545 2395 0
2435 -2545 0
-108 -106 -104 -109 2546 0
2392 -2546 0
2445 -2546 0
-108 -106 -104 -110 2547 0
2392 -2547 0
2445 -2547 0
-106 -110 -104 -109 2548 0
-2548 2395 0
2445 -2548 0
-108 -107 -104 -109 2549 0
2392 -2549 0
2450 -2549 0
-108 -107 -104 -110 2550 0
2392 -2550 0
2450 -2550 0
-107 -110 -104 -109 2551 0
-2551 2395 0
2450 -2551 0
-108 -109 -105 -106 2552 0
2392 -2552 0
2445 -2552 0
-108 -110 -105 -106 2553 0
2392 -2553 0
2445 -2553 0
-109 -110 -105 -106 2554 0
-2554 2395 0
2445 -2554 0
-108 -109 -105 -107 2555 0
2392 -2555 0
2450 -2555 0
-108 -110 -105 -107 2556 0
2392 -2556 0
2450 -2556 0
-109 -110 -105 -107 2557 0
-2557 2395 0
2450 -2557 0
-712 -951 -740 -732 0
-712 -1172 -951 -732 0
-712 -1174 -951 -732 0
-712 -1429 -951 -732 0
-712 -1660 -951 -732 0
-1660 -953 -732 -712 0
-712 -1660 -1429 -732 0
-712 -950 -742 -1172 0
-712 -1429 -742 -950 0
-712 -1429 -1171 -951 0
-1660 -1162 -953 -712 0
-712 -1429 -1162 -1660 0
-712 -1418 -1162 -1660 0
-711 -951 -740 -732 0
-711 -1172 -951 -732 0
-711 -1174 -951 -732 0
-711 -1429 -951 -732 0
-711 -1660 -951 -732 0
-711 -953 -732 -1660 0
-711 -1660 -1429 -732 0
-711 -950 -742 -1172 0
-711 -1429 -742 -950 0
-711 -1429 -1171 -951 0
-711 -1660 -1162 -953 0
-711 -1429 -1162 -1660 0
-711 -1418 -1162 -1660 0
-710 -951 -740 -732 0
-710 -1172 -951 -732 0
-710 -1174 -951 -732 0
-710 -1429 -951 -732 0
-710 -1660 -951 -732 0
-710 -953 -732 -1660 0
-710 -1660 -1429 -732 0
-710 -950 -742 -1172 0
-710 -1429 -742 -950 0
-710 -1429 -1171 -951 0
-710 -1660 -1162 -953 0
-710 -1429 -1162 -1660 0
-710 -1418 -1162 -1660 0
-1442 -740 -709 -714 0
-1660 -740 -709 -714 0
-1660 -1442 -709 -714 0
-2362 -1442 -709 -714 0
-2362 -1660 -709 -714 0
-951 -740 -709 -732 0
-955 -740 -709 -732 0
-1174 -740 -709 -732 0
-1429 -740 -709 -732 0
-1653 -740 -709 -732 0
-1642 -740 -709 -732 0
-740 -732 -709 -1871 0
-740 -732 -709 -1864 0
-742 -740 -709 -1172 0
-1174 -742 -740 -709 0
-1176 -742 -740 -709 0
-1429 -740 -709 -742 0
-1653 -742 -740 -709 0
-742 -740 -1871 -709 0
-950 -749 -709 -740 0
-1429 -740 -709 -950 0
-950 -740 -1422 -709 0
-1653 -950 -740 -709 0
-950 -740 -1647 -709 0
-950 -740 -1871 -709 0
-950 -740 -1864 -709 0
-1174 -951 -709 -740 0
-1176 -951 -709 -740 0
-1653 -951 -709 -740 0
-951 -740 -709 -1871 0
-1171 -953 -709 -740 0
-1171 -955 -709 -740 0
-1171 -957 -709 -740 0
-1162 -740 -1871 -709 0
-1429 -1171 -709 -740 0
-1418 -1171 -709 -740 0
-1653 -1171 -709 -740 0
-1642 -1171 -709 -740 0
-1171 -740 -709 -1871 0
-1171 -740 -709 -1864 0
-957 -732 -709 -950 0
-1442 -732 -709 -950 0
-732 -950 -709 -1871 0
-732 -950 -709 -1864 0
-732 -955 -996 -709 0
-732 -957 -996 -709 0
-732 -1174 -996 -709 0
-1429 -732 -996 -709 0
-1442 -732 -996 -709 0
-1660 -732 -996 -709 0
-732 -1653 -996 -709 0
-1642 -732 -996 -709 0
-732 -1871 -996 -709 0
-732 -1864 -996 -709 0
-1172 -951 -709 -732 0
-1174 -951 -709 -732 0
-1176 -951 -709 -732 0
-1429 -951 -709 -732 0
-1442 -732 -709 -951 0
-1660 -951 -709 -732 0
-732 -951 -709 -1871 0
-1442 -732 -709 -953 0
-953 -732 -709 -1660 0
-1442 -955 -732 -709 0
-2397 -955 -732 -709 0
-1442 -732 -709 -1174 0
-2362 -732 -709 -1174 0
-2397 -732 -709 -1174 0
-1442 -732 -709 -1429 0
-1660 -1429 -709 -732 0
-2397 -1429 -709 -732 0
-1442 -732 -709 -1418 0
-2397 -1418 -709 -732 0
-1442 -732 -709 -1653 0
-1642 -1442 -732 -709 0
-2397 -1660 -709 -732 0
-2362 -732 -709 -1653 0
-2397 -732 -709 -1653 0
-2362 -1642 -732 -709 0
-2397 -1642 -732 -709 0
-2362 -732 -1871 -709 0
-2397 -732 -1871 -709 0
-2362 -732 -1864 -709 0
-2397 -732 -1864 -709 0
-950 -742 -709 -1172 0
-1174 -742 -709 -950 0
-1176 -742 -709 -950 0
-1429 -742 -709 -950 0
-1442 -950 -709 -742 0
-1660 -950 -709 -742 0
-1653 -950 -709 -742 0
-950 -742 -709 -1871 0
-742 -1172 -996 -709 0
-1174 -742 -709 -996 0
-1176 -742 -709 -996 0
-1429 -742 -996 -709 0
-1442 -742 -996 -709 0
-1660 -742 -996 -709 0
-1653 -742 -709 -996 0
-742 -1871 -996 -709 0
-2362 -742 -709 -1172 0
-2397 -1172 -709 -742 0
-1174 -742 -709 -1442 0
-2362 -1174 -742 -709 0
-2397 -1174 -709 -742 0
-2362 -1176 -742 -709 0
-2397 -1176 -709 -742 0
-2362 -1429 -709 -742 0
-1653 -1442 -742 -709 0
-2397 -1442 -742 -709 0
-2397 -1660 -742 -709 0
-2362 -1653 -742 -709 0
-2397 -1653 -709 -742 0
-2362 -742 -1871 -709 0
-2397 -742 -1871 -709 0
-1442 -950 -749 -709 0
-1660 -950 -749 -709 0
-1442 -749 -996 -709 0
-1660 -749 -996 -709 0
-2397 -1442 -749 -709 0
-2397 -1660 -749 -709 0
-1442 -755 -996 -709 0
-2397 -1442 -755 -709 0
-1442 -950 -709 -953 0
-1660 -950 -709 -953 0
-1442 -950 -709 -955 0
-1442 -1162 -950 -709 0
-1162 -950 -1871 -709 0
-1442 -950 -709 -1172 0
-1174 -950 -709 -1442 0
-1429 -1442 -709 -950 0
-1660 -950 -709 -1429 0
-1418 -950 -709 -1442 0
-1660 -950 -709 -1418 0
-950 -1422 -709 -1442 0
-1660 -950 -1422 -709 0
-1653 -1442 -950 -709 0
-1642 -1442 -950 -709 0
-1442 -950 -1647 -709 0
-1442 -951 -996 -709 0
-1660 -951 -996 -709 0
-1442 -953 -996 -709 0
-1660 -953 -996 -709 0
-1442 -955 -996 -709 0
-1162 -1871 -709 -996 0
-1442 -1172 -996 -709 0
-1174 -1442 -996 -709 0
-1429 -1442 -996 -709 0
-1660 -1429 -996 -709 0
-1418 -1442 -709 -996 0
-1660 -1418 -996 -709 0
-1422 -1442 -996 -709 0
-1660 -1422 -996 -709 0
-1653 -1442 -996 -709 0
-1642 -1442 -996 -709 0
-1442 -1647 -996 -709 0
-1176 -951 -709 -1162 0
-1162 -951 -1871 -709 0
-1176 -951 -709 -1171 0
-1429 -1171 -709 -951 0
-1442 -951 -709 -1171 0
-1660 -1171 -709 -951 0
-1653 -1171 -709 -951 0
-1171 -951 -709 -1871 0
-951 -1172 -1226 -709 0
-951 -1174 -1226 -709 0
-1176 -951 -709 -1226 0
-1442 -951 -1226 -709 0
-951 -1660 -1226 -709 0
-1653 -951 -709 -1226 0
-951 -1871 -1226 -709 0
-2362 -951 -709 -1172 0
-2397 -1172 -709 -951 0
-951 -1172 -709 -2419 0
-1442 -951 -709 -1174 0
-2362 -951 -709 -1174 0
-2397 -1174 -709 -951 0
-1174 -951 -709 -2419 0
-2362 -1176 -951 -709 0
-1176 -951 -709 -2397 0
-1176 -951 -709 -2419 0
-2397 -1429 -709 -951 0
-1429 -951 -709 -2419 0
-1442 -951 -709 -1653 0
-2397 -1442 -709 -951 0
-1442 -951 -2419 -709 0
-2397 -951 -709 -1660 0
-951 -1660 -709 -2419 0
-2362 -951 -709 -1653 0
-2397 -1653 -709 -951 0
-1653 -951 -709 -2419 0
-2362 -951 -1871 -709 0
-2397 -951 -709 -1871 0
-951 -2419 -1871 -709 0
-1442 -1162 -709 -953 0
-1660 -1162 -709 -953 0
-1442 -1171 -953 -709 0
-1660 -1171 -709 -953 0
-1442 -953 -1226 -709 0
-953 -1660 -1226 -709 0
-2397 -1442 -953 -709 0
-1442 -953 -2419 -709 0
-2397 -953 -709 -1660 0
-953 -1660 -709 -2419 0
-1442 -1162 -955 -709 0
-1442 -1171 -955 -709 0
-1442 -955 -1226 -709 0
-2397 -1442 -955 -709 0
-1442 -955 -2419 -709 0
-1442 -1162 -709 -1429 0
-1429 -1162 -709 -1660 0
-1418 -1162 -709 -1442 0
-1418 -1162 -709 -1660 0
-1653 -1442 -1162 -709 0
-1642 -1442 -1162 -709 0
-2362 -1162 -1871 -709 0
-2397 -1162 -1871 -709 0
-1429 -1442 -709 -1171 0
-1660 -1171 -709 -1429 0
-1418 -1171 -709 -1442 0
-1418 -1171 -709 -1660 0
-1653 -1442 -1171 -709 0
-1642 -1442 -1171 -709 0
-2362 -1171 -1871 -709 0
-2362 -1171 -1864 -709 0
-1442 -1172 -1226 -709 0
-1442 -1174 -1226 -709 0
-1429 -1442 -1226 -709 0
-1429 -1660 -1226 -709 0
-1418 -1442 -1226 -709 0
-1660 -1418 -1226 -709 0
-1653 -1442 -1226 -709 0
-1642 -1442 -1226 -709 0
-1442 -1172 -1373 -709 0
-2397 -1442 -1172 -709 0
-1442 -1172 -2419 -709 0
-2435 -1442 -1172 -709 0
-1174 -1442 -709 -1373 0
-2397 -1442 -1174 -709 0
-1442 -1174 -2419 -709 0
-2435 -1442 -1174 -709 0
-1429 -1442 -1373 -709 0
-1660 -1429 -709 -1373 0
-1653 -1442 -1373 -709 0
-2397 -1429 -1442 -709 0
-1429 -1442 -2419 -709 0
-2435 -1429 -1442 -709 0
-2397 -1660 -709 -1429 0
-2419 -1660 -709 -1429 0
-2435 -1660 -709 -1429 0
-2397 -1418 -709 -1442 0
-1418 -1442 -709 -2419 0
-2397 -1660 -709 -1418 0
-2419 -1660 -709 -1418 0
-2397 -1422 -709 -1442 0
-2397 -1660 -1422 -709 0
-2397 -1653 -1442 -709 0
-1653 -1442 -2419 -709 0
-2435 -1653 -1442 -709 0
-2397 -1642 -1442 -709 0
-1642 -1442 -2419 -709 0
-2397 -1442 -1647 -709 0
-951 -740 -708 -732 0
-1172 -951 -708 -732 0
-1174 -951 -708 -732 0
-1429 -951 -708 -732 0
-1660 -951 -708 -732 0
-953 -732 -708 -1660 0
-1660 -1429 -708 -732 0
-950 -742 -708 -1172 0
-1429 -742 -708 -950 0
-1429 -1171 -708 -951 0
-1660 -1162 -708 -953 0
-1429 -1162 -708 -1660 0
-1418 -1162 -708 -1660 0
-707 -951 -740 -732 0
-707 -1172 -951 -732 0
-707 -1429 -951 -732 0
-707 -950 -742 -1172 0
-707 -1429 -742 -950 0
-707 -1429 -1171 -951 0
-706 -951 -740 -732 0
-740 -1971 -714 -1369 0
-1943 -740 -1369 -714 0
-2183 -740 -1369 -714 0
-2159 -740 -1369 -714 0
-740 -2395 -1369 -714 0
-740 -2392 -1369 -714 0
-1943 -740 -1370 -714 0
-2159 -740 -1370 -714 0
-740 -2395 -1370 -714 0
-1943 -1444 -740 -714 0
-2183 -1444 -740 -714 0
-1444 -740 -2392 -714 0
-1943 -1446 -740 -714 0
-2159 -1448 -740 -714 0
-2159 -1671 -740 -714 0
-1671 -740 -2392 -714 0
-1943 -1673 -740 -714 0
-2159 -1673 -740 -714 0
-2159 -740 -1675 -714 0
-2159 -1964 -740 -714 0
-2183 -1959 -740 -714 0
-1959 -740 -2392 -714 0
-2183 -1953 -740 -714 0
-740 -2392 -1953 -714 0
-2179 -1943 -740 -714 0
-2174 -1943 -740 -714 0
-738 -1971 -714 -1369 0
-2183 -738 -1369 -714 0
-738 -2395 -1369 -714 0
-738 -2392 -1369 -714 0
-738 -2395 -1370 -714 0
-1671 -1442 -738 -714 0
-1673 -1442 -738 -714 0
-1442 -738 -1675 -714 0
-1964 -1442 -738 -714 0
-2183 -1442 -738 -714 0
-2179 -1442 -738 -714 0
-1442 -738 -2392 -714 0
-2388 -1442 -738 -714 0
-1660 -1444 -738 -714 0
-2183 -1444 -738 -714 0
-1444 -738 -2392 -714 0
-1660 -1446 -738 -714 0
-1660 -1448 -738 -714 0
-1660 -738 -714 -1673 0
-1660 -738 -714 -1675 0
-1964 -1660 -738 -714 0
-1959 -1660 -738 -714 0
-2183 -1660 -738 -714 0
-2179 -1660 -738 -714 0
-2174 -1660 -738 -714 0
-1660 -738 -2392 -714 0
-2388 -1660 -738 -714 0
-2383 -1660 -738 -714 0
-1671 -738 -2392 -714 0
-2183 -1964 -738 -714 0
-1964 -738 -2392 -714 0
-2183 -1959 -738 -714 0
-1959 -738 -2392 -714 0
-2183 -1953 -738 -714 0
-738 -2392 -1953 -714 0
-2183 -737 -1369 -714 0
-1671 -1442 -737 -714 0
-1673 -1442 -737 -714 0
-1964 -1442 -737 -714 0
-2183 -1442 -737 -714 0
-2179 -1442 -737 -714 0
-1660 -1444 -737 -714 0
-2183 -1444 -737 -714 0
-1660 -1446 -737 -714 0
-1660 -737 -714 -1673 0
-1964 -1660 -737 -714 0
-1959 -1660 -737 -714 0
-2183 -1660 -737 -714 0
-2179 -1660 -737 -714 0
-2174 -1660 -737 -714 0
-2183 -1671 -737 -714 0
-2183 -1964 -737 -714 0
-2183 -1959 -737 -714 0
-2183 -1953 -737 -714 0
-1671 -1442 -736 -714 0
-1964 -1442 -736 -714 0
-1660 -1444 -736 -714 0
-1964 -1660 -736 -714 0
-1959 -1660 -736 -714 0
-2183 -1971 -714 -1369 0
-2159 -1971 -714 -1369 0
-2151 -1971 -714 -1369 0
-2362 -1971 -714 -1369 0
-2183 -1943 -1369 -714 0
-2362 -1943 -1369 -714 0
-2183 -1936 -1369 -714 0
-2183 -2395 -1369 -714 0
-2362 -2183 -1369 -714 0
-2159 -2395 -1369 -714 0
-2159 -2392 -1369 -714 0
-2362 -2159 -1369 -714 0
-2151 -2395 -1369 -714 0
-2151 -2392 -1369 -714 0
-2159 -1971 -1370 -714 0
-2151 -1971 -1370 -714 0
-2362 -1971 -1370 -714 0
-2362 -1943 -1370 -714 0
-2159 -2395 -1370 -714 0
-2362 -2159 -1370 -714 0
-2151 -2395 -1370 -714 0
-1671 -1442 -1865 -714 0
-1943 -1442 -714 -1671 0
-1936 -1671 -1442 -714 0
-2159 -1671 -1442 -714 0
-2151 -1671 -1442 -714 0
-1673 -1442 -1971 -714 0
-1943 -1673 -1442 -714 0
-1936 -1673 -1442 -714 0
-2159 -1673 -1442 -714 0
-2151 -1673 -1442 -714 0
-1673 -1442 -2395 -714 0
-2159 -1442 -1675 -714 0
-2151 -1442 -1675 -714 0
-1964 -1442 -1865 -714 0
-1964 -1442 -714 -1936 0
-2183 -1964 -1442 -714 0
-2159 -1964 -1442 -714 0
-2151 -1964 -1442 -714 0
-1964 -1442 -2395 -714 0
-2179 -1442 -1971 -714 0
-2183 -1943 -1442 -714 0
-2179 -1943 -1442 -714 0
-2183 -1936 -1442 -714 0
-2179 -1936 -1442 -714 0
-2179 -1442 -714 -2159 0
-2179 -1442 -714 -2151 0
-2179 -1442 -2395 -714 0
-2388 -2159 -1442 -714 0
-2151 -1442 -2392 -714 0
-2388 -2151 -1442 -714 0
-1660 -1444 -1865 -714 0
-1660 -1444 -1971 -714 0
-1943 -1660 -1444 -714 0
-1936 -1660 -1444 -714 0
-2183 -1660 -1444 -714 0
-2159 -1660 -1444 -714 0
-2151 -1660 -1444 -714 0
-1660 -1444 -2395 -714 0
-1660 -1444 -2392 -714 0
-2183 -1943 -1444 -714 0
-2183 -1936 -1444 -714 0
-2362 -2183 -1444 -714 0
-2151 -1444 -2392 -714 0
-1660 -1446 -1971 -714 0
-1943 -1660 -1446 -714 0
-1936 -1660 -1446 -714 0
-2159 -1660 -1446 -714 0
-2151 -1660 -1446 -714 0
-1660 -1446 -2395 -714 0
-2159 -1660 -1448 -714 0
-2151 -1660 -1448 -714 0
-1660 -1671 -714 -1865 0
-1943 -1660 -714 -1671 0
-1936 -1660 -714 -1671 0
-2151 -1660 -714 -1671 0
-1660 -1971 -714 -1673 0
-1943 -1660 -714 -1673 0
-1936 -1660 -714 -1673 0
-2159 -1660 -714 -1673 0
-2151 -1660 -714 -1673 0
-1660 -2395 -714 -1673 0
-2159 -1660 -714 -1675 0
-2151 -1660 -714 -1675 0
-1964 -1660 -1865 -714 0
-1959 -1660 -1865 -714 0
-1964 -1660 -714 -1943 0
-1964 -1660 -714 -1936 0
-2159 -1964 -1660 -714 0
-2151 -1964 -1660 -714 0
-1964 -1660 -2395 -714 0
-1959 -1660 -714 -1943 0
-1959 -1660 -714 -1936 0
-2183 -1959 -1660 -714 0
-2159 -1959 -1660 -714 0
-2151 -1959 -1660 -714 0
-1959 -1660 -2395 -714 0
-1959 -1660 -2392 -714 0
-2179 -1660 -1971 -714 0
-2174 -1660 -714 -1971 0
-2183 -1943 -1660 -714 0
-2179 -1943 -1660 -714 0
-2174 -1943 -1660 -714 0
-2183 -1936 -1660 -714 0
-2179 -1936 -1660 -714 0
-2174 -1936 -1660 -714 0
-2183 -1660 -714 -2151 0
-2183 -1660 -2395 -714 0
-2179 -1660 -714 -2159 0
-2179 -1660 -714 -2151 0
-2174 -1660 -714 -2159 0
-2174 -1660 -714 -2151 0
-2174 -1660 -2395 -714 0
-2388 -2159 -1660 -714 0
-2383 -2159 -1660 -714 0
-2151 -1660 -2392 -714 0
-2388 -2151 -1660 -714 0
-2383 -2151 -1660 -714 0
-2183 -1936 -1671 -714 0
-2151 -1671 -2392 -714 0
-2183 -1964 -714 -1943 0
-2183 -1964 -714 -1936 0
-2183 -1964 -2395 -714 0
-2362 -2183 -1964 -714 0
-2151 -1964 -2392 -714 0
-2362 -1964 -2395 -714 0
-2183 -1959 -714 -1943 0
-2183 -1959 -714 -1936 0
-2183 -1959 -2395 -714 0
-2362 -2183 -1959 -714 0
-2151 -1959 -2392 -714 0
-2183 -1953 -714 -1943 0
-2183 -1953 -714 -1936 0
-2183 -1953 -2395 -714 0
-2362 -2183 -1953 -714 0
-2151 -2392 -1953 -714 0
-2179 -1971 -714 -2151 0
-2362 -2179 -2395 -714 0
-1172 -951 -740 -732 0
-1174 -951 -740 -732 0
-1176 -951 -740 -732 0
-951 -740 -1178 -732 0
-951 -740 -1180 -732 0
-1182 -951 -740 -732 0
-1163 -951 -740 -732 0
-1367 -951 -740 -732 0
-1368 -951 -740 -732 0
-951 -740 -1369 -732 0
-951 -740 -1370 -732 0
-1371 -951 -740 -732 0
-1366 -951 -740 -732 0
-1429 -951 -740 -732 0
-1442 -951 -740 -732 0
-1444 -951 -740 -732 0
-1446 -951 -740 -732 0
-1448 -951 -740 -732 0
-951 -740 -1423 -732 0
-1660 -951 -740 -732 0
-1653 -951 -740 -732 0
-1671 -951 -740 -732 0
-1673 -951 -740 -732 0
-951 -740 -1675 -732 0
-951 -740 -1648 -732 0
-1875 -951 -740 -732 0
-1874 -951 -740 -732 0
-951 -740 -1871 -732 0
-1876 -951 -740 -732 0
-1877 -951 -740 -732 0
-1869 -951 -740 -732 0
-1964 -951 -740 -732 0
-1959 -951 -740 -732 0
-951 -740 -1953 -732 0
-951 -740 -1946 -732 0
-951 -740 -1971 -732 0
-1943 -951 -740 -732 0
-2183 -951 -740 -732 0
-2179 -951 -740 -732 0
-2174 -951 -740 -732 0
-2168 -951 -740 -732 0
-2161 -951 -740 -732 0
-2159 -951 -740 -732 0
-951 -740 -2395 -732 0
-951 -740 -2392 -732 0
-2388 -951 -740 -732 0
-2383 -951 -740 -732 0
-951 -740 -2377 -732 0
-2370 -951 -740 -732 0
-953 -740 -1370 -732 0
-1448 -953 -740 -732 0
-2383 -953 -740 -732 0
-953 -740 -2377 -732 0
-1448 -955 -740 -732 0
-2174 -955 -740 -732 0
-2383 -955 -740 -732 0
-1172 -732 -1370 -740 0
-1448 -1174 -740 -732 0
-2383 -1174 -740 -732 0
-1418 -732 -1370 -740 0
-1418 -740 -2377 -732 0
-1653 -1448 -740 -732 0
-1642 -1448 -740 -732 0
-2383 -1653 -740 -732 0
-2174 -1642 -740 -732 0
-2383 -1642 -740 -732 0
-2179 -740 -1871 -732 0
-1444 -1172 -740 -950 0
-1959 -1172 -740 -950 0
-1642 -1444 -950 -740 0
-1171 -951 -740 -1172 0
-1174 -951 -740 -1171 0
-1176 -951 -740 -1171 0
-1171 -951 -740 -1178 0
-951 -740 -1180 -1171 0
-1182 -951 -740 -1171 0
-1172 -740 -1370 -951 0
-2183 -1429 -740 -951 0
-1429 -740 -2392 -951 0
-951 -2392 -1946 -740 0
-1448 -1171 -955 -740 0
-2383 -955 -740 -1171 0
-1673 -1162 -1871 -740 0
-1653 -1448 -740 -1171 0
-1642 -1448 -740 -1171 0
-2383 -1653 -740 -1171 0
-2383 -1642 -740 -1171 0
-1446 -1174 -740 -2159 0
-1653 -1446 -740 -2159 0
-1943 -1671 -740 -1653 0
-1943 -1671 -1871 -740 0
-2183 -740 -1864 -1964 0
-950 -955 -738 -732 0
-957 -950 -738 -732 0
-959 -950 -738 -732 0
-950 -961 -738 -732 0
-963 -950 -738 -732 0
-1174 -950 -738 -732 0
-1176 -950 -738 -732 0
-950 -738 -1178 -732 0
-950 -738 -1180 -732 0
-1182 -950 -738 -732 0
-1367 -950 -738 -732 0
-1368 -950 -738 -732 0
-950 -738 -1369 -732 0
-950 -738 -1370 -732 0
-1371 -950 -738 -732 0
-1442 -950 -738 -732 0
-1444 -950 -738 -732 0
-1446 -950 -738 -732 0
-1448 -950 -738 -732 0
-1660 -950 -738 -732 0
-1653 -950 -738 -732 0
-1642 -950 -738 -732 0
-1671 -950 -738 -732 0
-1673 -950 -738 -732 0
-950 -738 -1675 -732 0
-1875 -950 -738 -732 0
-1874 -950 -738 -732 0
-950 -738 -1871 -732 0
-950 -738 -1864 -732 0
-1964 -950 -738 -732 0
-1959 -950 -738 -732 0
-950 -738 -1953 -732 0
-950 -738 -1946 -732 0
-1935 -950 -738 -732 0
-2179 -950 -738 -732 0
-2174 -950 -738 -732 0
-2168 -950 -738 -732 0
-2161 -950 -738 -732 0
-2150 -950 -738 -732 0
-2388 -950 -738 -732 0
-2383 -950 -738 -732 0
-950 -738 -2377 -732 0
-2370 -950 -738 -732 0
-2361 -950 -738 -732 0
-1172 -951 -738 -732 0
-1174 -951 -738 -732 0
-951 -738 -1369 -732 0
-951 -738 -1370 -732 0
-1429 -951 -738 -732 0
-1660 -951 -738 -732 0
-953 -738 -1370 -732 0
-1448 -953 -738 -732 0
-1660 -953 -732 -738 0
-1446 -955 -738 -732 0
-1448 -955 -738 -732 0
-2183 -955 -732 -738 0
-2179 -955 -738 -732 0
-2174 -955 -738 -732 0
-955 -732 -2392 -738 0
-2383 -955 -732 -738 0
-2183 -957 -732 -738 0
-957 -732 -2392 -738 0
-1172 -738 -1370 -732 0
-1446 -1174 -738 -732 0
-1448 -1174 -738 -732 0
-1673 -1174 -738 -732 0
-2179 -1174 -738 -732 0
-2174 -1174 -738 -732 0
-2383 -1174 -738 -732 0
-2183 -1176 -732 -738 0
-1176 -732 -2392 -738 0
-2183 -732 -1178 -738 0
-732 -2392 -1178 -738 0
-1429 -738 -1370 -732 0
-1418 -738 -1370 -732 0
-1660 -1429 -738 -732 0
-1448 -1418 -738 -732 0
-2383 -1418 -738 -732 0
-1653 -1446 -738 -732 0
-1642 -1446 -738 -732 0
-1653 -1448 -738 -732 0
-1642 -1448 -738 -732 0
-1673 -1653 -738 -732 0
-2183 -1653 -738 -732 0
-2179 -1653 -738 -732 0
-2174 -1653 -738 -732 0
-1653 -738 -2392 -732 0
-2383 -1653 -738 -732 0
-1673 -1642 -738 -732 0
-2183 -1642 -732 -738 0
-2179 -1642 -738 -732 0
-2174 -1642 -738 -732 0
-1642 -732 -2392 -738 0
-2383 -1642 -732 -738 0
-2183 -1671 -732 -738 0
-1673 -738 -1871 -732 0
-1673 -732 -1864 -738 0
-732 -1871 -1675 -738 0
-732 -1864 -1675 -738 0
-2183 -732 -1871 -738 0
-2179 -738 -1871 -732 0
-738 -2392 -1871 -732 0
-2388 -738 -1871 -732 0
-2183 -732 -1864 -738 0
-2179 -732 -1864 -738 0
-732 -2392 -1864 -738 0
-2388 -732 -1864 -738 0
-2183 -738 -1946 -732 0
-732 -2392 -1946 -738 0
-1935 -732 -2392 -738 0
-950 -1172 -742 -738 0
-950 -742 -1369 -738 0
-950 -742 -1370 -738 0
-1429 -950 -742 -738 0
-2183 -950 -742 -738 0
-1172 -742 -1370 -738 0
-1446 -1174 -738 -742 0
-1174 -1448 -742 -738 0
-1673 -1174 -738 -742 0
-1174 -2179 -742 -738 0
-2174 -1174 -738 -742 0
-2383 -1174 -738 -742 0
-1673 -1176 -738 -742 0
-1176 -2179 -742 -738 0
-1429 -738 -1370 -742 0
-1653 -1446 -738 -742 0
-1653 -1448 -742 -738 0
-1673 -1653 -742 -738 0
-1653 -2179 -742 -738 0
-2174 -1653 -738 -742 0
-2383 -1653 -738 -742 0
-1673 -738 -1871 -742 0
-2179 -742 -1871 -738 0
-950 -749 -1369 -738 0
-950 -749 -1370 -738 0
-1444 -950 -749 -738 0
-1959 -950 -749 -738 0
-950 -749 -1953 -738 0
-2183 -950 -749 -738 0
-950 -749 -2392 -738 0
-2383 -950 -749 -738 0
-950 -749 -2377 -738 0
-1442 -950 -755 -738 0
-1444 -950 -755 -738 0
-1446 -950 -755 -738 0
-1448 -950 -755 -738 0
-1959 -950 -755 -738 0
-2183 -950 -755 -738 0
-2174 -950 -755 -738 0
-950 -755 -2392 -738 0
-2383 -950 -755 -738 0
-2183 -950 -738 -760 0
-950 -760 -2392 -738 0
-2183 -950 -738 -764 0
-950 -764 -2392 -738 0
-2183 -951 -950 -738 0
-951 -950 -2392 -738 0
-2183 -953 -738 -950 0
-950 -738 -2392 -953 0
-2183 -955 -738 -950 0
-950 -738 -2392 -955 0
-2183 -957 -738 -950 0
-957 -738 -2392 -950 0
-2183 -738 -959 -950 0
-738 -2392 -959 -950 0
-1172 -738 -1369 -950 0
-950 -738 -1370 -1172 0
-1448 -1172 -738 -950 0
-2183 -950 -738 -1172 0
-950 -738 -2392 -1172 0
-2383 -1172 -738 -950 0
-1172 -738 -2377 -950 0
-1444 -1174 -950 -738 0
-1446 -1174 -738 -950 0
-1448 -1174 -738 -950 0
-1959 -1174 -738 -950 0
-2183 -1174 -738 -950 0
-2174 -1174 -738 -950 0
-1174 -950 -2392 -738 0
-2383 -1174 -738 -950 0
-2183 -1176 -738 -950 0
-1176 -950 -2392 -738 0
-2183 -950 -1178 -738 0
-950 -2392 -1178 -738 0
-1429 -738 -1369 -950 0
-1418 -950 -1369 -738 0
-950 -1422 -1369 -738 0
-1429 -738 -1370 -950 0
-1418 -950 -1370 -738 0
-950 -1370 -1422 -738 0
-2183 -1429 -738 -950 0
-1429 -738 -2392 -950 0
-2383 -1429 -738 -950 0
-1444 -950 -738 -1418 0
-1446 -950 -738 -1418 0
-1448 -950 -738 -1418 0
-1418 -950 -1953 -738 0
-2183 -1418 -950 -738 0
-2174 -1418 -950 -738 0
-1418 -950 -2392 -738 0
-2383 -1418 -950 -738 0
-1418 -738 -2377 -950 0
-950 -738 -1422 -1446 0
-1448 -950 -738 -1422 0
-950 -1953 -1422 -738 0
-2183 -950 -1422 -738 0
-2174 -950 -1422 -738 0
-950 -2392 -1422 -738 0
-2383 -738 -1422 -950 0
-1653 -1444 -738 -950 0
-1642 -1444 -738 -950 0
-1444 -950 -1647 -738 0
-1653 -1446 -738 -950 0
-1642 -1446 -738 -950 0
-1446 -738 -1647 -950 0
-1653 -1448 -738 -950 0
-1642 -1448 -738 -950 0
-1448 -738 -1647 -950 0
-1959 -1653 -738 -950 0
-2183 -1653 -738 -950 0
-2174 -1653 -738 -950 0
-1653 -950 -2392 -738 0
-2383 -1653 -738 -950 0
-1959 -1642 -738 -950 0
-2183 -1642 -738 -950 0
-2174 -1642 -738 -950 0
-1642 -950 -2392 -738 0
-2383 -1642 -738 -950 0
-1959 -738 -1647 -950 0
-2183 -950 -1647 -738 0
-2174 -1647 -738 -950 0
-950 -2392 -1647 -738 0
-2383 -738 -1647 -950 0
-1671 -738 -1871 -950 0
-1673 -738 -1871 -950 0
-1673 -738 -1864 -950 0
-950 -1871 -1675 -738 0
-950 -1864 -1675 -738 0
-1964 -950 -1871 -738 0
-2183 -738 -1871 -950 0
-2179 -738 -1871 -950 0
-738 -2392 -1871 -950 0
-2388 -738 -1871 -950 0
-2183 -738 -1864 -950 0
-2179 -950 -1864 -738 0
-950 -2392 -1864 -738 0
-2388 -738 -1864 -950 0
-2183 -738 -1946 -950 0
-950 -2392 -1946 -738 0
-2183 -1935 -950 -738 0
-1935 -950 -2392 -738 0
-2183 -1942 -950 -738 0
-1942 -950 -2392 -738 0
-1171 -738 -1369 -951 0
-1171 -738 -1370 -951 0
-1429 -1171 -738 -951 0
-951 -738 -1370 -1172 0
-1446 -1174 -738 -951 0
-1448 -951 -738 -1174 0
-1673 -1174 -738 -951 0
-1174 -738 -1675 -951 0
-2183 -951 -738 -1174 0
-2174 -1174 -738 -951 0
-951 -738 -2392 -1174 0
-2388 -1174 -738 -951 0
-2383 -1174 -738 -951 0
-1176 -738 -1675 -951 0
-1176 -951 -2392 -738 0
-2388 -1176 -738 -951 0
-1429 -738 -1370 -951 0
-1429 -738 -2392 -951 0
-1653 -1446 -738 -951 0
-1653 -1448 -738 -951 0
-1673 -951 -738 -1653 0
-951 -738 -1675 -1653 0
-2183 -1653 -738 -951 0
-2179 -1653 -738 -951 0
-2174 -1653 -738 -951 0
-951 -738 -2392 -1653 0
-2388 -1653 -738 -951 0
-2383 -1653 -738 -951 0
-1673 -951 -1871 -738 0
-951 -738 -1871 -1675 0
-2183 -951 -1871 -738 0
-951 -738 -1871 -2179 0
-951 -738 -2392 -1871 0
-2388 -738 -1871 -951 0
-951 -2392 -1946 -738 0
-953 -738 -1370 -1162 0
-1660 -1162 -738 -953 0
-953 -738 -1369 -1171 0
-953 -738 -1370 -1171 0
-1444 -1171 -953 -738 0
-1959 -1171 -953 -738 0
-953 -738 -1953 -1171 0
-1446 -1162 -738 -955 0
-1448 -955 -738 -1162 0
-2174 -1162 -738 -955 0
-2383 -955 -738 -1162 0
-1444 -1171 -955 -738 0
-1446 -955 -738 -1171 0
-1448 -955 -738 -1171 0
-1959 -1171 -955 -738 0
-2183 -955 -738 -1171 0
-2179 -955 -738 -1171 0
-2174 -1171 -955 -738 0
-1171 -955 -2392 -738 0
-2383 -1171 -955 -738 0
-2183 -957 -738 -1171 0
-1171 -957 -738 -2179 0
-1171 -957 -2392 -738 0
-2183 -738 -959 -1171 0
-1171 -2392 -959 -738 0
-1162 -738 -1370 -1429 0
-1162 -738 -1370 -1418 0
-1429 -1162 -738 -1660 0
-1418 -1162 -738 -1660 0
-1446 -1162 -738 -1653 0
-1642 -1446 -738 -1162 0
-1653 -1162 -738 -1448 0
-1642 -1448 -738 -1162 0
-2174 -1162 -738 -1653 0
-2383 -1162 -738 -1653 0
-2174 -1162 -738 -1642 0
-2383 -1162 -738 -1642 0
-1673 -1162 -738 -1871 0
-1162 -1871 -1675 -738 0
-1162 -738 -1871 -2183 0
-1162 -738 -1871 -2179 0
-1162 -738 -1871 -2392 0
-2388 -1162 -738 -1871 0
-1171 -738 -1370 -1172 0
-2183 -1176 -738 -1171 0
-1176 -738 -2392 -1171 0
-2183 -1171 -738 -1178 0
-1171 -738 -2392 -1178 0
-1171 -738 -1369 -1429 0
-1418 -1171 -738 -1369 0
-1429 -738 -1370 -1171 0
-1418 -1171 -1370 -738 0
-1444 -1171 -738 -1429 0
-1959 -1171 -738 -1429 0
-1429 -738 -1953 -1171 0
-1444 -1171 -738 -1418 0
-1959 -1418 -738 -1171 0
-1653 -1444 -1171 -738 0
-1642 -1444 -1171 -738 0
-1653 -1446 -738 -1171 0
-1642 -1446 -738 -1171 0
-1653 -1171 -738 -1448 0
-1642 -1448 -738 -1171 0
-1959 -1653 -738 -1171 0
-2183 -1653 -738 -1171 0
-2174 -1653 -738 -1171 0
-1653 -1171 -2392 -738 0
-2383 -1653 -738 -1171 0
-1673 -1171 -738 -1642 0
-1959 -1642 -1171 -738 0
-2183 -1642 -738 -1171 0
-2174 -1642 -1171 -738 0
-1642 -1171 -2392 -738 0
-2383 -1642 -1171 -738 0
-1671 -1171 -1871 -738 0
-1673 -1171 -1871 -738 0
-1171 -738 -1864 -1673 0
-1171 -738 -1675 -1871 0
-1171 -1864 -1675 -738 0
-1171 -738 -1871 -1964 0
-1171 -738 -1871 -2183 0
-1171 -738 -1871 -2179 0
-1171 -738 -2392 -1871 0
-2388 -1171 -1871 -738 0
-1171 -738 -1864 -2183 0
-1171 -738 -1864 -2179 0
-1171 -2392 -1864 -738 0
-2388 -738 -1864 -1171 0
-2183 -1171 -738 -1946 0
-1171 -738 -2392 -1946 0
-2183 -1935 -738 -1171 0
-1935 -1171 -2392 -738 0
-1660 -1418 -738 -1671 0
-1964 -738 -1864 -2183 0
-950 -737 -1370 -732 0
-1172 -951 -737 -732 0
-1174 -951 -737 -732 0
-951 -737 -1370 -732 0
-1429 -951 -737 -732 0
-1660 -951 -737 -732 0
-953 -737 -1370 -732 0
-953 -1660 -737 -732 0
-1446 -955 -737 -732 0
-955 -1673 -737 -732 0
-2183 -955 -732 -737 0
-2174 -955 -737 -732 0
-957 -2183 -737 -732 0
-2183 -737 -959 -732 0
-1172 -737 -1370 -732 0
-1446 -1174 -737 -732 0
-1673 -1174 -737 -732 0
-2179 -1174 -737 -732 0
-2174 -1174 -737 -732 0
-1176 -2183 -737 -732 0
-2183 -737 -1178 -732 0
-1429 -737 -1370 -732 0
-1418 -737 -1370 -732 0
-1660 -1429 -737 -732 0
-1446 -1653 -737 -732 0
-1642 -1446 -737 -732 0
-1673 -1653 -737 -732 0
-2183 -1653 -737 -732 0
-2179 -1653 -737 -732 0
-2174 -1653 -737 -732 0
-1642 -1673 -737 -732 0
-2183 -1642 -732 -737 0
-2179 -1642 -737 -732 0
-2174 -1642 -737 -732 0
-1673 -737 -1871 -732 0
-1673 -737 -1864 -732 0
-2183 -737 -1871 -732 0
-2179 -737 -1871 -732 0
-2183 -737 -1864 -732 0
-2179 -737 -1864 -732 0
-2183 -737 -1946 -732 0
-1935 -2183 -737 -732 0
-950 -1172 -742 -737 0
-950 -742 -1369 -737 0
-950 -742 -1370 -737 0
-1429 -950 -742 -737 0
-2183 -950 -742 -737 0
-1172 -742 -1370 -737 0
-1446 -1174 -737 -742 0
-1673 -1174 -742 -737 0
-2179 -1174 -742 -737 0
-2174 -1174 -742 -737 0
-1176 -1673 -742 -737 0
-2179 -1176 -742 -737 0
-1429 -737 -1370 -742 0
-1653 -1446 -737 -742 0
-1673 -1653 -742 -737 0
-2179 -1653 -742 -737 0
-1653 -2174 -742 -737 0
-1673 -742 -1871 -737 0
-2179 -742 -1871 -737 0
-950 -737 -1369 -749 0
-950 -737 -1370 -749 0
-1444 -950 -749 -737 0
-1446 -950 -737 -749 0
-1959 -950 -749 -737 0
-2183 -950 -737 -749 0
-2174 -950 -749 -737 0
-2168 -950 -749 -737 0
-1442 -950 -755 -737 0
-1444 -950 -737 -755 0
-1446 -950 -755 -737 0
-1959 -950 -755 -737 0
-2183 -950 -755 -737 0
-950 -2174 -755 -737 0
-950 -2183 -737 -760 0
-950 -764 -737 -2183 0
-951 -950 -737 -2183 0
-2183 -950 -737 -953 0
-2183 -950 -737 -955 0
-2183 -957 -737 -950 0
-2183 -737 -959 -950 0
-1162 -737 -1370 -950 0
-1172 -737 -1369 -950 0
-1172 -737 -1370 -950 0
-1446 -1172 -737 -950 0
-2183 -1172 -737 -950 0
-2174 -1172 -737 -950 0
-2168 -1172 -737 -950 0
-1444 -950 -737 -1174 0
-1446 -1174 -737 -950 0
-1959 -1174 -737 -950 0
-1174 -950 -737 -2183 0
-2174 -1174 -950 -737 0
-1176 -950 -737 -2183 0
-950 -737 -1178 -2183 0
-950 -737 -1369 -1429 0
-1418 -950 -737 -1369 0
-950 -737 -1369 -1422 0
-1429 -737 -1370 -950 0
-1418 -737 -1370 -950 0
-737 -1370 -1422 -950 0
-1444 -950 -737 -1429 0
-1429 -950 -737 -1446 0
-1959 -1429 -737 -950 0
-1429 -737 -1953 -950 0
-2183 -1429 -737 -950 0
-2174 -1429 -737 -950 0
-2168 -1429 -737 -950 0
-1444 -950 -737 -1418 0
-1446 -950 -737 -1418 0
-1959 -1418 -950 -737 0
-1418 -950 -1953 -737 0
-1418 -950 -737 -2183 0
-1418 -950 -737 -2174 0
-2168 -1418 -737 -950 0
-1444 -950 -737 -1422 0
-950 -737 -1422 -1446 0
-1959 -950 -1422 -737 0
-737 -1953 -1422 -950 0
-950 -737 -1422 -2183 0
-950 -737 -1422 -2174 0
-2168 -737 -1422 -950 0
-1444 -950 -737 -1653 0
-1642 -1444 -950 -737 0
-1444 -950 -1647 -737 0
-1653 -1446 -737 -950 0
-1642 -1446 -737 -950 0
-1446 -950 -1647 -737 0
-1959 -1653 -950 -737 0
-1653 -950 -737 -2183 0
-1653 -950 -737 -2174 0
-1959 -1642 -950 -737 0
-1642 -950 -737 -2183 0
-2174 -1642 -737 -950 0
-1959 -950 -1647 -737 0
-950 -737 -1647 -2183 0
-2174 -1647 -950 -737 0
-1671 -950 -737 -1871 0
-950 -737 -1871 -1673 0
-950 -737 -1864 -1673 0
-950 -737 -1871 -1964 0
-950 -737 -1871 -2183 0
-950 -737 -1871 -2179 0
-950 -737 -1864 -2183 0
-2179 -950 -1864 -737 0
-950 -737 -1946 -2183 0
-951 -737 -1370 -1171 0
-1429 -1171 -737 -951 0
-951 -737 -1370 -1172 0
-1446 -951 -737 -1174 0
-1673 -951 -737 -1174 0
-2183 -951 -737 -1174 0
-2174 -951 -737 -1174 0
-1176 -951 -737 -2183 0
-2183 -951 -1178 -737 0
-1653 -1446 -737 -951 0
-1673 -951 -737 -1653 0
-2183 -951 -737 -1653 0
-2179 -951 -737 -1653 0
-2174 -951 -737 -1653 0
-951 -737 -1871 -1673 0
-951 -737 -1871 -2183 0
-951 -737 -1871 -2179 0
-2183 -1964 -951 -737 0
-951 -737 -1946 -2183 0
-953 -737 -1370 -1162 0
-1660 -1162 -737 -953 0
-953 -737 -1369 -1171 0
-953 -737 -1370 -1171 0
-1444 -1171 -737 -953 0
-1446 -953 -737 -1171 0
-1959 -1171 -953 -737 0
-953 -737 -1953 -1171 0
-1171 -953 -737 -2174 0
-2168 -953 -737 -1171 0
-1446 -1162 -737 -955 0
-2174 -1162 -737 -955 0
-1444 -1171 -955 -737 0
-1446 -955 -737 -1171 0
-1171 -955 -737 -1959 0
-1171 -955 -737 -2183 0
-2174 -955 -737 -1171 0
-2183 -957 -737 -1171 0
-2179 -1171 -957 -737 0
-2183 -737 -959 -1171 0
-1429 -737 -1370 -1162 0
-1418 -737 -1370 -1162 0
-1429 -1162 -737 -1660 0
-1418 -1162 -737 -1660 0
-1446 -1162 -737 -1653 0
-1642 -1446 -737 -1162 0
-2174 -1162 -737 -1653 0
-2174 -1162 -737 -1642 0
-1162 -737 -1871 -1673 0
-1162 -737 -1871 -2183 0
-1162 -737 -1871 -2179 0
-1171 -737 -1370 -1172 0
-2183 -1176 -737 -1171 0
-2183 -737 -1178 -1171 0
-1171 -737 -1369 -1429 0
-1418 -1171 -737 -1369 0
-1429 -737 -1370 -1171 0
-1418 -737 -1370 -1171 0
-1446 -1171 -737 -1429 0
-2168 -1429 -737 -1171 0
-1444 -1171 -737 -1418 0
-1446 -1171 -737 -1418 0
-1418 -1171 -1953 -737 0
-1418 -1171 -737 -2174 0
-2168 -1418 -737 -1171 0
-1444 -1171 -737 -1653 0
-1642 -1444 -1171 -737 0
-1653 -1446 -737 -1171 0
-1642 -1446 -737 -1171 0
-1653 -1171 -737 -1959 0
-2183 -1653 -737 -1171 0
-2179 -1171 -737 -1653 0
-1653 -1171 -737 -2174 0
-1959 -1642 -1171 -737 0
-2183 -1642 -737 -1171 0
-1642 -1171 -737 -2174 0
-1671 -1171 -737 -1871 0
-1673 -1171 -737 -1871 0
-1171 -737 -1864 -1673 0
-1171 -737 -1871 -1964 0
-1171 -737 -1871 -2183 0
-2179 -1171 -737 -1871 0
-1171 -737 -1864 -2183 0
-2179 -1171 -737 -1864 0
-1171 -737 -1946 -2183 0
-2183 -1935 -737 -1171 0
-1660 -1418 -737 -1671 0
-2183 -1964 -1864 -737 0
-1172 -951 -736 -732 0
-1174 -951 -736 -732 0
-1429 -951 -736 -732 0
-1660 -951 -736 -732 0
-953 -1660 -732 -736 0
-1660 -1429 -736 -732 0
-950 -1172 -736 -742 0
-1429 -950 -736 -742 0
-950 -736 -1369 -749 0
-1444 -950 -736 -749 0
-1959 -950 -736 -749 0
-950 -736 -1953 -749 0
-1442 -950 -736 -755 0
-1444 -950 -736 -755 0
-1959 -950 -736 -755 0
-1172 -736 -1369 -950 0
-1444 -950 -736 -1172 0
-1959 -1172 -736 -950 0
-950 -736 -1953 -1172 0
-1444 -950 -736 -1174 0
-1959 -1174 -736 -950 0
-950 -736 -1369 -1429 0
-1418 -950 -736 -1369 0
-950 -736 -1369 -1422 0
-1444 -950 -736 -1429 0
-1959 -1429 -736 -950 0
-1429 -736 -1953 -950 0
-1444 -950 -736 -1418 0
-1959 -1418 -736 -950 0
-1418 -736 -1953 -950 0
-1444 -950 -736 -1422 0
-1959 -736 -1422 -950 0
-736 -1953 -1422 -950 0
-1444 -950 -736 -1653 0
-1642 -1444 -736 -950 0
-1444 -736 -1647 -950 0
-1959 -1653 -736 -950 0
-1959 -1642 -736 -950 0
-1959 -736 -1647 -950 0
-1671 -950 -1871 -736 0
-1964 -950 -736 -1871 0
-1429 -1171 -736 -951 0
-1660 -1162 -736 -953 0
-953 -736 -1369 -1171 0
-1444 -1171 -736 -953 0
-1959 -1171 -736 -953 0
-953 -736 -1953 -1171 0
-1444 -1171 -736 -955 0
-1171 -955 -736 -1959 0
-1429 -1162 -736 -1660 0
-1418 -1162 -736 -1660 0
-1171 -736 -1369 -1429 0
-1418 -1171 -736 -1369 0
-1444 -1171 -736 -1429 0
-1959 -1429 -736 -1171 0
-1429 -736 -1953 -1171 0
-1444 -1171 -736 -1418 0
-1418 -1171 -736 -1959 0
-1418 -736 -1953 -1171 0
-1444 -1171 -736 -1653 0
-1444 -1171 -736 -1642 0
-1653 -1171 -736 -1959 0
-1642 -1171 -736 -1959 0
-1671 -1171 -1871 -736 0
-1964 -736 -1871 -1171 0
-1660 -1418 -736 -1671 0
-1172 -951 -735 -732 0
-1174 -951 -735 -732 0
-1429 -951 -735 -732 0
-1660 -951 -735 -732 0
-953 -1660 -735 -732 0
-1660 -1429 -735 -732 0
-950 -1172 -735 -742 0
-1429 -950 -735 -742 0
-1429 -1171 -735 -951 0
-1660 -1162 -735 -953 0
-1429 -1162 -735 -1660 0
-1418 -1162 -735 -1660 0
-1172 -951 -734 -732 0
-1174 -951 -734 -732 0
-1429 -951 -734 -732 0
-1660 -951 -734 -732 0
-953 -1660 -732 -734 0
-1660 -1429 -734 -732 0
-950 -1172 -742 -734 0
-1429 -950 -742 -734 0
-1429 -1171 -734 -951 0
-1660 -1162 -734 -953 0
-1429 -1162 -734 -1660 0
-1418 -1162 -734 -1660 0
-731 -1172 -951 -732 0
-731 -1429 -951 -732 0
-731 -950 -742 -1172 0
-1429 -950 -742 -731 0
-731 -1429 -1171 -951 0
-2183 -1943 -732 -950 0
-732 -1370 -996 -953 0
-732 -2392 -996 -953 0
-2183 -732 -959 -996 0
-732 -2392 -959 -996 0
-1172 -1370 -996 -732 0
-1448 -1174 -996 -732 0
-2383 -1174 -996 -732 0
-2183 -1176 -732 -996 0
-1176 -732 -2392 -996 0
-2183 -732 -1178 -996 0
-732 -2392 -1178 -996 0
-732 -2183 -996 -1369 0
-732 -2392 -996 -1369 0
-732 -1370 -996 -1418 0
-732 -1370 -996 -1943 0
-2183 -732 -996 -1418 0
-2183 -732 -996 -1444 0
-1444 -732 -996 -2392 0
-1653 -1448 -996 -732 0
-2383 -1653 -996 -732 0
-2179 -1642 -996 -732 0
-2174 -1642 -996 -732 0
-2183 -1671 -732 -996 0
-732 -2392 -996 -1671 0
-1964 -732 -996 -2183 0
-1959 -732 -996 -2183 0
-1959 -732 -2392 -996 0
-2183 -732 -996 -1953 0
-732 -1953 -996 -2392 0
-2183 -732 -996 -1946 0
-732 -2392 -1946 -996 0
-2183 -1935 -732 -996 0
-1935 -732 -2392 -996 0
-1174 -951 -732 -994 0
-951 -732 -1369 -994 0
-951 -732 -1370 -994 0
-1660 -951 -732 -994 0
-732 -1370 -994 -953 0
-1448 -732 -994 -953 0
-1660 -732 -994 -953 0
-2183 -732 -994 -953 0
-732 -2395 -994 -953 0
-2383 -732 -994 -953 0
-732 -2377 -994 -953 0
-1446 -955 -732 -994 0
-1448 -955 -732 -994 0
-1671 -732 -994 -955 0
-1673 -732 -994 -955 0
-1964 -732 -994 -955 0
-955 -732 -1971 -994 0
-2183 -732 -994 -955 0
-2179 -955 -732 -994 0
-2174 -955 -732 -994 0
-732 -2395 -994 -955 0
-732 -2392 -994 -955 0
-2383 -955 -732 -994 0
-1673 -957 -732 -994 0
-957 -732 -1971 -994 0
-2183 -957 -732 -994 0
-2179 -957 -732 -994 0
-957 -732 -2395 -994 0
-732 -2392 -994 -957 0
-732 -1971 -959 -994 0
-2183 -732 -994 -959 0
-732 -2395 -994 -959 0
-732 -2392 -994 -959 0
-1172 -1370 -994 -732 0
-1446 -1174 -994 -732 0
-1448 -1174 -994 -732 0
-1673 -1174 -994 -732 0
-2174 -732 -994 -1174 0
-2383 -732 -994 -1174 0
-732 -2392 -994 -1369 0
-1429 -1370 -994 -732 0
-1418 -1370 -994 -732 0
-1660 -1429 -994 -732 0
-1448 -732 -994 -1418 0
-2383 -1418 -994 -732 0
-1418 -2377 -994 -732 0
-1442 -1675 -994 -732 0
-1446 -732 -994 -1660 0
-1653 -1446 -994 -732 0
-1642 -1446 -994 -732 0
-1660 -1448 -994 -732 0
-1653 -1448 -994 -732 0
-1642 -1448 -994 -732 0
-1660 -732 -994 -1675 0
-2174 -1660 -994 -732 0
-2383 -1660 -994 -732 0
-1673 -732 -994 -1653 0
-2179 -1653 -994 -732 0
-2174 -732 -994 -1653 0
-2383 -1653 -994 -732 0
-1673 -732 -994 -1642 0
-2179 -1642 -994 -732 0
-2174 -1642 -994 -732 0
-2383 -1642 -994 -732 0
-1673 -1871 -994 -732 0
-1673 -1864 -994 -732 0
-732 -1675 -994 -1871 0
-1864 -1675 -994 -732 0
-732 -1871 -994 -2179 0
-2388 -1871 -994 -732 0
-732 -1864 -994 -2179 0
-2388 -1864 -994 -732 0
-1174 -951 -732 -992 0
-992 -732 -1370 -951 0
-1660 -951 -732 -992 0
-2183 -992 -732 -951 0
-992 -732 -1370 -953 0
-1660 -992 -732 -953 0
-2183 -992 -732 -953 0
-1446 -955 -732 -992 0
-1671 -992 -732 -955 0
-1673 -992 -732 -955 0
-1964 -992 -732 -955 0
-2183 -992 -732 -955 0
-2179 -955 -732 -992 0
-2174 -955 -732 -992 0
-1673 -992 -732 -957 0
-2183 -957 -732 -992 0
-2179 -992 -732 -957 0
-992 -732 -1370 -1172 0
-1446 -1174 -992 -732 0
-2174 -992 -732 -1174 0
-1429 -992 -1370 -732 0
-1418 -992 -1370 -732 0
-1660 -1429 -992 -732 0
-1446 -992 -732 -1660 0
-1653 -1446 -992 -732 0
-1642 -1446 -992 -732 0
-1673 -992 -732 -1660 0
-2179 -992 -732 -1660 0
-2174 -992 -732 -1660 0
-2174 -992 -732 -1653 0
-1673 -992 -732 -1642 0
-2179 -1642 -992 -732 0
-2174 -1642 -992 -732 0
-1673 -992 -732 -1864 0
-2179 -992 -732 -1871 0
-2179 -992 -732 -1864 0
-1174 -990 -732 -951 0
-1660 -990 -732 -951 0
-1444 -990 -732 -953 0
-1660 -990 -732 -953 0
-1671 -990 -732 -953 0
-1671 -990 -732 -955 0
-1964 -990 -732 -955 0
-1660 -1429 -990 -732 0
-1174 -988 -732 -951 0
-1660 -988 -732 -951 0
-1660 -953 -732 -988 0
-1174 -986 -732 -951 0
-1660 -986 -732 -951 0
-953 -986 -732 -1660 0
-1660 -1429 -986 -732 0
-1367 -1172 -951 -732 0
-1368 -1172 -951 -732 0
-1172 -951 -1369 -732 0
-1172 -951 -1370 -732 0
-1371 -1172 -951 -732 0
-1366 -1172 -951 -732 0
-1365 -1172 -951 -732 0
-1442 -1172 -951 -732 0
-1444 -1172 -951 -732 0
-1446 -1172 -951 -732 0
-1448 -1172 -951 -732 0
-1172 -951 -1423 -732 0
-1419 -1172 -951 -732 0
-1660 -1172 -951 -732 0
-1671 -1172 -951 -732 0
-1673 -1172 -951 -732 0
-1172 -951 -1675 -732 0
-1648 -1172 -951 -732 0
-1643 -1172 -951 -732 0
-1875 -1172 -951 -732 0
-1874 -1172 -951 -732 0
-1876 -1172 -951 -732 0
-1877 -1172 -951 -732 0
-1869 -1172 -951 -732 0
-1172 -951 -1865 -732 0
-1964 -1172 -951 -732 0
-1959 -1172 -951 -732 0
-1172 -951 -1953 -732 0
-1172 -951 -1971 -732 0
-1943 -1172 -951 -732 0
-1936 -1172 -951 -732 0
-2183 -1172 -951 -732 0
-2179 -1172 -951 -732 0
-2174 -1172 -951 -732 0
-2168 -1172 -951 -732 0
-2159 -1172 -951 -732 0
-2151 -1172 -951 -732 0
-1172 -951 -2395 -732 0
-1172 -951 -2392 -732 0
-2388 -1172 -951 -732 0
-2383 -1172 -951 -732 0
-1172 -951 -2377 -732 0
-1442 -1174 -951 -732 0
-1444 -1174 -951 -732 0
-1446 -1174 -951 -732 0
-1448 -1174 -951 -732 0
-1174 -951 -1423 -732 0
-1419 -1174 -951 -732 0
-1456 -1174 -951 -732 0
-1671 -1174 -951 -732 0
-1673 -1174 -951 -732 0
-1174 -951 -1675 -732 0
-1174 -951 -1648 -732 0
-1643 -1174 -951 -732 0
-1680 -1174 -951 -732 0
-1875 -1174 -951 -732 0
-1876 -1174 -951 -732 0
-1877 -1174 -951 -732 0
-1869 -1174 -951 -732 0
-1174 -951 -1865 -732 0
-1174 -951 -1879 -732 0
-1964 -1174 -951 -732 0
-1959 -1174 -951 -732 0
-1174 -951 -1971 -732 0
-1943 -1174 -951 -732 0
-1936 -1174 -951 -732 0
-1174 -951 -1973 -732 0
-2183 -1174 -951 -732 0
-2179 -1174 -951 -732 0
-2174 -1174 -951 -732 0
-2159 -1174 -951 -732 0
-2151 -1174 -951 -732 0
-2187 -1174 -951 -732 0
-1174 -951 -2395 -732 0
-1174 -951 -2392 -732 0
-2388 -1174 -951 -732 0
-2383 -1174 -951 -732 0
-732 -1865 -1178 -951 0
-1367 -1429 -951 -732 0
-1368 -1429 -951 -732 0
-1429 -951 -1369 -732 0
-732 -1865 -1369 -951 0
-2159 -732 -1369 -951 0
-2151 -951 -1369 -732 0
-2187 -951 -1369 -732 0
-1429 -951 -1370 -732 0
-1943 -732 -1370 -951 0
-2159 -732 -1370 -951 0
-2151 -951 -1370 -732 0
-2187 -951 -1370 -732 0
-732 -2395 -1370 -951 0
-1371 -1429 -951 -732 0
-1366 -1429 -951 -732 0
-1365 -1429 -951 -732 0
-1429 -1442 -951 -732 0
-1444 -951 -732 -1429 0
-1429 -951 -732 -1446 0
-1448 -951 -732 -1429 0
-1429 -951 -732 -1423 0
-1429 -951 -732 -1419 0
-1660 -1429 -951 -732 0
-1671 -1429 -951 -732 0
-1673 -1429 -951 -732 0
-1429 -951 -1675 -732 0
-1429 -951 -1648 -732 0
-1643 -1429 -951 -732 0
-1875 -1429 -951 -732 0
-1874 -1429 -951 -732 0
-1876 -1429 -951 -732 0
-1877 -1429 -951 -732 0
-1869 -1429 -951 -732 0
-1429 -951 -1865 -732 0
-1964 -1429 -951 -732 0
-1959 -1429 -951 -732 0
-1429 -951 -1953 -732 0
-1429 -951 -1971 -732 0
-1943 -1429 -951 -732 0
-1936 -1429 -951 -732 0
-2183 -1429 -951 -732 0
-2179 -1429 -951 -732 0
-2174 -1429 -951 -732 0
-2168 -1429 -951 -732 0
-2159 -1429 -951 -732 0
-2151 -1429 -951 -732 0
-1429 -951 -2395 -732 0
-1429 -951 -2392 -732 0
-2388 -1429 -951 -732 0
-2383 -1429 -951 -732 0
-1429 -951 -2377 -732 0
-1660 -1442 -951 -732 0
-1660 -1444 -951 -732 0
-1444 -732 -1865 -951 0
-1660 -1446 -951 -732 0
-1660 -1448 -951 -732 0
-1660 -951 -1423 -732 0
-1660 -1419 -951 -732 0
-1660 -951 -732 -1671 0
-1660 -951 -732 -1673 0
-1660 -951 -732 -1675 0
-951 -732 -1648 -1660 0
-1643 -951 -732 -1660 0
-1680 -951 -732 -1660 0
-1875 -1660 -951 -732 0
-1876 -1660 -951 -732 0
-1877 -1660 -951 -732 0
-1869 -1660 -951 -732 0
-1660 -951 -1865 -732 0
-1660 -951 -1879 -732 0
-1964 -1660 -951 -732 0
-1959 -1660 -951 -732 0
-1660 -951 -1971 -732 0
-1943 -1660 -951 -732 0
-1936 -1660 -951 -732 0
-1660 -951 -1973 -732 0
-2183 -1660 -951 -732 0
-2179 -1660 -951 -732 0
-2174 -1660 -951 -732 0
-2159 -1660 -951 -732 0
-2151 -1660 -951 -732 0
-2187 -1660 -951 -732 0
-1660 -951 -2395 -732 0
-1660 -951 -2392 -732 0
-2388 -1660 -951 -732 0
-2383 -1660 -951 -732 0
-1671 -951 -732 -1653 0
-1673 -951 -732 -1653 0
-951 -732 -1675 -1653 0
-1653 -951 -732 -1648 0
-1643 -951 -732 -1653 0
-1653 -951 -732 -1680 0
-1964 -732 -1865 -951 0
-1959 -732 -1865 -951 0
-951 -1953 -1865 -732 0
-732 -1946 -1865 -951 0
-953 -1865 -1369 -732 0
-953 -1879 -1369 -732 0
-2183 -732 -1369 -953 0
-1943 -732 -1370 -953 0
-1936 -953 -1370 -732 0
-953 -1973 -1370 -732 0
-2159 -732 -1370 -953 0
-2151 -953 -1370 -732 0
-2187 -953 -1370 -732 0
-732 -2395 -1370 -953 0
-2362 -732 -1370 -953 0
-2397 -953 -1370 -732 0
-1442 -953 -732 -1660 0
-1444 -953 -732 -1660 0
-2183 -1444 -732 -953 0
-1446 -953 -732 -1660 0
-1448 -953 -732 -1660 0
-2151 -1448 -732 -953 0
-953 -732 -1423 -1660 0
-1456 -953 -732 -1660 0
-1671 -953 -732 -1660 0
-1673 -953 -732 -1660 0
-953 -732 -1675 -1660 0
-953 -732 -1648 -1660 0
-1643 -953 -732 -1660 0
-1680 -953 -732 -1660 0
-1875 -953 -732 -1660 0
-1876 -953 -732 -1660 0
-1877 -953 -732 -1660 0
-1869 -953 -732 -1660 0
-953 -732 -1865 -1660 0
-953 -732 -1879 -1660 0
-1964 -953 -732 -1660 0
-1959 -953 -732 -1660 0
-953 -732 -1971 -1660 0
-1943 -953 -732 -1660 0
-1936 -953 -732 -1660 0
-953 -732 -1973 -1660 0
-2183 -953 -732 -1660 0
-2179 -953 -732 -1660 0
-2174 -953 -732 -1660 0
-2159 -953 -732 -1660 0
-2151 -953 -732 -1660 0
-2187 -953 -732 -1660 0
-953 -732 -2395 -1660 0
-953 -732 -2392 -1660 0
-2388 -953 -732 -1660 0
-2383 -953 -732 -1660 0
-953 -1953 -1865 -732 0
-953 -1953 -1879 -732 0
-2183 -953 -732 -2187 0
-2383 -2151 -953 -732 0
-2151 -953 -2377 -732 0
-2187 -953 -2392 -732 0
-2383 -2187 -953 -732 0
-2187 -953 -2377 -732 0
-955 -732 -1865 -1444 0
-1444 -732 -1879 -955 0
-2183 -955 -732 -1444 0
-1446 -955 -732 -1971 0
-1446 -955 -732 -1943 0
-1446 -955 -732 -1936 0
-1446 -955 -732 -1973 0
-1446 -955 -732 -2159 0
-2151 -955 -732 -1446 0
-1446 -955 -732 -2187 0
-1446 -955 -732 -2395 0
-2362 -1446 -955 -732 0
-1448 -955 -732 -2159 0
-2151 -955 -732 -1448 0
-1448 -955 -732 -2187 0
-1673 -955 -732 -1971 0
-1673 -955 -732 -1936 0
-1673 -955 -1973 -732 0
-2159 -955 -732 -1673 0
-1673 -955 -732 -2151 0
-2187 -1673 -955 -732 0
-1673 -955 -732 -2395 0
-2362 -1673 -955 -732 0
-955 -732 -1865 -1959 0
-955 -732 -1879 -1959 0
-1959 -955 -732 -2183 0
-2179 -955 -732 -1971 0
-2174 -955 -732 -1971 0
-1943 -955 -732 -2183 0
-2174 -955 -732 -1943 0
-1936 -955 -732 -2179 0
-2174 -1936 -955 -732 0
-2179 -955 -732 -1973 0
-2174 -955 -732 -1973 0
-2183 -955 -732 -2187 0
-2179 -955 -732 -2159 0
-2179 -955 -732 -2151 0
-2179 -955 -732 -2187 0
-2179 -955 -732 -2395 0
-2179 -955 -732 -2362 0
-2174 -955 -732 -2159 0
-2174 -955 -732 -2151 0
-2174 -955 -732 -2187 0
-2174 -955 -732 -2395 0
-2383 -955 -732 -2159 0
-2151 -955 -732 -2392 0
-2383 -955 -732 -2151 0
-2187 -955 -2392 -732 0
-2383 -955 -732 -2187 0
-1964 -732 -1865 -957 0
-1964 -732 -1879 -957 0
-1943 -957 -732 -2183 0
-2183 -957 -732 -2187 0
-957 -732 -2392 -2151 0
-2187 -732 -2392 -957 0
-1943 -732 -959 -2183 0
-2183 -732 -959 -2187 0
-732 -2392 -959 -2151 0
-2187 -732 -2392 -959 0
-1172 -1865 -1369 -732 0
-732 -1879 -1369 -1172 0
-1936 -1172 -1370 -732 0
-732 -1973 -1370 -1172 0
-2151 -1172 -1370 -732 0
-2187 -1172 -1370 -732 0
-2362 -732 -1370 -1172 0
-2397 -1172 -1370 -732 0
-1444 -732 -1865 -1172 0
-1444 -732 -1879 -1172 0
-1964 -732 -1865 -1172 0
-1959 -732 -1865 -1172 0
-732 -1953 -1865 -1172 0
-1959 -732 -1879 -1172 0
-732 -1953 -1879 -1172 0
-2183 -1172 -732 -2187 0
-1444 -732 -1865 -1174 0
-1444 -732 -1879 -1174 0
-1943 -1444 -732 -1174 0
-2159 -1444 -732 -1174 0
-1943 -1446 -732 -1174 0
-1936 -1446 -732 -1174 0
-1446 -732 -1973 -1174 0
-2159 -1446 -732 -1174 0
-2151 -1446 -732 -1174 0
-2187 -1446 -732 -1174 0
-2159 -1448 -732 -1174 0
-2151 -1448 -732 -1174 0
-2187 -1448 -732 -1174 0
-2397 -1448 -1174 -732 0
-1671 -732 -1865 -1174 0
-1936 -1673 -732 -1174 0
-2159 -1673 -732 -1174 0
-2151 -1673 -732 -1174 0
-2187 -1673 -732 -1174 0
-1964 -732 -1865 -1174 0
-1959 -732 -1865 -1174 0
-1959 -732 -1879 -1174 0
-2159 -1964 -732 -1174 0
-2159 -1959 -732 -1174 0
-2174 -1943 -732 -1174 0
-2179 -1936 -732 -1174 0
-2174 -1936 -732 -1174 0
-2179 -732 -1973 -1174 0
-2174 -732 -1973 -1174 0
-2183 -1174 -732 -2187 0
-2179 -1174 -732 -2151 0
-2179 -1174 -732 -2187 0
-2174 -1174 -732 -2151 0
-2174 -1174 -732 -2187 0
-2383 -2151 -732 -1174 0
-2383 -2187 -732 -1174 0
-1671 -1176 -732 -1943 0
-1671 -1176 -732 -2159 0
-1673 -1176 -732 -1943 0
-1673 -1176 -732 -2159 0
-1176 -732 -1675 -2159 0
-1964 -1176 -732 -2159 0
-2179 -1176 -732 -1943 0
-2183 -1176 -732 -2187 0
-1176 -732 -2392 -2151 0
-1176 -732 -2392 -2187 0
-2183 -732 -1178 -2187 0
-732 -2392 -1178 -2151 0
-732 -2392 -1178 -2187 0
-732 -1865 -1369 -1429 0
-732 -1879 -1369 -1429 0
-1943 -732 -1369 -1429 0
-2159 -732 -1369 -1429 0
-1418 -1865 -1369 -732 0
-1418 -1879 -1369 -732 0
-2183 -732 -1369 -1418 0
-2187 -732 -1971 -1369 0
-2183 -732 -1369 -2187 0
-732 -2392 -1369 -2187 0
-1936 -1429 -1370 -732 0
-1429 -1973 -1370 -732 0
-2159 -732 -1370 -1429 0
-2151 -1429 -1370 -732 0
-2187 -732 -1370 -1429 0
-2362 -732 -1370 -1429 0
-1943 -1418 -1370 -732 0
-1936 -1418 -1370 -732 0
-1418 -1973 -1370 -732 0
-2159 -732 -1370 -1418 0
-2151 -1418 -1370 -732 0
-2187 -1418 -1370 -732 0
-1418 -2395 -1370 -732 0
-2362 -732 -1370 -1418 0
-1660 -1429 -1442 -732 0
-1660 -1444 -732 -1429 0
-1444 -732 -1865 -1429 0
-1444 -732 -1879 -1429 0
-1660 -1429 -732 -1446 0
-1660 -1448 -732 -1429 0
-1660 -1429 -732 -1423 0
-1660 -1429 -732 -1419 0
-1660 -1429 -732 -1456 0
-1660 -1429 -732 -1671 0
-1660 -1429 -732 -1673 0
-1660 -1429 -732 -1675 0
-1429 -732 -1648 -1660 0
-1643 -1429 -732 -1660 0
-1680 -1429 -732 -1660 0
-1875 -1660 -1429 -732 0
-1876 -1660 -1429 -732 0
-1877 -1660 -1429 -732 0
-1869 -1660 -1429 -732 0
-1660 -1429 -1865 -732 0
-1660 -1429 -1879 -732 0
-1964 -1660 -1429 -732 0
-1959 -1660 -1429 -732 0
-1660 -1429 -1971 -732 0
-1943 -1660 -1429 -732 0
-1936 -1660 -1429 -732 0
-1660 -1429 -1973 -732 0
-2183 -1660 -1429 -732 0
-2179 -1660 -1429 -732 0
-2174 -1660 -1429 -732 0
-2159 -1660 -1429 -732 0
-2151 -1660 -1429 -732 0
-2187 -1660 -1429 -732 0
-1660 -1429 -2395 -732 0
-1660 -1429 -2392 -732 0
-2388 -1660 -1429 -732 0
-2383 -1660 -1429 -732 0
-1671 -1429 -1865 -732 0
-1964 -1429 -1865 -732 0
-1959 -1429 -1865 -732 0
-1964 -1429 -1879 -732 0
-1959 -1429 -1879 -732 0
-2183 -1429 -732 -2187 0
-2187 -1429 -2392 -732 0
-1660 -1418 -732 -1442 0
-1660 -1444 -732 -1418 0
-1444 -732 -1865 -1418 0
-1444 -732 -1879 -1418 0
-2183 -1444 -732 -1418 0
-1660 -1446 -732 -1418 0
-1660 -1448 -732 -1418 0
-2151 -1448 -732 -1418 0
-2187 -1448 -732 -1418 0
-1660 -1418 -732 -1423 0
-1660 -1418 -732 -1419 0
-1671 -732 -1865 -1418 0
-1964 -1418 -1865 -732 0
-1959 -1418 -1865 -732 0
-1418 -1953 -1865 -732 0
-1964 -1418 -1879 -732 0
-1959 -1418 -1879 -732 0
-1418 -1953 -1879 -732 0
-2183 -1959 -1418 -732 0
-2183 -1418 -732 -2187 0
-2383 -2151 -1418 -732 0
-2151 -1418 -2377 -732 0
-2187 -1418 -2392 -732 0
-2383 -2187 -1418 -732 0
-2187 -1418 -2377 -732 0
-2397 -1418 -732 -2377 0
-2187 -1442 -1675 -732 0
-2183 -1442 -732 -2187 0
-2187 -1442 -732 -2392 0
-2187 -1442 -732 -2388 0
-1444 -732 -1879 -1660 0
-1444 -732 -1865 -1653 0
-1444 -732 -1879 -1653 0
-1943 -1444 -732 -1653 0
-2159 -1444 -732 -1653 0
-1642 -732 -1865 -1444 0
-1444 -732 -1879 -1642 0
-2183 -1642 -732 -1444 0
-2183 -1444 -732 -2187 0
-2187 -1444 -732 -2392 0
-1446 -732 -1973 -1660 0
-2187 -1446 -732 -1660 0
-1943 -1446 -732 -1653 0
-1936 -1446 -732 -1653 0
-1446 -732 -1973 -1653 0
-2159 -1446 -732 -1653 0
-2151 -1446 -732 -1653 0
-2187 -1446 -732 -1653 0
-1642 -1446 -732 -1971 0
-1943 -1642 -732 -1446 0
-1936 -1642 -732 -1446 0
-1642 -1446 -1973 -732 0
-1642 -1446 -732 -2159 0
-2151 -1642 -732 -1446 0
-2187 -1642 -1446 -732 0
-1642 -1446 -2395 -732 0
-2187 -1660 -1448 -732 0
-2159 -1448 -732 -1653 0
-2151 -1448 -732 -1653 0
-2187 -1653 -1448 -732 0
-2397 -1653 -1448 -732 0
-2159 -1642 -1448 -732 0
-2151 -1642 -732 -1448 0
-2187 -1642 -1448 -732 0
-1660 -732 -1973 -1673 0
-2187 -1660 -732 -1673 0
-2187 -1660 -732 -1675 0
-1959 -1660 -1879 -732 0
-2179 -732 -1973 -1660 0
-2174 -1660 -1973 -732 0
-2183 -1660 -732 -2187 0
-2179 -1660 -732 -2187 0
-2174 -1660 -732 -2187 0
-2187 -1660 -2392 -732 0
-2383 -2187 -1660 -732 0
-1671 -732 -1865 -1653 0
-1943 -1671 -732 -1653 0
-2159 -1671 -732 -1653 0
-1943 -1673 -732 -1653 0
-1936 -1673 -732 -1653 0
-2159 -1673 -732 -1653 0
-2151 -1673 -732 -1653 0
-2187 -1673 -732 -1653 0
-2362 -1673 -732 -1653 0
-2159 -732 -1675 -1653 0
-1964 -732 -1865 -1653 0
-1959 -732 -1865 -1653 0
-1959 -732 -1879 -1653 0
-2159 -1964 -732 -1653 0
-2159 -1959 -732 -1653 0
-2179 -1943 -732 -1653 0
-2174 -1943 -732 -1653 0
-2179 -1936 -732 -1653 0
-2174 -1936 -732 -1653 0
-2174 -732 -1973 -1653 0
-2183 -1653 -732 -2187 0
-2179 -1653 -732 -2151 0
-2179 -1653 -732 -2187 0
-2362 -2179 -732 -1653 0
-2174 -1653 -732 -2151 0
-2174 -1653 -732 -2187 0
-2151 -732 -2392 -1653 0
-2383 -2151 -732 -1653 0
-2187 -732 -2392 -1653 0
-2383 -2187 -732 -1653 0
-1943 -1673 -732 -1642 0
-1936 -1673 -732 -1642 0
-1673 -732 -1973 -1642 0
-2159 -1673 -732 -1642 0
-2151 -1673 -732 -1642 0
-1673 -732 -2395 -1642 0
-1964 -1642 -1865 -732 0
-1642 -732 -1865 -1959 0
-1879 -1642 -732 -1959 0
-1959 -1642 -732 -2183 0
-2179 -1642 -732 -1971 0
-1642 -732 -1971 -2174 0
-1943 -1642 -732 -2183 0
-2179 -1943 -1642 -732 0
-1943 -1642 -732 -2174 0
-2179 -1936 -1642 -732 0
-2174 -1936 -1642 -732 0
-2179 -1642 -1973 -732 0
-2174 -1642 -1973 -732 0
-2183 -1642 -732 -2187 0
-2179 -1642 -732 -2159 0
-2179 -1642 -732 -2151 0
-2179 -1642 -732 -2187 0
-2159 -1642 -732 -2174 0
-2174 -1642 -732 -2151 0
-2174 -1642 -732 -2187 0
-2174 -1642 -2395 -732 0
-2383 -1642 -732 -2159 0
-2151 -1642 -732 -2392 0
-2383 -1642 -732 -2151 0
-2187 -1642 -2392 -732 0
-2383 -1642 -732 -2187 0
-1671 -732 -1865 -1871 0
-1671 -732 -1879 -1871 0
-1671 -732 -1871 -1943 0
-1671 -732 -1871 -2159 0
-1671 -732 -1865 -1864 0
-2183 -1671 -732 -2187 0
-2187 -732 -2392 -1671 0
-1673 -732 -1871 -1943 0
-1673 -732 -1871 -1936 0
-1673 -732 -1973 -1871 0
-1673 -732 -1871 -2159 0
-1673 -732 -1871 -2151 0
-1673 -732 -1871 -2187 0
-1673 -732 -1864 -1971 0
-1673 -732 -1864 -1943 0
-1673 -732 -1864 -1936 0
-1673 -732 -1973 -1864 0
-1673 -732 -1864 -2159 0
-1673 -732 -1864 -2151 0
-1673 -732 -1864 -2187 0
-1673 -732 -1864 -2395 0
-732 -1871 -1675 -2159 0
-2151 -732 -1675 -1871 0
-2187 -732 -1675 -1871 0
-732 -1864 -1675 -2159 0
-732 -1864 -1675 -2151 0
-732 -1864 -1675 -2187 0
-1964 -732 -1865 -1871 0
-1964 -732 -1879 -1871 0
-1964 -732 -1871 -2159 0
-1943 -732 -1871 -2179 0
-1936 -732 -1871 -2179 0
-2183 -1973 -732 -1871 0
-2179 -732 -1973 -1871 0
-2183 -732 -1871 -2187 0
-2151 -732 -1871 -2179 0
-2179 -732 -1871 -2187 0
-2151 -732 -2392 -1871 0
-2388 -2151 -1871 -732 0
-732 -2395 -1871 -2187 0
-2187 -732 -2392 -1871 0
-2388 -732 -1871 -2187 0
-1964 -732 -1865 -1864 0
-2179 -732 -1864 -1971 0
-1943 -732 -1864 -2183 0
-1943 -732 -1864 -2179 0
-1936 -732 -1864 -2179 0
-2179 -732 -1973 -1864 0
-2183 -732 -1864 -2187 0
-2159 -732 -1864 -2179 0
-2151 -732 -1864 -2179 0
-2179 -732 -1864 -2187 0
-2388 -732 -1864 -2159 0
-732 -2392 -1864 -2151 0
-2388 -732 -1864 -2151 0
-732 -2392 -1864 -2187 0
-2388 -732 -1864 -2187 0
-2183 -1973 -732 -1964 0
-2183 -1964 -732 -2187 0
-2183 -1973 -732 -1959 0
-2187 -1959 -732 -2183 0
-1959 -732 -2392 -2187 0
-2183 -1973 -732 -1953 0
-2183 -1953 -732 -2187 0
-732 -2392 -1953 -2187 0
-2183 -1936 -732 -1946 0
-2183 -1973 -732 -1946 0
-2183 -732 -1946 -2187 0
-732 -2392 -1946 -2151 0
-2187 -2392 -1946 -732 0
-2183 -1935 -732 -1943 0
-2183 -1935 -732 -1936 0
-2183 -1935 -732 -2187 0
-1935 -732 -2392 -2151 0
-2187 -1935 -2392 -732 0
-2397 -1943 -732 -2183 0
-2187 -732 -2395 -2179 0
-2174 -732 -2395 -2187 0
-2168 -732 -2395 -2187 0
-2187 -732 -2395 -2161 0
-1367 -1172 -950 -742 0
-1368 -1172 -950 -742 0
-1172 -950 -1369 -742 0
-1172 -950 -1370 -742 0
-1371 -1172 -950 -742 0
-1366 -1172 -950 -742 0
-1365 -1172 -950 -742 0
-1442 -1172 -950 -742 0
-1444 -1172 -950 -742 0
-1446 -1172 -950 -742 0
-1448 -1172 -950 -742 0
-1172 -950 -1423 -742 0
-1419 -1172 -950 -742 0
-1660 -1172 -950 -742 0
-1671 -1172 -950 -742 0
-1673 -1172 -950 -742 0
-1172 -950 -1675 -742 0
-1648 -1172 -950 -742 0
-1643 -1172 -950 -742 0
-1875 -1172 -950 -742 0
-1874 -1172 -950 -742 0
-1876 -1172 -950 -742 0
-1877 -1172 -950 -742 0
-1869 -1172 -950 -742 0
-1172 -950 -1865 -742 0
-1964 -1172 -950 -742 0
-1959 -1172 -950 -742 0
-1172 -950 -1953 -742 0
-1172 -950 -1971 -742 0
-1943 -1172 -950 -742 0
-1936 -1172 -950 -742 0
-2183 -1172 -950 -742 0
-2179 -1172 -950 -742 0
-2174 -1172 -950 -742 0
-2168 -1172 -950 -742 0
-2159 -1172 -950 -742 0
-2151 -1172 -950 -742 0
-1172 -950 -2395 -742 0
-1172 -950 -2392 -742 0
-2388 -1172 -950 -742 0
-2383 -1172 -950 -742 0
-1172 -950 -2377 -742 0
-742 -1865 -1178 -950 0
-1367 -1429 -950 -742 0
-1368 -1429 -950 -742 0
-1429 -950 -1369 -742 0
-742 -1865 -1369 -950 0
-1943 -950 -1369 -742 0
-2159 -950 -1369 -742 0
-2151 -742 -1369 -950 0
-742 -2395 -1369 -950 0
-1429 -950 -1370 -742 0
-1943 -950 -1370 -742 0
-2159 -950 -1370 -742 0
-2151 -742 -1370 -950 0
-742 -2395 -1370 -950 0
-1371 -1429 -950 -742 0
-1366 -1429 -950 -742 0
-1365 -1429 -950 -742 0
-1429 -1442 -950 -742 0
-1444 -950 -742 -1429 0
-1429 -950 -742 -1446 0
-1448 -950 -742 -1429 0
-1429 -950 -742 -1423 0
-1429 -950 -742 -1419 0
-1660 -1429 -950 -742 0
-1671 -1429 -950 -742 0
-1673 -1429 -950 -742 0
-1429 -950 -1675 -742 0
-1429 -950 -1648 -742 0
-1643 -1429 -950 -742 0
-1875 -1429 -950 -742 0
-1874 -1429 -950 -742 0
-1876 -1429 -950 -742 0
-1877 -1429 -950 -742 0
-1869 -1429 -950 -742 0
-1429 -950 -1865 -742 0
-1964 -1429 -950 -742 0
-1959 -1429 -950 -742 0
-1429 -950 -1953 -742 0
-1429 -950 -1971 -742 0
-1943 -1429 -950 -742 0
-1936 -1429 -950 -742 0
-2183 -1429 -950 -742 0
-2179 -1429 -950 -742 0
-2174 -1429 -950 -742 0
-2168 -1429 -950 -742 0
-2159 -1429 -950 -742 0
-2151 -1429 -950 -742 0
-1429 -950 -2395 -742 0
-1429 -950 -2392 -742 0
-2388 -1429 -950 -742 0
-2383 -1429 -950 -742 0
-1429 -950 -2377 -742 0
-1444 -950 -1865 -742 0
-1671 -950 -1865 -742 0
-1964 -742 -1865 -950 0
-1959 -742 -1865 -950 0
-742 -1953 -1865 -950 0
-742 -1946 -1865 -950 0
-2183 -1943 -742 -950 0
-2183 -1936 -742 -950 0
-1943 -742 -1369 -996 0
-2159 -996 -1369 -742 0
-742 -1370 -996 -1943 0
-742 -1370 -996 -2159 0
-742 -1370 -994 -1172 0
-1446 -742 -994 -1174 0
-1448 -742 -994 -1174 0
-1673 -742 -994 -1174 0
-2179 -742 -994 -1174 0
-2174 -1174 -742 -994 0
-2383 -742 -994 -1174 0
-1673 -742 -994 -1176 0
-2179 -742 -994 -1176 0
-1429 -1370 -994 -742 0
-1673 -742 -994 -1442 0
-1442 -742 -994 -1675 0
-2179 -742 -994 -1442 0
-1442 -742 -994 -2388 0
-1446 -742 -994 -1660 0
-1446 -742 -994 -1653 0
-1448 -742 -994 -1660 0
-1448 -742 -994 -1653 0
-1660 -742 -994 -1673 0
-1660 -742 -994 -1675 0
-1660 -742 -994 -2179 0
-1660 -742 -994 -2174 0
-2388 -742 -994 -1660 0
-1660 -742 -994 -2383 0
-1673 -742 -994 -1653 0
-2179 -742 -994 -1653 0
-2174 -1653 -742 -994 0
-1653 -742 -994 -2383 0
-1673 -742 -994 -1871 0
-2179 -742 -994 -1871 0
-992 -742 -1370 -1172 0
-1446 -992 -742 -1174 0
-1673 -992 -742 -1174 0
-2179 -992 -742 -1174 0
-2174 -992 -742 -1174 0
-1673 -992 -742 -1176 0
-2179 -992 -742 -1176 0
-992 -742 -1370 -1429 0
-1442 -992 -742 -1673 0
-2179 -992 -742 -1442 0
-1446 -992 -742 -1660 0
-1446 -992 -742 -1653 0
-1660 -992 -742 -1673 0
-1660 -992 -742 -2179 0
-1660 -992 -742 -2174 0
-1673 -992 -742 -1653 0
-2179 -992 -742 -1653 0
-2174 -992 -742 -1653 0
-1673 -992 -742 -1871 0
-2179 -992 -742 -1871 0
-742 -1865 -1369 -1172 0
-742 -1879 -1369 -1172 0
-1943 -742 -1369 -1172 0
-1936 -742 -1370 -1172 0
-742 -1973 -1370 -1172 0
-2151 -742 -1370 -1172 0
-2187 -742 -1370 -1172 0
-1444 -742 -1865 -1172 0
-1444 -742 -1879 -1172 0
-2159 -1446 -742 -1172 0
-2159 -1448 -742 -1172 0
-1671 -742 -1865 -1172 0
-2159 -1673 -742 -1172 0
-1964 -742 -1865 -1172 0
-1959 -742 -1865 -1172 0
-742 -1953 -1865 -1172 0
-1964 -742 -1879 -1172 0
-1959 -742 -1879 -1172 0
-742 -1953 -1879 -1172 0
-2159 -1959 -742 -1172 0
-2183 -1172 -742 -2187 0
-1174 -742 -1865 -1444 0
-1444 -742 -1879 -1174 0
-1444 -1174 -742 -1943 0
-1943 -1174 -742 -1446 0
-1936 -1446 -742 -1174 0
-1446 -742 -1973 -1174 0
-1446 -1174 -742 -2159 0
-1446 -1174 -742 -2151 0
-2187 -1446 -742 -1174 0
-1448 -1174 -742 -2159 0
-1448 -1174 -742 -2151 0
-2187 -1448 -742 -1174 0
-1671 -742 -1865 -1174 0
-1673 -1174 -742 -1943 0
-1673 -1174 -742 -1936 0
-1673 -742 -1973 -1174 0
-1673 -1174 -742 -2159 0
-1673 -1174 -742 -2151 0
-2187 -1673 -742 -1174 0
-1174 -742 -1675 -2159 0
-1964 -742 -1865 -1174 0
-1959 -742 -1865 -1174 0
-1964 -742 -1879 -1174 0
-1174 -742 -1879 -1959 0
-2179 -1174 -742 -1943 0
-1943 -1174 -742 -2174 0
-1936 -1174 -742 -2179 0
-2174 -1936 -742 -1174 0
-2179 -742 -1973 -1174 0
-2174 -742 -1973 -1174 0
-2183 -1174 -742 -2187 0
-2179 -1174 -742 -2151 0
-2179 -1174 -742 -2187 0
-2174 -1174 -742 -2151 0
-2187 -1174 -742 -2174 0
-2383 -1174 -742 -2151 0
-2383 -2187 -1174 -742 0
-1671 -742 -1865 -1176 0
-1671 -742 -1879 -1176 0
-1673 -1176 -742 -1943 0
-1673 -1176 -742 -1936 0
-1673 -1176 -1973 -742 0
-1673 -1176 -742 -2159 0
-1673 -1176 -742 -2151 0
-2187 -1673 -1176 -742 0
-1176 -742 -1675 -2159 0
-1964 -742 -1865 -1176 0
-2179 -1176 -742 -1943 0
-1936 -1176 -742 -2179 0
-2179 -742 -1973 -1176 0
-2183 -1176 -742 -2187 0
-2179 -1176 -742 -2151 0
-2179 -1176 -742 -2187 0
-2187 -742 -1178 -2183 0
-1429 -1865 -1369 -742 0
-1429 -1879 -1369 -742 0
-1943 -742 -1369 -1429 0
-1943 -742 -1369 -2397 0
-2183 -742 -1369 -2187 0
-1936 -1429 -1370 -742 0
-1429 -1973 -1370 -742 0
-2151 -1429 -1370 -742 0
-2187 -742 -1370 -1429 0
-2397 -1429 -1370 -742 0
-2397 -1943 -1370 -742 0
-1444 -742 -1865 -1429 0
-1444 -742 -1879 -1429 0
-1671 -742 -1865 -1429 0
-1671 -742 -1879 -1429 0
-1964 -742 -1865 -1429 0
-1959 -1429 -1865 -742 0
-1964 -742 -1879 -1429 0
-1959 -1429 -1879 -742 0
-1442 -742 -1973 -1673 0
-2187 -1673 -742 -1442 0
-2187 -1442 -1675 -742 0
-2179 -742 -1973 -1442 0
-2183 -1442 -742 -2187 0
-2187 -1442 -742 -2179 0
-2187 -1442 -742 -2388 0
-1660 -742 -1879 -1444 0
-1653 -742 -1865 -1444 0
-1653 -742 -1879 -1444 0
-1653 -1444 -742 -1943 0
-2159 -1653 -1444 -742 0
-2183 -1444 -742 -2187 0
-1660 -742 -1973 -1446 0
-2187 -1446 -742 -1660 0
-1943 -1653 -742 -1446 0
-1936 -1446 -742 -1653 0
-1446 -742 -1973 -1653 0
-1653 -1446 -742 -2159 0
-1653 -1446 -742 -2151 0
-2187 -1653 -1446 -742 0
-2187 -1448 -742 -1660 0
-1653 -1448 -742 -2159 0
-1653 -1448 -742 -2151 0
-2187 -1653 -1448 -742 0
-1660 -742 -1973 -1673 0
-2187 -1660 -742 -1673 0
-2187 -1660 -742 -1675 0
-1660 -742 -1879 -1959 0
-2179 -742 -1973 -1660 0
-2174 -742 -1973 -1660 0
-2183 -1660 -742 -2187 0
-2179 -1660 -742 -2187 0
-2174 -1660 -742 -2187 0
-2388 -2187 -1660 -742 0
-2383 -1660 -742 -2187 0
-1653 -742 -1865 -1671 0
-1653 -742 -1879 -1671 0
-1943 -1673 -742 -1653 0
-1936 -1673 -742 -1653 0
-1673 -742 -1973 -1653 0
-2159 -1673 -742 -1653 0
-2151 -1673 -742 -1653 0
-2187 -1673 -742 -1653 0
-2159 -742 -1675 -1653 0
-1653 -742 -1865 -1964 0
-1653 -742 -1865 -1959 0
-1653 -742 -1879 -1964 0
-1653 -742 -1879 -1959 0
-1959 -1653 -742 -2159 0
-2179 -1943 -1653 -742 0
-2174 -1943 -742 -1653 0
-1936 -1653 -742 -2179 0
-2174 -1936 -742 -1653 0
-2179 -742 -1973 -1653 0
-2174 -742 -1973 -1653 0
-2183 -1653 -742 -2187 0
-2179 -1653 -742 -2151 0
-2179 -1653 -742 -2187 0
-2174 -1653 -742 -2151 0
-2174 -1653 -742 -2187 0
-2383 -1653 -742 -2151 0
-2383 -1653 -742 -2187 0
-1671 -742 -1865 -1871 0
-1671 -742 -1879 -1871 0
-1671 -742 -1871 -1943 0
-1673 -742 -1871 -1943 0
-1673 -742 -1871 -1936 0
-1673 -742 -1871 -1973 0
-1673 -742 -1871 -2159 0
-1673 -742 -1871 -2151 0
-2187 -1673 -742 -1871 0
-742 -1871 -1675 -2159 0
-1964 -742 -1865 -1871 0
-1964 -742 -1879 -1871 0
-1943 -742 -1871 -2179 0
-1936 -742 -1871 -2179 0
-2179 -742 -1973 -1871 0
-2187 -742 -1871 -2183 0
-2151 -742 -1871 -2179 0
-2179 -742 -1871 -2187 0
-2187 -1964 -742 -2183 0
-2187 -1959 -742 -2183 0
-2187 -742 -1953 -2183 0
-2187 -742 -1946 -2183 0
-2397 -2159 -742 -2392 0
-2397 -2159 -742 -2388 0
-2397 -2159 -742 -2383 0
-2397 -2159 -742 -2377 0
-2370 -2159 -742 -2397 0
-950 -749 -1865 -1369 0
-950 -749 -1971 -1369 0
-950 -749 -1369 -1943 0
-950 -749 -1369 -1936 0
-950 -749 -1369 -2183 0
-950 -749 -1369 -2159 0
-950 -749 -1369 -2151 0
-950 -749 -1369 -2395 0
-950 -749 -1369 -2392 0
-1943 -749 -1370 -950 0
-950 -749 -1370 -1936 0
-2159 -749 -1370 -950 0
-2151 -749 -1370 -950 0
-950 -749 -2395 -1370 0
-950 -749 -1865 -1444 0
-1444 -950 -749 -1971 0
-1936 -950 -749 -1444 0
-2183 -1444 -749 -950 0
-1444 -950 -749 -2159 0
-2151 -1444 -749 -950 0
-1444 -950 -749 -2395 0
-1444 -950 -2392 -749 0
-1446 -950 -749 -1943 0
-1936 -1446 -749 -950 0
-1446 -950 -749 -2159 0
-1446 -950 -749 -2151 0
-1446 -749 -2395 -950 0
-1448 -950 -749 -2159 0
-1448 -950 -749 -2151 0
-950 -749 -1865 -1959 0
-950 -749 -1953 -1865 0
-1959 -950 -749 -1943 0
-1959 -950 -749 -2183 0
-1959 -950 -749 -2159 0
-1959 -950 -749 -2151 0
-950 -749 -2395 -1959 0
-1959 -950 -749 -2392 0
-950 -749 -1971 -1953 0
-950 -749 -1953 -1943 0
-950 -749 -1953 -1936 0
-2183 -950 -749 -1953 0
-950 -749 -1953 -2159 0
-950 -749 -1953 -2151 0
-950 -749 -2395 -1953 0
-950 -749 -1953 -2392 0
-2174 -1936 -749 -950 0
-2174 -950 -749 -2151 0
-950 -749 -2395 -2174 0
-2383 -950 -749 -2159 0
-2151 -950 -749 -2392 0
-2383 -950 -749 -2151 0
-950 -749 -2377 -2151 0
-749 -1971 -996 -1369 0
-749 -1943 -996 -1369 0
-749 -2183 -996 -1369 0
-749 -2159 -996 -1369 0
-749 -2395 -996 -1369 0
-749 -2392 -996 -1369 0
-749 -1370 -996 -1943 0
-2159 -749 -1370 -996 0
-749 -2395 -996 -1370 0
-1943 -1444 -749 -996 0
-2183 -749 -996 -1444 0
-1444 -749 -996 -2159 0
-1444 -749 -996 -2395 0
-1444 -749 -996 -2392 0
-1943 -1446 -749 -996 0
-1446 -749 -996 -2159 0
-1446 -749 -2395 -996 0
-2159 -1448 -749 -996 0
-1959 -749 -996 -2183 0
-1959 -749 -996 -2159 0
-1959 -749 -2395 -996 0
-1959 -749 -2392 -996 0
-2183 -749 -996 -1953 0
-749 -1953 -996 -2392 0
-2174 -1943 -749 -996 0
-749 -2395 -996 -2174 0
-2383 -2159 -749 -996 0
-749 -1971 -994 -1369 0
-2183 -749 -994 -1369 0
-749 -2395 -994 -1369 0
-749 -2392 -994 -1369 0
-749 -2395 -994 -1370 0
-1673 -749 -994 -1442 0
-749 -1675 -994 -1442 0
-2183 -749 -994 -1442 0
-2179 -749 -994 -1442 0
-749 -2395 -994 -1442 0
-1442 -749 -994 -2392 0
-2388 -749 -994 -1442 0
-1444 -749 -994 -2183 0
-1444 -749 -994 -2395 0
-1444 -749 -994 -2392 0
-1446 -749 -994 -1660 0
-1446 -749 -2395 -994 0
-1660 -749 -994 -1448 0
-1660 -749 -994 -1673 0
-1660 -749 -994 -1675 0
-2183 -749 -994 -1660 0
-1660 -749 -994 -2179 0
-1660 -749 -994 -2174 0
-1660 -749 -994 -2392 0
-2388 -749 -994 -1660 0
-1660 -749 -994 -2383 0
-1959 -749 -994 -2183 0
-749 -2395 -994 -1959 0
-1959 -749 -2392 -994 0
-2183 -749 -994 -1953 0
-749 -1953 -994 -2392 0
-2183 -992 -749 -1369 0
-1673 -992 -749 -1442 0
-2183 -992 -749 -1442 0
-2179 -992 -749 -1442 0
-1444 -992 -749 -2183 0
-1446 -992 -749 -1660 0
-1660 -992 -749 -1673 0
-1660 -992 -749 -2183 0
-1660 -992 -749 -2179 0
-1660 -992 -749 -2174 0
-2183 -992 -749 -1959 0
-2183 -992 -749 -1953 0
-2187 -749 -1971 -1369 0
-2397 -749 -1971 -1369 0
-1943 -749 -1369 -2397 0
-2183 -1973 -749 -1369 0
-2187 -749 -1369 -2183 0
-2183 -749 -1369 -2397 0
-2159 -749 -1369 -2397 0
-2187 -749 -2395 -1369 0
-2187 -749 -2392 -1369 0
-2397 -749 -1369 -2395 0
-2397 -749 -1369 -2392 0
-2397 -749 -1370 -1943 0
-2159 -749 -1370 -2397 0
-2187 -749 -2395 -1370 0
-2397 -749 -1370 -2395 0
-1671 -749 -1879 -1442 0
-1673 -749 -1973 -1442 0
-2187 -1673 -749 -1442 0
-2187 -1442 -749 -1675 0
-1964 -749 -1879 -1442 0
-2183 -1973 -749 -1442 0
-2179 -749 -1973 -1442 0
-2183 -1442 -749 -2187 0
-2179 -1442 -749 -2187 0
-2187 -749 -2395 -1442 0
-2187 -749 -2392 -1442 0
-2388 -1442 -749 -2187 0
-1660 -749 -1879 -1444 0
-1943 -1444 -749 -2397 0
-1444 -749 -1973 -2183 0
-2187 -1444 -749 -2183 0
-2397 -2183 -749 -1444 0
-2397 -1444 -749 -2159 0
-2187 -1444 -749 -2395 0
-2187 -1444 -749 -2392 0
-2397 -1444 -749 -2395 0
-2397 -1444 -749 -2392 0
-1660 -749 -1973 -1446 0
-2187 -1446 -749 -1660 0
-2397 -1446 -749 -2159 0
-2187 -1446 -749 -2395 0
-1446 -749 -2395 -2397 0
-1660 -1448 -749 -2187 0
-2159 -1448 -749 -2397 0
-1660 -749 -1973 -1673 0
-2187 -1673 -749 -1660 0
-2187 -749 -1675 -1660 0
-1660 -749 -1879 -1964 0
-1660 -749 -1879 -1959 0
-1660 -749 -1973 -2183 0
-2179 -749 -1973 -1660 0
-2174 -749 -1973 -1660 0
-2183 -1660 -749 -2187 0
-2179 -1660 -749 -2187 0
-2174 -1660 -749 -2187 0
-2187 -749 -2392 -1660 0
-2388 -2187 -1660 -749 0
-2383 -1660 -749 -2187 0
-2183 -1973 -749 -1959 0
-2187 -1959 -749 -2183 0
-2397 -1959 -749 -2183 0
-2397 -1959 -749 -2159 0
-2187 -1959 -749 -2395 0
-2187 -1959 -749 -2392 0
-2397 -1959 -749 -2395 0
-1959 -749 -2392 -2397 0
-2183 -1973 -749 -1953 0
-2183 -1953 -749 -2187 0
-2397 -2183 -749 -1953 0
-2187 -749 -1953 -2392 0
-2397 -749 -1953 -2392 0
-2174 -1943 -749 -2397 0
-2187 -749 -2395 -2174 0
-2397 -2174 -749 -2395 0
-2397 -2168 -749 -2159 0
-2397 -2159 -749 -2383 0
-950 -755 -1865 -1444 0
-1444 -950 -755 -1971 0
-1444 -950 -755 -1943 0
-1444 -950 -755 -2183 0
-2159 -1444 -755 -950 0
-1444 -950 -755 -2395 0
-1444 -950 -2392 -755 0
-1446 -950 -1971 -755 0
-1446 -950 -755 -1943 0
-1446 -950 -755 -1936 0
-1446 -950 -755 -2159 0
-1446 -950 -755 -2151 0
-1446 -950 -755 -2395 0
-1448 -950 -755 -2159 0
-1448 -950 -755 -2151 0
-950 -755 -1865 -1959 0
-1959 -950 -755 -1943 0
-1959 -950 -755 -2183 0
-1959 -950 -755 -2159 0
-950 -755 -2395 -1959 0
-1959 -950 -2392 -755 0
-950 -755 -1971 -2174 0
-2174 -950 -755 -1943 0
-2174 -950 -755 -1936 0
-2174 -950 -755 -2151 0
-2174 -755 -2395 -950 0
-2383 -950 -755 -2159 0
-2151 -950 -755 -2392 0
-2383 -950 -755 -2151 0
-1444 -755 -996 -1971 0
-1943 -1444 -755 -996 0
-2183 -755 -996 -1444 0
-2159 -1444 -755 -996 0
-1444 -755 -996 -2395 0
-1444 -755 -996 -2392 0
-1446 -755 -996 -1971 0
-1943 -1446 -755 -996 0
-1446 -755 -996 -2159 0
-1446 -755 -996 -2395 0
-2159 -1448 -755 -996 0
-1959 -755 -996 -2183 0
-1959 -755 -996 -2159 0
-1959 -755 -2395 -996 0
-755 -2392 -996 -1959 0
-755 -1971 -996 -2174 0
-2174 -1943 -755 -996 0
-2174 -2395 -996 -755 0
-2383 -2159 -755 -996 0
-1673 -755 -994 -1442 0
-755 -1675 -994 -1442 0
-1442 -755 -1971 -994 0
-2183 -755 -994 -1442 0
-1442 -755 -994 -2179 0
-755 -2395 -994 -1442 0
-1442 -755 -994 -2392 0
-2388 -755 -994 -1442 0
-1444 -755 -994 -1971 0
-1444 -755 -994 -2183 0
-1444 -755 -994 -2395 0
-1444 -755 -994 -2392 0
-1446 -755 -994 -1971 0
-1446 -755 -994 -2395 0
-1959 -755 -994 -2183 0
-755 -2395 -994 -1959 0
-1959 -755 -2392 -994 0
-2174 -755 -994 -1971 0
-2174 -755 -2395 -994 0
-1442 -992 -755 -1673 0
-2183 -992 -755 -1442 0
-2179 -992 -755 -1442 0
-1444 -992 -755 -2183 0
-2183 -992 -755 -1959 0
-1442 -755 -1973 -1673 0
-2187 -1442 -755 -1673 0
-2187 -1442 -1675 -755 0
-2187 -755 -1971 -1442 0
-2183 -1973 -755 -1442 0
-2179 -755 -1973 -1442 0
-2183 -1442 -755 -2187 0
-2187 -1442 -755 -2179 0
-2187 -755 -2395 -1442 0
-2187 -1442 -755 -2392 0
-2187 -1442 -755 -2388 0
-2187 -1444 -755 -1971 0
-2397 -1444 -755 -1971 0
-2397 -1444 -755 -1943 0
-1444 -755 -1973 -2183 0
-2187 -1444 -755 -2183 0
-2397 -1444 -755 -2183 0
-2159 -1444 -755 -2397 0
-2187 -1444 -755 -2395 0
-2187 -1444 -755 -2392 0
-2397 -1444 -755 -2395 0
-2397 -1444 -755 -2392 0
-2187 -1446 -755 -1971 0
-2397 -1446 -755 -1971 0
-1943 -1446 -755 -2397 0
-2397 -1446 -755 -2159 0
-2187 -1446 -755 -2395 0
-2397 -1446 -755 -2395 0
-2397 -1448 -755 -2159 0
-2183 -1973 -755 -1959 0
-2187 -1959 -755 -2183 0
-2397 -1959 -755 -2183 0
-2397 -1959 -755 -2159 0
-2187 -755 -2395 -1959 0
-2187 -755 -2392 -1959 0
-2397 -1959 -755 -2395 0
-2397 -1959 -755 -2392 0
-2187 -755 -1971 -2174 0
-2397 -2174 -755 -1971 0
-2174 -1943 -755 -2397 0
-2187 -755 -2395 -2174 0
-2174 -755 -2395 -2397 0
-2397 -2159 -755 -2383 0
-2151 -950 -760 -2392 0
-950 -764 -2392 -2151 0
-1943 -951 -950 -2183 0
-1936 -951 -950 -2183 0
-951 -950 -2392 -2151 0
-950 -953 -1369 -1971 0
-2183 -950 -1369 -953 0
-2183 -1444 -950 -953 0
-1959 -2183 -950 -953 0
-2151 -950 -2392 -953 0
-2183 -1444 -955 -950 0
-1959 -2183 -950 -955 0
-2151 -950 -2392 -955 0
-2151 -957 -2392 -950 0
-2151 -2392 -959 -950 0
-1943 -1162 -950 -2183 0
-950 -1865 -1369 -1172 0
-1943 -950 -1369 -1172 0
-1936 -950 -1369 -1172 0
-2159 -950 -1369 -1172 0
-2151 -950 -1369 -1172 0
-1936 -1172 -1370 -950 0
-2151 -1172 -1370 -950 0
-1444 -950 -1865 -1172 0
-1959 -950 -1865 -1172 0
-950 -1953 -1865 -1172 0
-2151 -950 -2392 -1172 0
-2151 -950 -2377 -1172 0
-1174 -950 -1865 -1444 0
-1444 -1174 -950 -1943 0
-1444 -1174 -950 -1936 0
-1444 -1174 -950 -2159 0
-1444 -1174 -950 -2151 0
-1943 -1174 -950 -1446 0
-1936 -1174 -950 -1446 0
-1446 -1174 -950 -2159 0
-2151 -1174 -950 -1446 0
-1448 -1174 -950 -2159 0
-2151 -1174 -950 -1448 0
-1673 -1174 -950 -2159 0
-1959 -950 -1865 -1174 0
-1959 -1174 -950 -1936 0
-1959 -1174 -950 -2159 0
-1959 -1174 -950 -2151 0
-2174 -1174 -950 -1943 0
-2174 -1174 -950 -1936 0
-2174 -1174 -950 -2151 0
-2151 -1174 -950 -2392 0
-2383 -1174 -950 -2151 0
-1671 -1176 -950 -1943 0
-1671 -1176 -950 -2159 0
-1673 -1176 -950 -1943 0
-1673 -1176 -950 -2159 0
-1176 -950 -1675 -2159 0
-1964 -1176 -950 -2159 0
-1176 -950 -2392 -2151 0
-950 -2392 -1178 -2151 0
-1429 -1865 -1369 -950 0
-1943 -950 -1369 -1429 0
-1936 -950 -1369 -1429 0
-2159 -950 -1369 -1429 0
-2151 -950 -1369 -1429 0
-1418 -950 -1865 -1369 0
-1418 -950 -1971 -1369 0
-1943 -1418 -950 -1369 0
-1936 -1418 -950 -1369 0
-2183 -1418 -1369 -950 0
-2159 -1418 -950 -1369 0
-2151 -1418 -950 -1369 0
-1418 -950 -2395 -1369 0
-1418 -950 -1369 -2392 0
-950 -1865 -1422 -1369 0
-950 -1971 -1422 -1369 0
-950 -1422 -1369 -1943 0
-1936 -950 -1369 -1422 0
-2183 -1422 -1369 -950 0
-2159 -950 -1369 -1422 0
-950 -1422 -1369 -2151 0
-950 -1422 -1369 -2395 0
-950 -1422 -1369 -2392 0
-1936 -1429 -1370 -950 0
-2159 -1429 -1370 -950 0
-2151 -1429 -1370 -950 0
-1943 -1418 -950 -1370 0
-1418 -950 -1370 -1936 0
-2159 -1418 -950 -1370 0
-2151 -1418 -1370 -950 0
-1418 -950 -2395 -1370 0
-1943 -950 -1422 -1370 0
-950 -1370 -1422 -1936 0
-2159 -950 -1422 -1370 0
-2151 -1370 -1422 -950 0
-950 -2395 -1422 -1370 0
-1444 -950 -1865 -1429 0
-1936 -1444 -950 -1429 0
-2151 -1444 -950 -1429 0
-2151 -1448 -950 -1429 0
-1959 -1429 -1865 -950 0
-1429 -1953 -1865 -950 0
-1959 -1429 -950 -1936 0
-2151 -1959 -1429 -950 0
-1429 -950 -1953 -1936 0
-2151 -1429 -1953 -950 0
-2151 -1429 -2392 -950 0
-2383 -2151 -1429 -950 0
-2151 -1429 -2377 -950 0
-1418 -950 -1865 -1444 0
-1444 -950 -1971 -1418 0
-1943 -1444 -950 -1418 0
-1936 -1418 -950 -1444 0
-2183 -1444 -950 -1418 0
-2159 -1444 -950 -1418 0
-2151 -1444 -950 -1418 0
-1444 -950 -2392 -1418 0
-1943 -1418 -950 -1446 0
-2151 -1418 -950 -1446 0
-2151 -1418 -950 -1448 0
-1418 -950 -1865 -1959 0
-1418 -950 -1865 -1953 0
-1959 -1418 -950 -1943 0
-1959 -1418 -950 -1936 0
-1959 -1418 -950 -2183 0
-1959 -1418 -950 -2159 0
-1959 -1418 -950 -2151 0
-1959 -1418 -2392 -950 0
-1418 -950 -1971 -1953 0
-1418 -950 -1953 -1936 0
-2159 -1418 -1953 -950 0
-2151 -1418 -1953 -950 0
-1418 -950 -2395 -1953 0
-1418 -950 -1953 -2392 0
-2174 -1943 -1418 -950 0
-2174 -1936 -1418 -950 0
-2174 -1418 -950 -2151 0
-2383 -1418 -950 -2159 0
-2159 -1418 -2377 -950 0
-1418 -950 -2392 -2151 0
-2383 -1418 -950 -2151 0
-2151 -1418 -2377 -950 0
-950 -1865 -1422 -1444 0
-1943 -1444 -950 -1422 0
-1936 -950 -1422 -1444 0
-2183 -1444 -950 -1422 0
-2159 -1444 -950 -1422 0
-2151 -1444 -950 -1422 0
-1444 -950 -2395 -1422 0
-1444 -950 -2392 -1422 0
-1943 -950 -1422 -1446 0
-1936 -950 -1422 -1446 0
-2159 -950 -1422 -1446 0
-950 -2395 -1422 -1446 0
-2159 -950 -1422 -1448 0
-2151 -1448 -950 -1422 0
-950 -1865 -1422 -1959 0
-950 -1865 -1422 -1953 0
-1959 -950 -1422 -1943 0
-1959 -950 -1422 -1936 0
-1959 -950 -1422 -2183 0
-2159 -1959 -1422 -950 0
-2151 -1959 -1422 -950 0
-950 -2395 -1422 -1959 0
-1959 -2392 -1422 -950 0
-950 -1971 -1422 -1953 0
-950 -1953 -1422 -1943 0
-950 -1953 -1422 -1936 0
-950 -1953 -1422 -2183 0
-2159 -1953 -1422 -950 0
-2151 -1953 -1422 -950 0
-950 -2395 -1422 -1953 0
-950 -1953 -1422 -2392 0
-2174 -1943 -1422 -950 0
-2174 -1936 -1422 -950 0
-2174 -950 -1422 -2151 0
-950 -2395 -1422 -2174 0
-2159 -2377 -1422 -950 0
-950 -2392 -1422 -2151 0
-2383 -950 -1422 -2151 0
-1653 -950 -1865 -1444 0
-1653 -1444 -950 -1943 0
-1653 -1444 -950 -1936 0
-1653 -1444 -950 -2159 0
-1653 -1444 -950 -2151 0
-1642 -950 -1865 -1444 0
-1642 -1444 -950 -1971 0
-1642 -1444 -950 -1943 0
-1936 -1642 -950 -1444 0
-1642 -1444 -950 -2183 0
-1642 -1444 -950 -2159 0
-2151 -1642 -950 -1444 0
-1642 -1444 -2395 -950 0
-1642 -1444 -950 -2392 0
-1444 -950 -1647 -1865 0
-1444 -950 -1647 -1971 0
-1444 -950 -1647 -1943 0
-1444 -950 -1647 -1936 0
-1444 -950 -1647 -2183 0
-1444 -950 -1647 -2159 0
-2151 -950 -1647 -1444 0
-1444 -950 -1647 -2395 0
-1444 -950 -1647 -2392 0
-1653 -1446 -950 -1943 0
-1936 -1653 -950 -1446 0
-1653 -1446 -950 -2159 0
-1653 -1446 -950 -2151 0
-1446 -950 -1971 -1642 0
-1642 -1446 -950 -1943 0
-1936 -1642 -950 -1446 0
-1642 -1446 -950 -2159 0
-2151 -1642 -950 -1446 0
-1642 -1446 -2395 -950 0
-950 -1971 -1647 -1446 0
-1446 -950 -1647 -1943 0
-1446 -950 -1647 -1936 0
-1446 -950 -1647 -2159 0
-2151 -950 -1647 -1446 0
-1446 -950 -1647 -2395 0
-1653 -1448 -950 -2159 0
-2151 -1653 -950 -1448 0
-2159 -1642 -1448 -950 0
-2151 -1642 -950 -1448 0
-1448 -950 -1647 -2159 0
-2151 -950 -1647 -1448 0
-1943 -1671 -950 -1653 0
-2159 -1671 -950 -1653 0
-1943 -1673 -950 -1653 0
-2159 -1673 -950 -1653 0
-2159 -1653 -950 -1675 0
-1653 -950 -1865 -1959 0
-2159 -1653 -950 -1964 0
-1959 -1653 -950 -1936 0
-1959 -1653 -950 -2159 0
-1959 -1653 -950 -2151 0
-2179 -1653 -950 -1943 0
-2174 -1653 -950 -1943 0
-1936 -1653 -950 -2174 0
-2174 -1653 -950 -2151 0
-1653 -950 -2392 -2151 0
-2383 -1653 -950 -2151 0
-1642 -950 -1865 -1959 0
-1959 -1642 -950 -1943 0
-1959 -1642 -950 -1936 0
-1959 -1642 -950 -2183 0
-1959 -1642 -950 -2159 0
-1959 -1642 -950 -2151 0
-1959 -1642 -2395 -950 0
-1959 -1642 -2392 -950 0
-1642 -950 -1971 -2174 0
-2174 -1642 -950 -1943 0
-2174 -1936 -1642 -950 0
-2174 -1642 -950 -2151 0
-2174 -1642 -2395 -950 0
-2383 -1642 -950 -2159 0
-1642 -950 -2392 -2151 0
-2383 -1642 -950 -2151 0
-950 -1865 -1647 -1959 0
-1959 -950 -1647 -1943 0
-1959 -950 -1647 -1936 0
-1959 -950 -1647 -2183 0
-1959 -950 -1647 -2159 0
-1959 -950 -1647 -2151 0
-950 -2395 -1647 -1959 0
-1959 -950 -1647 -2392 0
-950 -1971 -1647 -2174 0
-2174 -1647 -950 -1943 0
-2174 -1936 -1647 -950 0
-2174 -1647 -950 -2151 0
-2174 -1647 -950 -2395 0
-2383 -950 -1647 -2159 0
-950 -2392 -1647 -2151 0
-2383 -950 -1647 -2151 0
-1671 -950 -1865 -1871 0
-1671 -950 -1871 -1943 0
-1671 -950 -1871 -1936 0
-1671 -950 -1871 -2159 0
-1671 -950 -1871 -2151 0
-1671 -950 -1865 -1864 0
-1673 -950 -1871 -1943 0
-1673 -950 -1871 -1936 0
-1673 -950 -1871 -2159 0
-1673 -950 -1871 -2151 0
-1673 -950 -1864 -1971 0
-1673 -950 -1864 -1943 0
-1673 -950 -1864 -1936 0
-1673 -950 -1864 -2159 0
-1673 -950 -1864 -2151 0
-1673 -950 -1864 -2395 0
-2159 -950 -1675 -1871 0
-950 -1871 -1675 -2151 0
-950 -1864 -1675 -2159 0
-950 -1864 -1675 -2151 0
-1964 -950 -1865 -1871 0
-1964 -950 -1871 -1936 0
-1964 -950 -1871 -2159 0
-1964 -950 -1871 -2151 0
-1943 -950 -1871 -2179 0
-1936 -950 -1871 -2179 0
-2151 -950 -1871 -2179 0
-2151 -950 -2392 -1871 0
-2388 -950 -1871 -2151 0
-1964 -950 -1865 -1864 0
-2179 -950 -1864 -1971 0
-1943 -950 -1864 -2179 0
-1936 -950 -1864 -2179 0
-2179 -950 -1864 -2151 0
-2388 -950 -1864 -2159 0
-950 -2392 -1864 -2151 0
-2388 -950 -1864 -2151 0
-2183 -1943 -950 -1946 0
-2183 -1936 -950 -1946 0
-950 -2392 -1946 -2151 0
-2183 -1935 -950 -1943 0
-2183 -1936 -950 -1935 0
-1935 -950 -2392 -2151 0
-2183 -1942 -950 -1943 0
-1942 -950 -2392 -2151 0
-1943 -2183 -996 -951 0
-953 -1971 -996 -1369 0
-1943 -953 -996 -1369 0
-2183 -953 -996 -1369 0
-2159 -996 -1369 -953 0
-2395 -953 -996 -1369 0
-2392 -953 -996 -1369 0
-1943 -953 -1370 -996 0
-2159 -1370 -996 -953 0
-2395 -1370 -996 -953 0
-2183 -1444 -996 -953 0
-1444 -2159 -996 -953 0
-1444 -953 -2392 -996 0
-1446 -2159 -996 -953 0
-2159 -1448 -996 -953 0
-1964 -2392 -996 -953 0
-1959 -2183 -996 -953 0
-1959 -2159 -996 -953 0
-1959 -953 -2392 -996 0
-2392 -1953 -996 -953 0
-2383 -2159 -953 -996 0
-1444 -1971 -996 -955 0
-1943 -1444 -955 -996 0
-2183 -1444 -996 -955 0
-2159 -1444 -955 -996 0
-1444 -2395 -996 -955 0
-1444 -955 -2392 -996 0
-1446 -1971 -996 -955 0
-1943 -1446 -955 -996 0
-1446 -2159 -996 -955 0
-1446 -955 -2395 -996 0
-2159 -1448 -996 -955 0
-1959 -2183 -996 -955 0
-1959 -2159 -996 -955 0
-1959 -2395 -996 -955 0
-1959 -2392 -996 -955 0
-2174 -1971 -996 -955 0
-2174 -1943 -955 -996 0
-2174 -2395 -996 -955 0
-2383 -2159 -996 -955 0
-1162 -2392 -996 -957 0
-1162 -2392 -996 -1369 0
-1673 -1162 -1871 -996 0
-1172 -1943 -996 -1369 0
-1172 -2159 -996 -1369 0
-1444 -1174 -996 -1943 0
-1444 -1174 -996 -2159 0
-1943 -1174 -996 -1446 0
-1446 -1174 -996 -2159 0
-2159 -1174 -996 -1448 0
-2159 -1174 -996 -1673 0
-2159 -1174 -996 -1964 0
-1959 -1174 -996 -2159 0
-1943 -1174 -996 -2174 0
-1671 -1176 -996 -1943 0
-1671 -1176 -996 -2159 0
-1673 -1176 -996 -1943 0
-1673 -1176 -996 -2159 0
-1176 -1675 -996 -2159 0
-1964 -1176 -996 -2159 0
-2179 -1176 -996 -1943 0
-1943 -1429 -996 -1369 0
-2159 -996 -1369 -1429 0
-1418 -1971 -996 -1369 0
-1943 -1418 -1369 -996 0
-2183 -1418 -1369 -996 0
-2159 -1418 -996 -1369 0
-1418 -2395 -996 -1369 0
-1418 -2392 -996 -1369 0
-1971 -1422 -996 -1369 0
-1943 -1422 -1369 -996 0
-1422 -2183 -996 -1369 0
-2159 -996 -1369 -1422 0
-1422 -2395 -996 -1369 0
-1422 -2392 -996 -1369 0
-1418 -1370 -996 -1943 0
-2159 -1418 -996 -1370 0
-1418 -2395 -996 -1370 0
-1370 -1422 -996 -1943 0
-2159 -1422 -996 -1370 0
-2395 -1422 -996 -1370 0
-1943 -1444 -996 -1418 0
-2183 -1444 -996 -1418 0
-2159 -1444 -996 -1418 0
-1444 -2395 -996 -1418 0
-1444 -2392 -996 -1418 0
-1943 -1446 -996 -1418 0
-2159 -1446 -996 -1418 0
-1446 -2395 -996 -1418 0
-2159 -1418 -996 -1448 0
-1959 -1418 -996 -2183 0
-1959 -1418 -996 -2159 0
-1418 -2395 -996 -1959 0
-1959 -1418 -2392 -996 0
-1418 -1953 -996 -2392 0
-2174 -1943 -1418 -996 0
-2174 -1418 -2395 -996 0
-2383 -1418 -996 -2159 0
-1943 -1444 -996 -1422 0
-2183 -1444 -996 -1422 0
-2159 -1444 -996 -1422 0
-1444 -2395 -996 -1422 0
-1444 -2392 -996 -1422 0
-1943 -1422 -996 -1446 0
-2159 -1422 -996 -1446 0
-2395 -1422 -996 -1446 0
-2159 -1422 -996 -1448 0
-1959 -1422 -996 -2183 0
-2159 -1959 -1422 -996 0
-2395 -1422 -996 -1959 0
-1959 -2392 -1422 -996 0
-2183 -1953 -1422 -996 0
-1953 -1422 -996 -2392 0
-2174 -1943 -1422 -996 0
-2395 -1422 -996 -2174 0
-2383 -2159 -1422 -996 0
-1653 -1444 -996 -1943 0
-2159 -1653 -1444 -996 0
-1642 -1444 -996 -1971 0
-1642 -1444 -996 -1943 0
-2183 -1642 -996 -1444 0
-1642 -1444 -996 -2159 0
-1642 -1444 -2395 -996 0
-1642 -1444 -996 -2392 0
-1444 -1647 -996 -1971 0
-1943 -1444 -1647 -996 0
-2183 -1647 -996 -1444 0
-2159 -1444 -1647 -996 0
-1444 -1647 -996 -2395 0
-1444 -1647 -996 -2392 0
-1943 -1653 -996 -1446 0
-2159 -1653 -1446 -996 0
-1642 -1446 -996 -1971 0
-1943 -1642 -1446 -996 0
-1642 -1446 -996 -2159 0
-1642 -1446 -2395 -996 0
-1971 -1647 -996 -1446 0
-1943 -1446 -1647 -996 0
-1446 -1647 -996 -2159 0
-1446 -2395 -1647 -996 0
-2159 -1653 -996 -1448 0
-2159 -1642 -1448 -996 0
-2159 -1647 -996 -1448 0
-1943 -1671 -996 -1653 0
-2159 -1671 -996 -1653 0
-1943 -1673 -996 -1653 0
-2159 -1653 -996 -1673 0
-2159 -1675 -996 -1653 0
-2159 -1653 -996 -1964 0
-1959 -1653 -996 -2159 0
-2179 -1653 -996 -1943 0
-1943 -1653 -996 -2174 0
-1959 -1642 -996 -2183 0
-1959 -1642 -996 -2159 0
-1959 -1642 -2395 -996 0
-1959 -1642 -2392 -996 0
-1642 -1971 -996 -2174 0
-2174 -1943 -1642 -996 0
-2174 -1642 -2395 -996 0
-2383 -1642 -996 -2159 0
-1959 -1647 -996 -2183 0
-1959 -1647 -996 -2159 0
-1959 -2395 -1647 -996 0
-2392 -1647 -996 -1959 0
-1971 -1647 -996 -2174 0
-2174 -1943 -1647 -996 0
-2174 -2395 -996 -1647 0
-2383 -1647 -996 -2159 0
-1671 -1871 -996 -1943 0
-1671 -1871 -996 -2159 0
-1671 -1864 -996 -1971 0
-1671 -1864 -996 -1943 0
-1671 -1864 -996 -2159 0
-1671 -2395 -996 -1864 0
-2392 -1864 -996 -1671 0
-1673 -1871 -996 -1943 0
-2159 -1673 -996 -1871 0
-1673 -1864 -996 -1971 0
-1673 -1864 -996 -1943 0
-1673 -1864 -996 -2159 0
-1673 -1864 -996 -2395 0
-1871 -1675 -996 -2159 0
-1864 -1675 -996 -2159 0
-1964 -1871 -996 -2159 0
-1943 -1871 -996 -2179 0
-1964 -1864 -996 -2183 0
-2159 -1864 -996 -1964 0
-2395 -1864 -996 -1964 0
-2179 -1864 -996 -1971 0
-2179 -1864 -996 -1943 0
-2388 -1864 -996 -2159 0
-2183 -1943 -996 -1946 0
-2183 -1935 -996 -1943 0
-2183 -1942 -996 -1943 0
-1162 -951 -1369 -994 0
-1162 -951 -1370 -994 0
-1172 -1370 -994 -951 0
-1444 -1174 -951 -994 0
-1446 -1174 -951 -994 0
-1448 -1174 -951 -994 0
-1671 -1174 -994 -951 0
-1673 -1174 -994 -951 0
-1174 -1675 -994 -951 0
-2183 -1174 -951 -994 0
-2174 -1174 -951 -994 0
-1174 -951 -2392 -994 0
-2388 -1174 -951 -994 0
-2383 -1174 -951 -994 0
-1673 -1176 -994 -951 0
-1176 -1675 -994 -951 0
-2183 -1176 -994 -951 0
-2179 -1176 -994 -951 0
-1176 -951 -2392 -994 0
-2388 -1176 -994 -951 0
-2183 -1178 -994 -951 0
-951 -2392 -1178 -994 0
-1429 -951 -1369 -994 0
-951 -994 -1369 -1971 0
-2183 -951 -1369 -994 0
-951 -2395 -1369 -994 0
-951 -2392 -1369 -994 0
-951 -2395 -1370 -994 0
-2183 -1429 -994 -951 0
-1429 -2392 -994 -951 0
-1673 -1442 -951 -994 0
-1442 -1675 -994 -951 0
-2183 -1442 -951 -994 0
-1442 -2179 -951 -994 0
-1442 -951 -2392 -994 0
-1442 -2388 -951 -994 0
-2183 -1444 -951 -994 0
-1444 -951 -2392 -994 0
-1446 -1660 -951 -994 0
-1653 -1446 -994 -951 0
-1448 -1660 -951 -994 0
-1653 -1448 -994 -951 0
-1673 -1660 -951 -994 0
-1675 -1660 -951 -994 0
-2183 -1660 -951 -994 0
-2179 -1660 -951 -994 0
-2174 -1660 -951 -994 0
-1660 -951 -2392 -994 0
-2388 -1660 -951 -994 0
-2383 -1660 -994 -951 0
-1673 -1653 -951 -994 0
-1675 -1653 -951 -994 0
-2183 -1653 -994 -951 0
-2179 -1653 -994 -951 0
-2174 -1653 -951 -994 0
-1653 -951 -2392 -994 0
-2388 -1653 -994 -951 0
-2383 -1653 -994 -951 0
-1673 -1871 -994 -951 0
-951 -1871 -1675 -994 0
-2183 -951 -1871 -994 0
-2179 -951 -1871 -994 0
-951 -2392 -1871 -994 0
-2388 -1871 -994 -951 0
-2183 -1964 -951 -994 0
-1959 -2183 -951 -994 0
-1959 -951 -2392 -994 0
-2183 -1953 -951 -994 0
-951 -2392 -1953 -994 0
-2183 -951 -1946 -994 0
-951 -2392 -1946 -994 0
-1162 -1370 -994 -953 0
-1448 -1162 -994 -953 0
-1660 -1162 -994 -953 0
-2183 -1162 -994 -953 0
-2383 -1162 -994 -953 0
-2377 -1162 -994 -953 0
-953 -1369 -994 -1971 0
-2183 -953 -994 -1369 0
-2395 -953 -994 -1369 0
-2392 -953 -994 -1369 0
-2395 -1370 -994 -953 0
-1671 -1442 -994 -953 0
-1673 -1442 -994 -953 0
-1442 -1675 -994 -953 0
-1964 -1442 -994 -953 0
-2183 -1442 -994 -953 0
-2179 -1442 -994 -953 0
-1442 -2395 -994 -953 0
-1442 -2392 -994 -953 0
-2388 -1442 -994 -953 0
-1444 -1660 -994 -953 0
-2183 -1444 -994 -953 0
-1444 -2395 -994 -953 0
-1444 -953 -2392 -994 0
-1446 -1660 -994 -953 0
-1446 -953 -2395 -994 0
-1448 -1660 -994 -953 0
-1671 -1660 -994 -953 0
-1673 -1660 -994 -953 0
-1675 -1660 -994 -953 0
-1964 -1660 -994 -953 0
-1959 -1660 -994 -953 0
-2179 -1660 -994 -953 0
-2174 -1660 -994 -953 0
-1660 -2392 -994 -953 0
-2388 -1660 -994 -953 0
-2383 -1660 -994 -953 0
-2183 -1959 -994 -953 0
-1959 -2395 -994 -953 0
-1959 -953 -2392 -994 0
-2392 -1953 -994 -953 0
-2174 -2395 -994 -953 0
-1446 -1162 -955 -994 0
-1448 -1162 -955 -994 0
-2183 -1162 -955 -994 0
-2174 -1162 -955 -994 0
-2383 -1162 -955 -994 0
-1442 -1671 -994 -955 0
-1673 -1442 -994 -955 0
-1442 -1675 -994 -955 0
-1964 -1442 -994 -955 0
-1442 -955 -1971 -994 0
-2183 -1442 -994 -955 0
-1442 -2179 -994 -955 0
-1442 -2395 -994 -955 0
-1442 -2392 -994 -955 0
-1442 -2388 -994 -955 0
-1444 -1971 -994 -955 0
-2183 -1444 -994 -955 0
-1444 -2395 -994 -955 0
-1444 -955 -2392 -994 0
-1446 -1971 -994 -955 0
-1446 -2395 -994 -955 0
-2183 -1959 -994 -955 0
-1959 -2395 -994 -955 0
-1959 -2392 -994 -955 0
-2174 -1971 -994 -955 0
-2174 -955 -2395 -994 0
-2183 -1162 -994 -957 0
-1162 -2392 -994 -957 0
-2183 -1162 -959 -994 0
-1162 -2395 -994 -1369 0
-1429 -1370 -994 -1162 0
-1162 -1370 -994 -1418 0
-1162 -1370 -994 -2395 0
-1429 -1162 -994 -1660 0
-1448 -1162 -994 -1418 0
-1418 -1162 -994 -1660 0
-2383 -1418 -1162 -994 0
-1418 -2377 -994 -1162 0
-1442 -1675 -994 -1162 0
-1442 -1162 -994 -2388 0
-1446 -1162 -994 -1660 0
-1653 -1446 -994 -1162 0
-1642 -1446 -994 -1162 0
-1660 -1448 -994 -1162 0
-1653 -1448 -994 -1162 0
-1642 -1448 -994 -1162 0
-1660 -1162 -994 -1675 0
-2174 -1660 -994 -1162 0
-2388 -1162 -994 -1660 0
-2383 -1660 -994 -1162 0
-2174 -1653 -1162 -994 0
-2383 -1653 -1162 -994 0
-2174 -1642 -994 -1162 0
-2383 -1642 -1162 -994 0
-1673 -1871 -994 -1162 0
-1162 -1871 -1675 -994 0
-1162 -1971 -1871 -994 0
-1162 -1871 -994 -2179 0
-1162 -2392 -994 -1871 0
-2388 -1871 -994 -1162 0
-1418 -1971 -994 -1369 0
-2183 -1418 -994 -1369 0
-1418 -2395 -994 -1369 0
-1418 -2392 -994 -1369 0
-1422 -1971 -994 -1369 0
-2183 -1422 -994 -1369 0
-2395 -1422 -994 -1369 0
-1422 -2392 -994 -1369 0
-1418 -2395 -994 -1370 0
-2395 -1422 -994 -1370 0
-1671 -1418 -994 -1442 0
-1673 -1418 -994 -1442 0
-1418 -1675 -994 -1442 0
-1964 -1418 -994 -1442 0
-2183 -1418 -994 -1442 0
-2179 -1418 -994 -1442 0
-1418 -2395 -994 -1442 0
-1418 -2392 -994 -1442 0
-2388 -1418 -994 -1442 0
-1660 -1444 -994 -1418 0
-2183 -1418 -994 -1444 0
-1444 -2395 -994 -1418 0
-1444 -2392 -994 -1418 0
-1660 -1446 -994 -1418 0
-1446 -2395 -994 -1418 0
-1660 -1448 -994 -1418 0
-1660 -1418 -994 -1671 0
-1660 -1418 -994 -1673 0
-1660 -1418 -994 -1675 0
-1964 -1418 -994 -1660 0
-2179 -1660 -994 -1418 0
-2174 -1660 -994 -1418 0
-1660 -2392 -994 -1418 0
-2388 -1418 -994 -1660 0
-2383 -1660 -994 -1418 0
-1959 -1418 -994 -2183 0
-1418 -2395 -994 -1959 0
-1959 -1418 -2392 -994 0
-1418 -1953 -994 -2392 0
-1418 -2395 -994 -2174 0
-1673 -1422 -994 -1442 0
-1675 -1422 -994 -1442 0
-2183 -1422 -994 -1442 0
-2179 -1422 -994 -1442 0
-2395 -1422 -994 -1442 0
-2392 -1422 -994 -1442 0
-2388 -1422 -994 -1442 0
-2183 -1422 -994 -1444 0
-1444 -2392 -994 -1422 0
-1660 -1422 -994 -1446 0
-2395 -1422 -994 -1446 0
-1660 -1422 -994 -1448 0
-1660 -1422 -994 -1673 0
-1660 -1422 -994 -1675 0
-1660 -1422 -994 -2183 0
-1660 -1422 -994 -2179 0
-1660 -1422 -994 -2174 0
-1660 -1422 -994 -2392 0
-1660 -1422 -994 -2388 0
-1660 -1422 -994 -2383 0
-1959 -1422 -994 -2183 0
-1959 -1422 -994 -2395 0
-1959 -2392 -1422 -994 0
-2183 -1422 -994 -1953 0
-1953 -1422 -994 -2392 0
-2395 -1422 -994 -2174 0
-1642 -1442 -994 -1671 0
-1673 -1442 -994 -1642 0
-1442 -1675 -994 -1642 0
-1964 -1642 -994 -1442 0
-1642 -1971 -994 -1442 0
-2183 -1642 -994 -1442 0
-2179 -1642 -994 -1442 0
-1642 -2395 -994 -1442 0
-1642 -1442 -994 -2392 0
-2388 -1642 -994 -1442 0
-1442 -1647 -994 -1673 0
-1442 -1675 -994 -1647 0
-1971 -1647 -994 -1442 0
-2183 -1647 -994 -1442 0
-2179 -1647 -994 -1442 0
-2395 -1647 -994 -1442 0
-1442 -1647 -994 -2392 0
-1442 -1647 -994 -2388 0
-1642 -1444 -994 -1971 0
-1642 -1444 -994 -2183 0
-1642 -1444 -2395 -994 0
-1642 -1444 -994 -2392 0
-1444 -1647 -994 -1971 0
-1444 -1647 -994 -2183 0
-1444 -1647 -994 -2395 0
-1444 -1647 -994 -2392 0
-1642 -1446 -994 -1971 0
-1642 -1446 -2395 -994 0
-1446 -1647 -994 -1971 0
-1446 -2395 -1647 -994 0
-1959 -1642 -994 -2183 0
-1642 -2395 -994 -1959 0
-1959 -1642 -2392 -994 0
-2174 -1642 -994 -1971 0
-2174 -1642 -2395 -994 0
-1959 -1647 -994 -2183 0
-2395 -1647 -994 -1959 0
-1959 -2392 -1647 -994 0
-2174 -1647 -994 -1971 0
-2395 -1647 -994 -2174 0
-1671 -1971 -1864 -994 0
-1671 -2395 -1864 -994 0
-2392 -1864 -994 -1671 0
-1673 -1864 -994 -1971 0
-1673 -2395 -994 -1864 0
-2183 -1864 -994 -1964 0
-2395 -1864 -994 -1964 0
-2179 -1971 -1864 -994 0
-1172 -951 -1370 -992 0
-2183 -1172 -992 -951 0
-1444 -1174 -992 -951 0
-1446 -1174 -992 -951 0
-1671 -1174 -992 -951 0
-1673 -1174 -992 -951 0
-2183 -1174 -992 -951 0
-2174 -1174 -951 -992 0
-2183 -1176 -992 -951 0
-2183 -992 -1178 -951 0
-2183 -951 -1369 -992 0
-2183 -1429 -992 -951 0
-1673 -1442 -951 -992 0
-2183 -1442 -951 -992 0
-2179 -1442 -951 -992 0
-2183 -1444 -951 -992 0
-1446 -1660 -951 -992 0
-1653 -1446 -992 -951 0
-1673 -1660 -951 -992 0
-2183 -1660 -951 -992 0
-2179 -1660 -951 -992 0
-2174 -1660 -951 -992 0
-1673 -1653 -951 -992 0
-2183 -1653 -992 -951 0
-2179 -1653 -992 -951 0
-2174 -1653 -992 -951 0
-1673 -951 -1871 -992 0
-2183 -951 -1871 -992 0
-2179 -951 -1871 -992 0
-2183 -1964 -951 -992 0
-2183 -1959 -951 -992 0
-2183 -1953 -951 -992 0
-2183 -951 -1946 -992 0
-1162 -992 -1370 -953 0
-1660 -1162 -992 -953 0
-2183 -992 -1369 -953 0
-1671 -1442 -992 -953 0
-1673 -1442 -992 -953 0
-1964 -1442 -992 -953 0
-2183 -1442 -992 -953 0
-2179 -1442 -992 -953 0
-1660 -1444 -992 -953 0
-2183 -1444 -992 -953 0
-1446 -1660 -992 -953 0
-1671 -1660 -992 -953 0
-1660 -1673 -992 -953 0
-1964 -1660 -992 -953 0
-1959 -1660 -992 -953 0
-2179 -1660 -992 -953 0
-2174 -1660 -992 -953 0
-2183 -1959 -992 -953 0
-1444 -1162 -992 -955 0
-1446 -1162 -992 -955 0
-2174 -1162 -992 -955 0
-1442 -1671 -992 -955 0
-1442 -1673 -992 -955 0
-1442 -1964 -992 -955 0
-2183 -1442 -992 -955 0
-1442 -2179 -992 -955 0
-2183 -1444 -992 -955 0
-2183 -1959 -992 -955 0
-1162 -992 -1370 -1429 0
-1162 -992 -1370 -1418 0
-1429 -1162 -992 -1660 0
-1418 -1162 -992 -1660 0
-1446 -1162 -992 -1660 0
-1446 -1162 -992 -1653 0
-1446 -1162 -992 -1642 0
-2174 -1660 -992 -1162 0
-2174 -1162 -992 -1653 0
-2174 -1162 -992 -1642 0
-1673 -1162 -992 -1871 0
-2183 -1162 -992 -1871 0
-2179 -1162 -992 -1871 0
-2183 -1418 -992 -1369 0
-2183 -992 -1422 -1369 0
-1671 -1418 -992 -1442 0
-1673 -1418 -992 -1442 0
-1964 -1418 -992 -1442 0
-2183 -1418 -992 -1442 0
-2179 -1418 -992 -1442 0
-1660 -1444 -992 -1418 0
-2183 -1418 -992 -1444 0
-1660 -1446 -992 -1418 0
-1660 -1418 -992 -1671 0
-1660 -1418 -992 -1673 0
-1964 -1418 -992 -1660 0
-2179 -1660 -992 -1418 0
-2174 -1660 -992 -1418 0
-2183 -1418 -992 -1959 0
-1673 -992 -1422 -1442 0
-2183 -992 -1422 -1442 0
-2179 -992 -1422 -1442 0
-2183 -992 -1422 -1444 0
-1660 -992 -1422 -1446 0
-1660 -992 -1422 -1673 0
-2183 -992 -1422 -1660 0
-1660 -992 -1422 -2179 0
-1660 -992 -1422 -2174 0
-2183 -992 -1422 -1959 0
-2183 -992 -1422 -1953 0
-1642 -1442 -992 -1671 0
-1642 -1442 -992 -1673 0
-1964 -1642 -992 -1442 0
-2183 -1642 -992 -1442 0
-2179 -1642 -992 -1442 0
-1442 -992 -1647 -1673 0
-2183 -992 -1647 -1442 0
-2179 -992 -1647 -1442 0
-1642 -1444 -992 -2183 0
-1444 -992 -1647 -2183 0
-1959 -1642 -992 -2183 0
-2183 -992 -1647 -1959 0
-2183 -992 -1864 -1964 0
-1444 -1174 -990 -951 0
-1671 -1174 -990 -951 0
-1444 -1162 -990 -953 0
-1660 -1162 -990 -953 0
-1162 -990 -1953 -953 0
-1671 -1442 -990 -953 0
-1964 -1442 -990 -953 0
-1660 -1444 -990 -953 0
-1671 -1660 -990 -953 0
-1964 -1660 -990 -953 0
-1959 -1660 -990 -953 0
-1671 -1442 -955 -990 0
-1442 -1964 -955 -990 0
-1429 -1162 -990 -1660 0
-1418 -1162 -990 -1660 0
-1671 -1418 -990 -1442 0
-1964 -1418 -990 -1442 0
-1660 -1444 -990 -1418 0
-1660 -1418 -990 -1671 0
-1964 -1418 -990 -1660 0
-1642 -1442 -990 -1671 0
-1642 -1442 -990 -1964 0
-1660 -1162 -988 -953 0
-1429 -1162 -988 -1660 0
-1418 -1162 -988 -1660 0
-1660 -1162 -986 -953 0
-1429 -1162 -986 -1660 0
-1418 -1162 -986 -1660 0
-951 -1865 -1178 -1171 0
-1367 -1429 -1171 -951 0
-1368 -1429 -1171 -951 0
-1429 -1171 -1369 -951 0
-951 -1865 -1369 -1171 0
-2159 -1171 -1369 -951 0
-2151 -1171 -1369 -951 0
-1429 -1171 -1370 -951 0
-1943 -951 -1370 -1171 0
-1936 -951 -1370 -1171 0
-2159 -951 -1370 -1171 0
-2151 -1171 -1370 -951 0
-1171 -2395 -1370 -951 0
-1371 -1429 -1171 -951 0
-1366 -1429 -1171 -951 0
-1365 -1429 -1171 -951 0
-1429 -1442 -1171 -951 0
-1444 -1171 -951 -1429 0
-1429 -1171 -951 -1446 0
-1448 -1171 -951 -1429 0
-1429 -1171 -951 -1423 0
-1429 -1171 -951 -1419 0
-1660 -1429 -1171 -951 0
-1671 -1429 -1171 -951 0
-1673 -1429 -1171 -951 0
-1429 -1171 -1675 -951 0
-1429 -1171 -1648 -951 0
-1643 -1429 -1171 -951 0
-1875 -1429 -1171 -951 0
-1874 -1429 -1171 -951 0
-1876 -1429 -1171 -951 0
-1877 -1429 -1171 -951 0
-1869 -1429 -1171 -951 0
-1429 -1171 -1865 -951 0
-1964 -1429 -1171 -951 0
-1959 -1429 -1171 -951 0
-1429 -1171 -1953 -951 0
-1429 -1171 -1971 -951 0
-1943 -1429 -1171 -951 0
-1936 -1429 -1171 -951 0
-2183 -1429 -1171 -951 0
-2179 -1429 -1171 -951 0
-2174 -1429 -1171 -951 0
-2168 -1429 -1171 -951 0
-2159 -1429 -1171 -951 0
-2151 -1429 -1171 -951 0
-1429 -1171 -2395 -951 0
-1429 -1171 -2392 -951 0
-2388 -1429 -1171 -951 0
-2383 -1429 -1171 -951 0
-1429 -1171 -2377 -951 0
-1444 -951 -1865 -1171 0
-1671 -1171 -1865 -951 0
-1959 -1171 -1865 -951 0
-1171 -1953 -1865 -951 0
-1171 -1946 -1865 -951 0
-2159 -951 -1226 -1172 0
-2159 -951 -1226 -1174 0
-2159 -1176 -951 -1226 0
-2183 -951 -1178 -1226 0
-2159 -951 -1178 -1226 0
-951 -2395 -1178 -1226 0
-951 -2392 -1178 -1226 0
-2159 -951 -1226 -1180 0
-951 -2395 -1180 -1226 0
-951 -1971 -1226 -1369 0
-1943 -951 -1226 -1369 0
-951 -2183 -1226 -1369 0
-951 -2392 -1226 -1369 0
-1943 -951 -1226 -1370 0
-951 -1370 -1226 -2395 0
-2183 -1429 -1226 -951 0
-1429 -2392 -1226 -951 0
-2183 -951 -1226 -1444 0
-1444 -951 -2392 -1226 0
-2183 -951 -1226 -1964 0
-1959 -951 -1226 -2183 0
-1959 -951 -2392 -1226 0
-2183 -951 -1226 -1953 0
-951 -1953 -1226 -2392 0
-2183 -951 -1226 -1946 0
-951 -2392 -1946 -1226 0
-951 -1370 -1224 -1172 0
-1446 -951 -1224 -1174 0
-1448 -951 -1224 -1174 0
-1673 -951 -1224 -1174 0
-951 -1675 -1224 -1174 0
-2183 -951 -1224 -1174 0
-2174 -951 -1224 -1174 0
-951 -2392 -1224 -1174 0
-2388 -951 -1224 -1174 0
-2383 -951 -1224 -1174 0
-1673 -951 -1224 -1176 0
-951 -1675 -1224 -1176 0
-1964 -951 -1224 -1176 0
-2183 -951 -1224 -1176 0
-2179 -951 -1224 -1176 0
-951 -2392 -1224 -1176 0
-2388 -951 -1224 -1176 0
-2183 -951 -1224 -1178 0
-951 -2392 -1178 -1224 0
-951 -1971 -1369 -1224 0
-2183 -951 -1224 -1369 0
-951 -2395 -1224 -1369 0
-951 -2392 -1224 -1369 0
-951 -1370 -1224 -2395 0
-2183 -1429 -1224 -951 0
-1442 -951 -1224 -1673 0
-1442 -951 -1224 -1675 0
-2183 -951 -1224 -1442 0
-1442 -951 -1224 -2179 0
-2388 -951 -1224 -1442 0
-2183 -951 -1224 -1444 0
-1446 -951 -1224 -1660 0
-1653 -1446 -1224 -951 0
-1448 -951 -1224 -1660 0
-1653 -1448 -1224 -951 0
-1673 -951 -1224 -1660 0
-951 -1675 -1224 -1660 0
-2183 -951 -1224 -1660 0
-2179 -951 -1224 -1660 0
-2174 -951 -1224 -1660 0
-2388 -951 -1224 -1660 0
-2383 -951 -1224 -1660 0
-1673 -951 -1224 -1653 0
-951 -1675 -1224 -1653 0
-2183 -1653 -1224 -951 0
-2179 -1653 -1224 -951 0
-2174 -1653 -1224 -951 0
-2388 -1653 -1224 -951 0
-2383 -1653 -1224 -951 0
-1673 -1871 -1224 -951 0
-951 -1675 -1224 -1871 0
-2183 -951 -1224 -1871 0
-2179 -951 -1224 -1871 0
-2388 -951 -1224 -1871 0
-2183 -951 -1224 -1964 0
-1959 -951 -1224 -2183 0
-2183 -951 -1224 -1953 0
-2183 -951 -1224 -1946 0
-1222 -951 -1370 -1172 0
-2183 -1222 -951 -1172 0
-1446 -1222 -951 -1174 0
-1673 -1222 -951 -1174 0
-2183 -1222 -951 -1174 0
-2174 -1222 -951 -1174 0
-1673 -1176 -951 -1222 0
-1964 -1222 -951 -1176 0
-2183 -1222 -951 -1176 0
-2179 -1222 -951 -1176 0
-1446 -1222 -951 -1660 0
-1653 -1446 -1222 -951 0
-2174 -1222 -951 -1660 0
-2174 -1653 -1222 -951 0
-1673 -1222 -951 -1871 0
-2179 -1222 -951 -1871 0
-951 -1865 -1369 -1172 0
-951 -1879 -1369 -1172 0
-951 -1971 -1370 -1172 0
-1943 -951 -1370 -1172 0
-1936 -1172 -1370 -951 0
-951 -1973 -1370 -1172 0
-1995 -951 -1370 -1172 0
-2151 -951 -1370 -1172 0
-2187 -1172 -1370 -951 0
-2209 -951 -1370 -1172 0
-951 -2395 -1370 -1172 0
-1444 -951 -1865 -1172 0
-1444 -1172 -1879 -951 0
-2159 -1448 -951 -1172 0
-1671 -1172 -1865 -951 0
-1671 -1172 -1879 -951 0
-1964 -1172 -1865 -951 0
-1959 -1172 -1865 -951 0
-1964 -951 -1879 -1172 0
-1959 -1172 -1879 -951 0
-2183 -1172 -951 -2187 0
-2209 -1172 -951 -2183 0
-1444 -951 -1865 -1174 0
-1943 -1446 -951 -1174 0
-1936 -1446 -951 -1174 0
-1446 -951 -1973 -1174 0
-1995 -1446 -951 -1174 0
-2159 -1446 -951 -1174 0
-2151 -1446 -951 -1174 0
-2187 -1446 -1174 -951 0
-2209 -1446 -951 -1174 0
-1446 -951 -2395 -1174 0
-2159 -1448 -951 -1174 0
-2151 -1448 -951 -1174 0
-2187 -1448 -1174 -951 0
-2209 -1448 -951 -1174 0
-1671 -951 -1865 -1174 0
-1943 -1673 -951 -1174 0
-1936 -1673 -951 -1174 0
-1673 -951 -1973 -1174 0
-1995 -1673 -951 -1174 0
-2159 -1673 -951 -1174 0
-2151 -1673 -951 -1174 0
-2187 -1673 -1174 -951 0
-2209 -1673 -951 -1174 0
-1673 -1174 -2395 -951 0
-2159 -1174 -1675 -951 0
-2151 -1174 -1675 -951 0
-2187 -1174 -1675 -951 0
-2209 -951 -1675 -1174 0
-1964 -951 -1865 -1174 0
-1959 -951 -1865 -1174 0
-1959 -951 -1879 -1174 0
-2179 -951 -1971 -1174 0
-2174 -951 -1971 -1174 0
-2179 -1943 -951 -1174 0
-2174 -1943 -951 -1174 0
-2183 -1936 -951 -1174 0
-2174 -1936 -951 -1174 0
-2174 -1174 -1973 -951 0
-2174 -1995 -1174 -951 0
-2183 -1174 -951 -2187 0
-2209 -1174 -951 -2183 0
-2179 -1174 -951 -2159 0
-2179 -1174 -951 -2151 0
-2179 -1174 -951 -2187 0
-2179 -1174 -951 -2209 0
-2179 -951 -2395 -1174 0
-2174 -1174 -951 -2151 0
-2174 -1174 -951 -2187 0
-2209 -1174 -951 -2174 0
-2174 -951 -2395 -1174 0
-2383 -2159 -951 -1174 0
-2151 -951 -2392 -1174 0
-2388 -2151 -951 -1174 0
-2383 -2151 -951 -1174 0
-2187 -1174 -2392 -951 0
-2388 -2187 -1174 -951 0
-2383 -2187 -1174 -951 0
-2388 -2209 -951 -1174 0
-2383 -2209 -1174 -951 0
-1671 -1176 -1865 -951 0
-1671 -1176 -1879 -951 0
-1176 -951 -1675 -2159 0
-1176 -951 -1675 -2151 0
-1176 -951 -1675 -2187 0
-2209 -951 -1675 -1176 0
-1964 -1176 -1865 -951 0
-2183 -1176 -951 -2187 0
-2209 -1176 -951 -2183 0
-1176 -951 -2392 -2151 0
-2388 -1176 -951 -2151 0
-1176 -951 -2392 -2187 0
-2388 -1176 -951 -2187 0
-2209 -951 -2392 -1176 0
-2388 -2209 -951 -1176 0
-2183 -951 -1178 -2187 0
-2209 -951 -1178 -2183 0
-2183 -951 -1178 -2419 0
-951 -2392 -1178 -2187 0
-2209 -951 -2392 -1178 0
-951 -2392 -1178 -2419 0
-2187 -951 -1971 -1369 0
-2209 -951 -1971 -1369 0
-2397 -951 -1971 -1369 0
-951 -2419 -1971 -1369 0
-1943 -951 -1369 -2397 0
-1943 -951 -2419 -1369 0
-2187 -951 -1369 -2183 0
-2209 -951 -1369 -2183 0
-2183 -951 -1369 -2397 0
-951 -2419 -1369 -2183 0
-2159 -951 -1369 -2419 0
-2187 -951 -1369 -2395 0
-2187 -951 -1369 -2392 0
-2209 -951 -2395 -1369 0
-2209 -951 -2392 -1369 0
-951 -2419 -1369 -2395 0
-951 -2419 -1369 -2392 0
-1936 -1429 -1370 -951 0
-2151 -1429 -1370 -951 0
-2362 -951 -1370 -1429 0
-1943 -951 -1370 -2397 0
-1943 -951 -2419 -1370 0
-2159 -951 -1370 -2419 0
-2187 -951 -1370 -2395 0
-2209 -951 -2395 -1370 0
-951 -2419 -1370 -2395 0
-2187 -1429 -2392 -951 0
-2209 -1429 -2392 -951 0
-1673 -951 -1973 -1442 0
-1995 -1673 -951 -1442 0
-2187 -1442 -951 -1673 0
-2209 -1673 -951 -1442 0
-2187 -1442 -1675 -951 0
-2209 -951 -1675 -1442 0
-2179 -951 -1973 -1442 0
-2179 -1995 -951 -1442 0
-2183 -1442 -951 -2187 0
-2209 -1442 -951 -2183 0
-2187 -1442 -951 -2179 0
-2209 -1442 -951 -2179 0
-2187 -951 -2392 -1442 0
-2388 -2187 -951 -1442 0
-2209 -951 -2392 -1442 0
-2388 -2209 -951 -1442 0
-1444 -951 -1879 -1660 0
-1444 -951 -1865 -1653 0
-1653 -1444 -1879 -951 0
-2183 -1444 -951 -2187 0
-2209 -1444 -951 -2183 0
-2397 -2183 -1444 -951 0
-1444 -951 -2419 -2183 0
-1444 -951 -2392 -2187 0
-2209 -951 -2392 -1444 0
-1444 -951 -2392 -2419 0
-1446 -951 -1973 -1660 0
-1995 -1446 -951 -1660 0
-2187 -1446 -951 -1660 0
-2209 -1446 -951 -1660 0
-1446 -951 -1971 -1653 0
-1943 -1446 -951 -1653 0
-1936 -1446 -951 -1653 0
-1653 -1446 -1973 -951 0
-1995 -1653 -1446 -951 0
-2159 -1653 -1446 -951 0
-2151 -1446 -951 -1653 0
-2187 -1653 -1446 -951 0
-2209 -1653 -1446 -951 0
-1653 -1446 -2395 -951 0
-2187 -1448 -951 -1660 0
-2209 -1448 -951 -1660 0
-2159 -1448 -951 -1653 0
-2151 -1448 -951 -1653 0
-2187 -1653 -1448 -951 0
-2209 -1653 -1448 -951 0
-1671 -951 -1865 -1660 0
-1671 -951 -1879 -1660 0
-1673 -951 -1973 -1660 0
-1995 -1673 -951 -1660 0
-2187 -1673 -951 -1660 0
-2209 -1673 -951 -1660 0
-2187 -951 -1675 -1660 0
-2209 -951 -1675 -1660 0
-1964 -951 -1879 -1660 0
-1959 -951 -1879 -1660 0
-2179 -951 -1973 -1660 0
-2174 -951 -1973 -1660 0
-2179 -1995 -951 -1660 0
-2174 -1995 -951 -1660 0
-2183 -1660 -951 -2187 0
-2209 -1660 -951 -2183 0
-2179 -1660 -951 -2187 0
-2179 -1660 -951 -2209 0
-2174 -1660 -951 -2187 0
-2209 -1660 -951 -2174 0
-2187 -951 -2392 -1660 0
-2388 -2187 -951 -1660 0
-2383 -2187 -951 -1660 0
-2209 -951 -2392 -1660 0
-2388 -2209 -951 -1660 0
-2383 -2209 -951 -1660 0
-1671 -951 -1865 -1653 0
-1671 -951 -1879 -1653 0
-1943 -1673 -951 -1653 0
-1936 -1673 -951 -1653 0
-1673 -951 -1973 -1653 0
-1995 -1673 -951 -1653 0
-2159 -1673 -951 -1653 0
-2151 -1673 -951 -1653 0
-2187 -1673 -951 -1653 0
-2209 -1673 -951 -1653 0
-1673 -951 -2395 -1653 0
-2159 -951 -1675 -1653 0
-2151 -951 -1675 -1653 0
-2187 -951 -1675 -1653 0
-2209 -951 -1675 -1653 0
-1964 -951 -1865 -1653 0
-1959 -1653 -1865 -951 0
-1964 -951 -1879 -1653 0
-1959 -951 -1879 -1653 0
-2179 -951 -1971 -1653 0
-2179 -1943 -1653 -951 0
-2174 -1943 -951 -1653 0
-2183 -1936 -951 -1653 0
-2179 -1936 -951 -1653 0
-2174 -1936 -951 -1653 0
-2179 -1653 -1973 -951 0
-2174 -1653 -1973 -951 0
-2179 -1995 -1653 -951 0
-2174 -1995 -1653 -951 0
-2183 -1653 -951 -2187 0
-2209 -1653 -951 -2183 0
-2179 -1653 -951 -2159 0
-2179 -1653 -951 -2151 0
-2179 -1653 -951 -2187 0
-2179 -1653 -951 -2209 0
-2179 -951 -2395 -1653 0
-2174 -1653 -951 -2159 0
-2174 -1653 -951 -2151 0
-2174 -1653 -951 -2187 0
-2174 -951 -2395 -1653 0
-2151 -951 -2392 -1653 0
-2388 -2151 -1653 -951 0
-2383 -2151 -951 -1653 0
-2187 -1653 -2392 -951 0
-2388 -2187 -1653 -951 0
-2383 -2187 -1653 -951 0
-2209 -1653 -2392 -951 0
-2388 -2209 -1653 -951 0
-2383 -2209 -1653 -951 0
-1671 -951 -1871 -1865 0
-1671 -951 -1879 -1871 0
-2187 -951 -2392 -1671 0
-2209 -951 -2392 -1671 0
-1671 -951 -2392 -2419 0
-1673 -951 -1871 -1943 0
-1673 -951 -1871 -1936 0
-1673 -951 -1973 -1871 0
-1995 -1673 -951 -1871 0
-2159 -1673 -951 -1871 0
-1673 -951 -1871 -2151 0
-1673 -951 -1871 -2187 0
-2209 -1673 -951 -1871 0
-2159 -951 -1675 -1871 0
-2151 -951 -1675 -1871 0
-2187 -951 -1675 -1871 0
-2209 -951 -1675 -1871 0
-1964 -951 -1871 -1865 0
-1964 -951 -1879 -1871 0
-1943 -951 -1871 -2179 0
-2183 -951 -1871 -1936 0
-1936 -951 -1871 -2179 0
-2179 -951 -1973 -1871 0
-2179 -1995 -951 -1871 0
-2183 -951 -1871 -2187 0
-2209 -951 -1871 -2183 0
-2179 -951 -1871 -2159 0
-2151 -951 -1871 -2179 0
-2187 -951 -1871 -2179 0
-2209 -951 -1871 -2179 0
-2151 -951 -2392 -1871 0
-2388 -951 -1871 -2151 0
-2187 -951 -2392 -1871 0
-2388 -951 -1871 -2187 0
-2209 -951 -2392 -1871 0
-2388 -2209 -951 -1871 0
-2183 -1973 -951 -1964 0
-2183 -1995 -951 -1964 0
-2183 -1964 -951 -2187 0
-2209 -1964 -951 -2183 0
-2397 -2183 -1964 -951 0
-1964 -951 -2419 -2183 0
-2183 -1973 -951 -1959 0
-2183 -1995 -951 -1959 0
-2187 -1959 -951 -2183 0
-2209 -1959 -951 -2183 0
-2397 -1959 -951 -2183 0
-1959 -951 -2419 -2183 0
-1959 -951 -2392 -2187 0
-2209 -951 -2392 -1959 0
-1959 -951 -2392 -2419 0
-2183 -1973 -951 -1953 0
-2183 -1953 -951 -2187 0
-2209 -951 -1953 -2183 0
-2397 -2183 -1953 -951 0
-951 -2419 -1953 -2183 0
-2187 -951 -1953 -2392 0
-2209 -951 -2392 -1953 0
-951 -2419 -1953 -2392 0
-2183 -1936 -951 -1946 0
-2183 -1973 -951 -1946 0
-2183 -951 -1946 -2187 0
-2209 -951 -1946 -2183 0
-951 -2392 -1946 -2151 0
-951 -2392 -1946 -2187 0
-951 -2392 -1946 -2209 0
-951 -2392 -1946 -2419 0
-2397 -2183 -1943 -951 0
-2397 -2159 -951 -2392 0
-2397 -2159 -951 -2388 0
-2397 -2159 -951 -2383 0
-2397 -2159 -951 -2377 0
-2397 -2159 -951 -2370 0
-953 -1865 -1369 -1162 0
-953 -1879 -1369 -1162 0
-1162 -953 -1369 -1971 0
-2183 -1162 -1369 -953 0
-1943 -1162 -1370 -953 0
-1936 -953 -1370 -1162 0
-953 -1973 -1370 -1162 0
-2159 -1162 -1370 -953 0
-2151 -953 -1370 -1162 0
-2187 -953 -1370 -1162 0
-1162 -2395 -1370 -953 0
-1442 -1162 -953 -1660 0
-1444 -1162 -953 -1660 0
-2183 -1444 -1162 -953 0
-1446 -1162 -953 -1660 0
-1448 -1162 -953 -1660 0
-2151 -1448 -1162 -953 0
-2187 -1448 -953 -1162 0
-1162 -953 -1423 -1660 0
-1419 -1162 -953 -1660 0
-1456 -1162 -953 -1660 0
-1671 -1162 -953 -1660 0
-1673 -1162 -953 -1660 0
-1162 -953 -1675 -1660 0
-1162 -953 -1648 -1660 0
-1643 -1162 -953 -1660 0
-1680 -1162 -953 -1660 0
-1875 -1162 -953 -1660 0
-1876 -1162 -953 -1660 0
-1877 -1162 -953 -1660 0
-1869 -1162 -953 -1660 0
-1162 -953 -1865 -1660 0
-1162 -953 -1879 -1660 0
-1964 -1162 -953 -1660 0
-1959 -1162 -953 -1660 0
-1162 -953 -1971 -1660 0
-1943 -1162 -953 -1660 0
-1936 -1162 -953 -1660 0
-1162 -953 -1973 -1660 0
-2183 -1162 -953 -1660 0
-2179 -1162 -953 -1660 0
-2174 -1162 -953 -1660 0
-2159 -1162 -953 -1660 0
-2151 -1162 -953 -1660 0
-2187 -1162 -953 -1660 0
-1162 -953 -2395 -1660 0
-1162 -953 -2392 -1660 0
-2388 -1162 -953 -1660 0
-2383 -1162 -953 -1660 0
-2383 -2151 -953 -1162 0
-2151 -1162 -2377 -953 0
-2383 -2187 -953 -1162 0
-2187 -953 -2377 -1162 0
-1171 -953 -1369 -1865 0
-1171 -953 -1971 -1369 0
-1171 -953 -1369 -1943 0
-1171 -953 -1369 -1936 0
-2183 -953 -1369 -1171 0
-1171 -953 -1369 -2159 0
-1171 -953 -1369 -2151 0
-1171 -953 -1369 -2395 0
-1171 -953 -1369 -2392 0
-1943 -1171 -953 -1370 0
-1171 -953 -1370 -1936 0
-2159 -1171 -953 -1370 0
-2151 -953 -1370 -1171 0
-1171 -953 -1370 -2395 0
-1171 -953 -1865 -1444 0
-1444 -1171 -953 -1971 0
-1943 -1171 -953 -1444 0
-2183 -1444 -953 -1171 0
-1444 -1171 -953 -2159 0
-2151 -1444 -953 -1171 0
-1444 -1171 -953 -2395 0
-1444 -1171 -2392 -953 0
-1171 -953 -1865 -1959 0
-1171 -953 -1865 -1953 0
-1959 -1171 -953 -2159 0
-1959 -1171 -2395 -953 0
-1959 -1171 -2392 -953 0
-1171 -953 -1971 -1953 0
-1171 -953 -1953 -2159 0
-2151 -953 -1953 -1171 0
-1171 -953 -2395 -1953 0
-1171 -953 -1953 -2392 0
-2174 -1943 -1171 -953 0
-953 -1971 -1226 -1369 0
-1943 -953 -1226 -1369 0
-2183 -953 -1226 -1369 0
-2159 -953 -1226 -1369 0
-953 -2395 -1226 -1369 0
-953 -2392 -1226 -1369 0
-1943 -953 -1226 -1370 0
-2159 -953 -1226 -1370 0
-953 -2395 -1226 -1370 0
-2183 -953 -1226 -1444 0
-1444 -953 -1226 -2392 0
-1671 -953 -1226 -2392 0
-953 -2392 -1226 -1959 0
-953 -1953 -1226 -2392 0
-953 -1971 -1369 -1224 0
-2183 -953 -1224 -1369 0
-953 -2395 -1224 -1369 0
-953 -2392 -1224 -1369 0
-953 -2395 -1224 -1370 0
-1673 -953 -1224 -1442 0
-953 -1675 -1224 -1442 0
-2183 -953 -1224 -1442 0
-2179 -953 -1224 -1442 0
-1442 -953 -1224 -2392 0
-2388 -953 -1224 -1442 0
-2183 -953 -1224 -1444 0
-1444 -953 -1224 -2392 0
-1446 -953 -1224 -1660 0
-1448 -953 -1224 -1660 0
-1673 -953 -1224 -1660 0
-953 -1675 -1224 -1660 0
-2179 -953 -1224 -1660 0
-2174 -953 -1224 -1660 0
-1660 -2392 -1224 -953 0
-2388 -953 -1224 -1660 0
-2383 -953 -1224 -1660 0
-953 -2392 -1224 -1671 0
-953 -2392 -1224 -1959 0
-953 -1953 -1224 -2392 0
-2183 -1222 -953 -1369 0
-1673 -1222 -953 -1442 0
-2183 -1222 -953 -1442 0
-2179 -1222 -953 -1442 0
-2183 -1222 -953 -1444 0
-1446 -1222 -953 -1660 0
-1673 -1222 -953 -1660 0
-2179 -1222 -953 -1660 0
-2174 -1222 -953 -1660 0
-2187 -953 -1971 -1369 0
-2209 -953 -1971 -1369 0
-2397 -953 -1971 -1369 0
-953 -2419 -1971 -1369 0
-1943 -953 -1369 -2397 0
-953 -2419 -1369 -1943 0
-2183 -1973 -953 -1369 0
-2183 -1995 -953 -1369 0
-2183 -953 -1369 -2187 0
-2209 -953 -1369 -2183 0
-2397 -2183 -953 -1369 0
-2183 -953 -1369 -2419 0
-2159 -953 -1369 -2397 0
-953 -2419 -1369 -2159 0
-2187 -953 -2395 -1369 0
-2187 -953 -2392 -1369 0
-2209 -953 -2392 -1369 0
-2397 -953 -1369 -2395 0
-953 -2419 -1369 -2395 0
-2397 -953 -1369 -2392 0
-953 -2419 -1369 -2392 0
-1943 -953 -1370 -2397 0
-1943 -953 -2419 -1370 0
-2397 -953 -1370 -2159 0
-2159 -953 -1370 -2419 0
-2187 -953 -2395 -1370 0
-2397 -953 -1370 -2395 0
-953 -2419 -1370 -2395 0
-1671 -953 -1879 -1442 0
-1673 -953 -1973 -1442 0
-1995 -1673 -953 -1442 0
-2187 -1673 -953 -1442 0
-2209 -1673 -953 -1442 0
-2187 -1442 -1675 -953 0
-2209 -953 -1675 -1442 0
-1964 -953 -1879 -1442 0
-2183 -1973 -953 -1442 0
-2179 -953 -1973 -1442 0
-2179 -1995 -953 -1442 0
-2183 -1442 -953 -2187 0
-2209 -1442 -953 -2183 0
-2179 -1442 -953 -2187 0
-2209 -1442 -953 -2179 0
-2187 -953 -2395 -1442 0
-2187 -1442 -953 -2392 0
-2388 -2187 -953 -1442 0
-2209 -1442 -953 -2392 0
-2209 -1442 -953 -2388 0
-1660 -1444 -1879 -953 0
-2183 -1973 -953 -1444 0
-2183 -1995 -953 -1444 0
-2183 -1444 -953 -2187 0
-2209 -1444 -953 -2183 0
-2397 -2183 -953 -1444 0
-2183 -1444 -953 -2419 0
-2187 -1444 -953 -2395 0
-2187 -1444 -953 -2392 0
-2209 -1444 -953 -2392 0
-2397 -1444 -953 -2395 0
-1444 -953 -2392 -2397 0
-1444 -953 -2392 -2419 0
-1446 -953 -1973 -1660 0
-1995 -1446 -953 -1660 0
-2187 -1446 -953 -1660 0
-2209 -1446 -953 -1660 0
-2187 -1446 -2395 -953 0
-2397 -1446 -953 -2395 0
-2187 -1448 -953 -1660 0
-2209 -1448 -953 -1660 0
-1660 -953 -1865 -1671 0
-1660 -953 -1879 -1671 0
-1673 -953 -1973 -1660 0
-1995 -1673 -953 -1660 0
-2187 -1673 -953 -1660 0
-2209 -1673 -953 -1660 0
-2187 -953 -1675 -1660 0
-2209 -953 -1675 -1660 0
-1964 -1660 -1879 -953 0
-1959 -953 -1879 -1660 0
-2179 -953 -1973 -1660 0
-2174 -1660 -1973 -953 0
-2179 -1995 -1660 -953 0
-2174 -1995 -1660 -953 0
-2179 -1660 -953 -2187 0
-2179 -1660 -953 -2209 0
-2174 -1660 -953 -2187 0
-2209 -1660 -953 -2174 0
-2187 -1660 -2392 -953 0
-2388 -2187 -953 -1660 0
-2383 -2187 -953 -1660 0
-2209 -1660 -2392 -953 0
-2388 -2209 -953 -1660 0
-2383 -2209 -953 -1660 0
-2187 -953 -2395 -1959 0
-2187 -1959 -2392 -953 0
-2209 -1959 -2392 -953 0
-1959 -953 -2392 -2397 0
-1959 -953 -2392 -2419 0
-2183 -1973 -953 -1953 0
-2183 -1995 -953 -1953 0
-2187 -953 -1953 -2392 0
-2209 -953 -2392 -1953 0
-2397 -953 -1953 -2392 0
-953 -2419 -1953 -2392 0
-1943 -953 -2419 -2174 0
-2209 -953 -2395 -2183 0
-2209 -953 -2395 -2179 0
-2174 -953 -2395 -2187 0
-2209 -953 -2395 -2174 0
-2397 -2174 -953 -2395 0
-2209 -953 -2395 -2168 0
-1444 -1162 -1865 -955 0
-1444 -1162 -1879 -955 0
-1446 -955 -1971 -1162 0
-1943 -1162 -955 -1446 0
-1936 -1446 -1162 -955 0
-1446 -1162 -1973 -955 0
-1446 -1162 -955 -2159 0
-2151 -1162 -955 -1446 0
-2187 -1446 -955 -1162 0
-1446 -955 -2395 -1162 0
-2159 -1448 -1162 -955 0
-2151 -1448 -1162 -955 0
-2187 -1448 -955 -1162 0
-1162 -955 -1865 -1959 0
-1162 -955 -1879 -1959 0
-1162 -955 -1971 -2174 0
-2174 -1943 -1162 -955 0
-2174 -1936 -955 -1162 0
-2174 -955 -1973 -1162 0
-2159 -1162 -955 -2174 0
-2151 -1162 -955 -2174 0
-2174 -1162 -955 -2187 0
-1162 -955 -2395 -2174 0
-2383 -2159 -1162 -955 0
-2383 -2151 -1162 -955 0
-2383 -1162 -955 -2187 0
-1171 -955 -1865 -1444 0
-1444 -1171 -955 -1971 0
-1943 -1171 -955 -1444 0
-1936 -1171 -955 -1444 0
-2183 -1444 -955 -1171 0
-1444 -1171 -955 -2159 0
-2151 -1171 -955 -1444 0
-1444 -1171 -955 -2395 0
-1444 -1171 -2392 -955 0
-1446 -1171 -955 -1971 0
-1943 -1171 -955 -1446 0
-1936 -1171 -955 -1446 0
-1446 -1171 -955 -2159 0
-2151 -1171 -955 -1446 0
-1446 -955 -2395 -1171 0
-1448 -1171 -955 -2159 0
-2151 -1171 -955 -1448 0
-1171 -955 -1865 -1959 0
-1959 -1171 -955 -1943 0
-1959 -1171 -955 -1936 0
-1959 -1171 -955 -2183 0
-1959 -1171 -955 -2159 0
-1959 -1171 -955 -2151 0
-1959 -955 -2395 -1171 0
-1959 -1171 -2392 -955 0
-1171 -955 -1971 -2174 0
-1943 -1171 -955 -2183 0
-2174 -1943 -1171 -955 0
-2183 -1936 -955 -1171 0
-1936 -1171 -955 -2179 0
-2174 -1936 -955 -1171 0
-2183 -955 -2395 -1171 0
-2179 -1171 -955 -2159 0
-2151 -1171 -955 -2179 0
-1171 -955 -2395 -2179 0
-2174 -1171 -955 -2159 0
-2174 -1171 -955 -2151 0
-1171 -955 -2395 -2174 0
-2383 -1171 -955 -2159 0
-2151 -1171 -955 -2392 0
-2151 -1171 -955 -2383 0
-1444 -955 -1226 -1971 0
-1943 -1444 -955 -1226 0
-2183 -955 -1226 -1444 0
-2159 -1444 -955 -1226 0
-1444 -955 -1226 -2395 0
-1444 -955 -2392 -1226 0
-1446 -955 -1226 -1971 0
-1943 -955 -1226 -1446 0
-1446 -955 -1226 -2159 0
-1446 -2395 -1226 -955 0
-2159 -955 -1226 -1448 0
-1671 -955 -1226 -1971 0
-1671 -955 -1226 -1943 0
-1671 -955 -1226 -2159 0
-1671 -2395 -1226 -955 0
-1671 -955 -1226 -2392 0
-1673 -955 -1226 -1971 0
-1673 -955 -1226 -1943 0
-955 -1675 -1226 -2159 0
-1943 -955 -1226 -1964 0
-2159 -955 -1226 -1964 0
-1964 -955 -1226 -2395 0
-1959 -955 -1226 -1943 0
-1959 -955 -1226 -2183 0
-1959 -955 -1226 -2159 0
-1959 -2395 -1226 -955 0
-955 -2392 -1226 -1959 0
-955 -1971 -1226 -2179 0
-955 -1971 -1226 -2174 0
-1943 -955 -1226 -2183 0
-2174 -1943 -1226 -955 0
-2183 -955 -1226 -2395 0
-955 -2395 -1226 -2179 0
-955 -2395 -1226 -2174 0
-2388 -955 -1226 -2159 0
-2159 -955 -1226 -2383 0
-1442 -955 -1224 -1673 0
-1442 -955 -1224 -1675 0
-955 -1442 -1971 -1224 0
-2183 -955 -1224 -1442 0
-2179 -955 -1224 -1442 0
-955 -2395 -1224 -1442 0
-1442 -955 -1224 -2392 0
-1442 -955 -1224 -2388 0
-1444 -955 -1224 -1971 0
-1444 -955 -1224 -2183 0
-1444 -955 -1224 -2395 0
-1444 -955 -2392 -1224 0
-1446 -955 -1224 -1971 0
-1446 -955 -2395 -1224 0
-1671 -2395 -1224 -955 0
-1673 -955 -1224 -1971 0
-1673 -955 -1224 -2395 0
-1964 -955 -1224 -2395 0
-2183 -955 -1224 -1959 0
-955 -2395 -1224 -1959 0
-955 -2392 -1224 -1959 0
-955 -2179 -1971 -1224 0
-2174 -955 -1224 -1971 0
-2179 -955 -1224 -2395 0
-955 -2395 -1224 -2174 0
-1442 -1222 -955 -1673 0
-2183 -1222 -955 -1442 0
-2179 -1222 -955 -1442 0
-1444 -1222 -955 -2183 0
-2183 -1222 -955 -1959 0
-1673 -955 -1973 -1442 0
-1995 -1442 -955 -1673 0
-2187 -1442 -955 -1673 0
-2209 -1442 -955 -1673 0
-2187 -955 -1675 -1442 0
-2209 -1442 -955 -1675 0
-2187 -955 -1971 -1442 0
-2209 -955 -1971 -1442 0
-2183 -1973 -955 -1442 0
-2179 -955 -1973 -1442 0
-2183 -1995 -955 -1442 0
-2179 -1995 -955 -1442 0
-2183 -1442 -955 -2187 0
-2209 -1442 -955 -2183 0
-2179 -1442 -955 -2187 0
-2209 -1442 -955 -2179 0
-2187 -955 -2395 -1442 0
-2187 -1442 -955 -2392 0
-2388 -2187 -955 -1442 0
-2209 -955 -2395 -1442 0
-2209 -1442 -955 -2392 0
-2209 -1442 -955 -2388 0
-2187 -1444 -955 -1971 0
-2209 -1444 -955 -1971 0
-2397 -1444 -955 -1971 0
-1444 -955 -2419 -1971 0
-1943 -1444 -955 -2397 0
-1943 -1444 -955 -2419 0
-1444 -955 -1973 -2183 0
-1995 -1444 -955 -2183 0
-2187 -1444 -955 -2183 0
-2209 -1444 -955 -2183 0
-2397 -2183 -955 -1444 0
-2183 -1444 -955 -2419 0
-2159 -1444 -955 -2397 0
-2159 -1444 -955 -2419 0
-2187 -1444 -955 -2395 0
-2187 -1444 -955 -2392 0
-2209 -1444 -955 -2395 0
-2209 -1444 -955 -2392 0
-2397 -1444 -955 -2395 0
-1444 -955 -2419 -2395 0
-2397 -1444 -955 -2392 0
-1444 -955 -2419 -2392 0
-2187 -1446 -955 -1971 0
-1446 -955 -1971 -2209 0
-2397 -1446 -955 -1971 0
-1446 -955 -1971 -2419 0
-1943 -1446 -955 -2397 0
-1943 -955 -2419 -1446 0
-2397 -1446 -955 -2159 0
-1446 -955 -2419 -2159 0
-2187 -1446 -955 -2395 0
-1446 -955 -2395 -2209 0
-2397 -1446 -955 -2395 0
-1446 -955 -2419 -2395 0
-2397 -1448 -955 -2159 0
-2159 -1448 -955 -2419 0
-2159 -1671 -955 -2419 0
-1671 -955 -2395 -2209 0
-2209 -955 -2392 -1671 0
-1671 -955 -2419 -2395 0
-1673 -955 -2419 -1943 0
-2159 -1673 -955 -2419 0
-2209 -1673 -955 -2395 0
-1673 -955 -2419 -2395 0
-1943 -955 -2419 -1964 0
-2159 -1964 -955 -2419 0
-2209 -1964 -955 -2395 0
-1959 -955 -2419 -1943 0
-2183 -1959 -955 -1973 0
-2183 -1995 -955 -1959 0
-2187 -1959 -955 -2183 0
-2209 -1959 -955 -2183 0
-2397 -1959 -955 -2183 0
-1959 -955 -2419 -2183 0
-2397 -1959 -955 -2159 0
-1959 -955 -2419 -2159 0
-2187 -955 -2395 -1959 0
-2187 -1959 -955 -2392 0
-1959 -955 -2395 -2209 0
-2209 -955 -2392 -1959 0
-2397 -1959 -955 -2395 0
-1959 -955 -2419 -2395 0
-2397 -1959 -955 -2392 0
-1959 -955 -2392 -2419 0
-2209 -955 -1971 -2179 0
-2187 -955 -1971 -2174 0
-2209 -955 -1971 -2174 0
-2397 -2174 -955 -1971 0
-955 -2419 -1971 -2174 0
-2183 -1943 -955 -2419 0
-2397 -2174 -955 -1943 0
-1943 -955 -2419 -2174 0
-2209 -955 -2395 -2183 0
-2183 -955 -2395 -2419 0
-2179 -955 -2419 -2395 0
-2187 -955 -2395 -2174 0
-2209 -955 -2395 -2174 0
-2397 -2174 -955 -2395 0
-2174 -955 -2419 -2395 0
-2159 -955 -2419 -2388 0
-2397 -2159 -955 -2383 0
-2383 -2159 -955 -2419 0
-2183 -1943 -957 -1171 0
-2183 -1936 -957 -1171 0
-2183 -957 -2395 -1171 0
-2179 -1171 -957 -2159 0
-2179 -1171 -957 -2151 0
-1171 -957 -2395 -2179 0
-2151 -1171 -957 -2392 0
-2183 -957 -1226 -1943 0
-2183 -957 -1226 -2395 0
-1943 -957 -2419 -2183 0
-2209 -957 -2395 -2183 0
-2183 -957 -2419 -2395 0
-2183 -1943 -959 -1171 0
-1936 -1171 -959 -2183 0
-2183 -2395 -959 -1171 0
-2151 -1171 -959 -2392 0
-2183 -1226 -959 -1943 0
-2183 -1226 -959 -2395 0
-1943 -2419 -959 -2183 0
-2209 -2395 -959 -2183 0
-2183 -2419 -959 -2395 0
-1673 -2159 -1176 -1162 0
-1162 -1865 -1369 -1429 0
-1162 -1879 -1369 -1429 0
-1943 -1162 -1369 -1429 0
-2159 -1162 -1369 -1429 0
-1162 -1865 -1369 -1418 0
-1162 -1879 -1369 -1418 0
-2187 -1162 -1971 -1369 0
-1936 -1162 -1370 -1429 0
-1429 -1973 -1370 -1162 0
-2159 -1162 -1370 -1429 0
-2151 -1429 -1370 -1162 0
-1429 -1162 -1370 -2187 0
-1943 -1418 -1162 -1370 0
-1936 -1162 -1370 -1418 0
-1418 -1973 -1370 -1162 0
-2159 -1418 -1162 -1370 0
-2151 -1418 -1370 -1162 0
-2187 -1418 -1370 -1162 0
-1162 -2395 -1370 -1418 0
-1660 -1442 -1162 -1429 0
-1660 -1444 -1162 -1429 0
-1444 -1162 -1865 -1429 0
-1444 -1162 -1879 -1429 0
-1660 -1446 -1162 -1429 0
-1660 -1448 -1162 -1429 0
-1660 -1162 -1423 -1429 0
-1660 -1419 -1162 -1429 0
-1660 -1456 -1162 -1429 0
-1660 -1429 -1162 -1671 0
-1660 -1429 -1162 -1673 0
-1660 -1429 -1162 -1675 0
-1429 -1162 -1648 -1660 0
-1643 -1429 -1162 -1660 0
-1680 -1429 -1162 -1660 0
-1875 -1660 -1162 -1429 0
-1876 -1660 -1162 -1429 0
-1877 -1660 -1162 -1429 0
-1869 -1660 -1162 -1429 0
-1660 -1162 -1865 -1429 0
-1660 -1162 -1879 -1429 0
-1964 -1660 -1162 -1429 0
-1959 -1660 -1162 -1429 0
-1660 -1162 -1971 -1429 0
-1943 -1660 -1162 -1429 0
-1936 -1660 -1162 -1429 0
-1660 -1162 -1973 -1429 0
-2183 -1660 -1162 -1429 0
-2179 -1660 -1162 -1429 0
-2174 -1660 -1162 -1429 0
-2159 -1660 -1162 -1429 0
-2151 -1660 -1162 -1429 0
-2187 -1660 -1162 -1429 0
-1660 -1162 -2395 -1429 0
-1660 -1162 -2392 -1429 0
-2388 -1660 -1162 -1429 0
-2383 -1660 -1162 -1429 0
-1959 -1162 -1865 -1429 0
-1959 -1162 -1879 -1429 0
-1660 -1442 -1162 -1418 0
-1660 -1444 -1162 -1418 0
-1444 -1162 -1865 -1418 0
-1444 -1162 -1879 -1418 0
-1660 -1446 -1162 -1418 0
-1660 -1448 -1162 -1418 0
-2151 -1448 -1162 -1418 0
-2187 -1448 -1162 -1418 0
-1660 -1162 -1423 -1418 0
-1660 -1418 -1162 -1419 0
-1660 -1456 -1162 -1418 0
-1660 -1418 -1162 -1671 0
-1660 -1418 -1162 -1673 0
-1660 -1418 -1162 -1675 0
-1418 -1162 -1648 -1660 0
-1643 -1418 -1162 -1660 0
-1680 -1418 -1162 -1660 0
-1875 -1660 -1162 -1418 0
-1876 -1660 -1162 -1418 0
-1877 -1660 -1162 -1418 0
-1869 -1660 -1162 -1418 0
-1660 -1162 -1865 -1418 0
-1660 -1162 -1879 -1418 0
-1964 -1660 -1162 -1418 0
-1959 -1660 -1162 -1418 0
-1660 -1162 -1971 -1418 0
-1943 -1660 -1162 -1418 0
-1936 -1660 -1162 -1418 0
-1660 -1162 -1973 -1418 0
-2183 -1660 -1162 -1418 0
-2179 -1660 -1162 -1418 0
-2174 -1660 -1162 -1418 0
-2159 -1660 -1162 -1418 0
-2151 -1660 -1162 -1418 0
-1660 -1418 -1162 -2187 0
-1660 -1162 -2395 -1418 0
-1660 -1162 -2392 -1418 0
-2388 -1660 -1162 -1418 0
-2383 -1660 -1162 -1418 0
-1959 -1162 -1865 -1418 0
-1162 -1953 -1865 -1418 0
-1959 -1162 -1879 -1418 0
-1162 -1953 -1879 -1418 0
-1959 -1418 -1162 -2183 0
-2383 -2151 -1162 -1418 0
-2151 -1162 -2377 -1418 0
-2383 -2187 -1162 -1418 0
-2187 -1418 -2377 -1162 0
-2187 -1442 -1675 -1162 0
-1444 -1162 -1879 -1660 0
-1653 -1162 -1865 -1444 0
-1653 -1162 -1879 -1444 0
-1943 -1653 -1162 -1444 0
-2159 -1444 -1162 -1653 0
-1444 -1162 -1865 -1642 0
-1444 -1162 -1879 -1642 0
-2183 -1642 -1162 -1444 0
-1446 -1162 -1973 -1660 0
-2187 -1446 -1162 -1660 0
-1943 -1653 -1162 -1446 0
-1936 -1446 -1162 -1653 0
-1653 -1446 -1973 -1162 0
-1653 -1446 -1162 -2159 0
-2151 -1653 -1162 -1446 0
-2187 -1446 -1162 -1653 0
-1642 -1446 -1162 -1971 0
-1943 -1446 -1162 -1642 0
-1936 -1446 -1162 -1642 0
-1446 -1162 -1973 -1642 0
-1642 -1446 -1162 -2159 0
-2151 -1642 -1162 -1446 0
-2187 -1642 -1446 -1162 0
-1642 -1446 -2395 -1162 0
-2187 -1660 -1448 -1162 0
-2159 -1448 -1162 -1653 0
-2151 -1653 -1162 -1448 0
-2187 -1653 -1448 -1162 0
-2159 -1448 -1162 -1642 0
-2151 -1642 -1162 -1448 0
-2187 -1448 -1162 -1642 0
-1959 -1162 -1879 -1660 0
-2174 -1660 -1973 -1162 0
-2174 -1660 -1162 -2187 0
-2388 -2187 -1660 -1162 0
-2383 -2187 -1660 -1162 0
-1943 -1653 -1162 -1671 0
-2159 -1673 -1162 -1653 0
-1653 -1162 -1865 -1959 0
-1653 -1162 -1879 -1959 0
-1959 -1653 -1162 -2159 0
-2174 -1943 -1162 -1653 0
-2174 -1936 -1162 -1653 0
-2174 -1162 -1973 -1653 0
-2151 -1653 -1162 -2174 0
-2174 -1653 -1162 -2187 0
-2383 -2151 -1162 -1653 0
-2383 -2187 -1162 -1653 0
-1642 -1162 -1865 -1959 0
-1879 -1642 -1162 -1959 0
-1959 -1642 -1162 -2183 0
-1642 -1162 -1971 -2174 0
-2174 -1943 -1162 -1642 0
-2174 -1936 -1162 -1642 0
-2174 -1162 -1973 -1642 0
-2159 -1642 -1162 -2174 0
-2151 -1642 -1162 -2174 0
-2174 -1642 -1162 -2187 0
-2174 -1642 -2395 -1162 0
-2383 -2159 -1162 -1642 0
-2383 -2151 -1162 -1642 0
-2383 -2187 -1162 -1642 0
-1671 -1162 -1865 -1871 0
-1671 -1162 -1879 -1871 0
-1673 -1162 -1871 -1943 0
-1673 -1162 -1871 -1936 0
-1673 -1162 -1973 -1871 0
-1673 -1162 -1871 -2159 0
-1673 -1162 -1871 -2151 0
-2187 -1673 -1162 -1871 0
-2362 -1673 -1162 -1871 0
-2397 -1673 -1162 -1871 0
-1162 -1871 -1675 -2159 0
-2151 -1162 -1675 -1871 0
-2187 -1162 -1675 -1871 0
-1964 -1162 -1865 -1871 0
-1964 -1162 -1879 -1871 0
-1943 -1162 -1871 -2179 0
-1936 -1162 -1871 -2183 0
-1936 -1162 -1871 -2179 0
-2179 -1162 -1973 -1871 0
-2183 -1162 -1871 -2187 0
-2151 -1162 -1871 -2179 0
-2179 -1162 -1871 -2187 0
-2151 -1162 -1871 -2392 0
-2388 -1162 -1871 -2151 0
-2187 -1162 -2395 -1871 0
-1162 -2392 -1871 -2187 0
-2388 -2187 -1162 -1871 0
-2183 -1973 -1162 -1959 0
-2183 -1973 -1162 -1953 0
-2183 -1162 -1946 -1973 0
-2183 -1936 -1174 -1171 0
-2183 -1936 -1176 -1171 0
-2151 -1176 -2392 -1171 0
-2183 -1936 -1178 -1171 0
-2151 -1171 -2392 -1178 0
-1429 -1865 -1369 -1171 0
-1943 -1171 -1369 -1429 0
-1936 -1171 -1369 -1429 0
-2159 -1171 -1369 -1429 0
-2151 -1171 -1369 -1429 0
-1418 -1171 -1865 -1369 0
-1418 -1171 -1971 -1369 0
-1943 -1418 -1171 -1369 0
-1936 -1418 -1171 -1369 0
-2183 -1418 -1369 -1171 0
-2159 -1418 -1171 -1369 0
-2151 -1418 -1171 -1369 0
-1418 -1171 -2395 -1369 0
-1418 -1171 -2392 -1369 0
-1936 -1429 -1370 -1171 0
-2151 -1429 -1370 -1171 0
-1943 -1418 -1171 -1370 0
-1418 -1171 -1370 -1936 0
-2159 -1418 -1171 -1370 0
-2151 -1418 -1370 -1171 0
-1418 -1171 -2395 -1370 0
-1444 -1171 -1865 -1429 0
-2151 -1444 -1171 -1429 0
-1959 -1429 -1865 -1171 0
-1429 -1953 -1865 -1171 0
-1959 -1429 -1171 -1936 0
-2151 -1959 -1429 -1171 0
-1429 -1171 -1953 -1936 0
-2151 -1429 -1953 -1171 0
-1418 -1171 -1865 -1444 0
-1444 -1171 -1971 -1418 0
-1943 -1418 -1171 -1444 0
-1936 -1418 -1171 -1444 0
-2183 -1444 -1171 -1418 0
-2159 -1444 -1171 -1418 0
-2151 -1444 -1171 -1418 0
-1444 -1171 -2392 -1418 0
-1418 -1171 -1865 -1959 0
-1418 -1171 -1865 -1953 0
-1959 -1418 -1171 -1943 0
-1959 -1418 -1171 -1936 0
-1959 -1418 -1171 -2183 0
-1959 -1418 -1171 -2159 0
-1959 -1418 -1171 -2151 0
-1418 -1171 -2395 -1959 0
-1959 -1171 -2392 -1418 0
-1418 -1171 -1971 -1953 0
-1418 -1171 -1953 -1943 0
-1418 -1171 -1953 -1936 0
-2151 -1418 -1953 -1171 0
-1418 -1171 -1953 -2395 0
-1418 -1171 -2392 -1953 0
-1653 -1171 -1865 -1444 0
-1653 -1444 -1171 -1943 0
-1936 -1653 -1171 -1444 0
-2159 -1653 -1444 -1171 0
-2151 -1653 -1171 -1444 0
-1642 -1171 -1865 -1444 0
-1642 -1444 -1171 -1971 0
-1943 -1642 -1171 -1444 0
-1936 -1642 -1171 -1444 0
-2183 -1642 -1444 -1171 0
-1642 -1444 -1171 -2159 0
-2151 -1642 -1171 -1444 0
-1642 -1444 -2395 -1171 0
-1444 -1171 -2392 -1642 0
-1943 -1653 -1171 -1446 0
-1936 -1653 -1171 -1446 0
-2159 -1653 -1446 -1171 0
-2151 -1653 -1171 -1446 0
-1642 -1446 -1171 -1971 0
-1943 -1642 -1171 -1446 0
-1936 -1642 -1171 -1446 0
-1642 -1446 -1171 -2159 0
-2151 -1642 -1171 -1446 0
-1642 -1446 -2395 -1171 0
-2159 -1653 -1171 -1448 0
-2151 -1653 -1171 -1448 0
-1642 -1448 -1171 -2159 0
-2151 -1642 -1171 -1448 0
-1943 -1671 -1171 -1653 0
-1943 -1673 -1171 -1653 0
-1653 -1171 -1865 -1959 0
-1959 -1653 -1171 -1936 0
-1959 -1653 -1171 -2159 0
-1959 -1653 -1171 -2151 0
-2174 -1653 -1171 -1943 0
-2183 -1936 -1653 -1171 0
-2179 -1653 -1171 -1936 0
-1936 -1653 -1171 -2174 0
-2151 -1653 -1171 -2179 0
-2174 -1653 -1171 -2151 0
-1653 -1171 -2392 -2151 0
-2151 -1653 -1171 -2383 0
-1642 -1171 -1971 -1673 0
-1943 -1673 -1171 -1642 0
-1936 -1673 -1171 -1642 0
-2159 -1673 -1171 -1642 0
-2151 -1673 -1171 -1642 0
-1642 -1171 -1865 -1959 0
-1959 -1642 -1171 -1943 0
-1959 -1642 -1171 -1936 0
-1959 -1642 -1171 -2183 0
-1959 -1642 -1171 -2159 0
-1959 -1642 -1171 -2151 0
-1959 -1642 -2395 -1171 0
-1959 -1171 -2392 -1642 0
-1642 -1171 -1971 -2179 0
-1642 -1171 -1971 -2174 0
-2183 -1943 -1642 -1171 0
-2174 -1943 -1171 -1642 0
-2183 -1936 -1642 -1171 0
-2174 -1936 -1642 -1171 0
-2183 -1642 -2395 -1171 0
-2179 -1642 -1171 -2159 0
-2179 -1642 -2395 -1171 0
-2174 -1642 -1171 -2159 0
-2174 -1642 -1171 -2151 0
-1642 -1171 -2395 -2174 0
-2383 -1642 -1171 -2159 0
-1642 -1171 -2392 -2151 0
-2383 -1642 -1171 -2151 0
-1671 -1171 -1865 -1871 0
-1671 -1171 -1871 -1943 0
-1671 -1171 -1871 -1936 0
-1671 -1171 -1871 -2159 0
-2151 -1171 -1871 -1671 0
-1671 -1171 -1865 -1864 0
-1673 -1171 -1871 -1943 0
-1673 -1171 -1871 -1936 0
-1673 -1171 -1871 -2159 0
-1673 -1171 -1871 -2151 0
-1673 -1171 -1864 -1971 0
-1673 -1171 -1864 -1943 0
-1673 -1171 -1864 -1936 0
-1673 -1171 -1864 -2159 0
-1673 -1171 -1864 -2151 0
-1171 -2395 -1864 -1673 0
-2159 -1171 -1675 -1871 0
-2151 -1171 -1675 -1871 0
-1171 -1864 -1675 -2159 0
-2151 -1864 -1675 -1171 0
-1964 -1171 -1865 -1871 0
-1936 -1171 -1871 -1964 0
-2159 -1171 -1871 -1964 0
-2151 -1964 -1871 -1171 0
-1943 -1171 -1871 -2179 0
-1936 -1171 -1871 -2183 0
-1936 -1171 -1871 -2179 0
-2151 -1171 -1871 -2179 0
-2151 -1171 -2392 -1871 0
-2388 -2151 -1871 -1171 0
-1964 -1171 -1865 -1864 0
-2179 -1171 -1864 -1971 0
-1943 -1171 -1864 -2183 0
-1943 -1171 -1864 -2179 0
-1936 -1171 -1864 -2183 0
-1936 -1171 -1864 -2179 0
-1171 -2395 -1864 -2183 0
-2159 -1171 -1864 -2179 0
-2179 -1171 -1864 -2151 0
-1171 -2395 -1864 -2179 0
-1171 -2392 -1864 -2159 0
-2388 -1171 -1864 -2159 0
-2151 -1171 -1864 -2392 0
-2388 -1171 -1864 -2151 0
-2183 -1936 -1171 -1946 0
-2151 -1171 -1946 -2392 0
-2183 -1943 -1171 -1935 0
-2183 -1935 -1171 -1936 0
-2183 -1935 -2395 -1171 0
-2151 -1935 -1171 -2392 0
-1943 -1172 -1226 -1369 0
-2159 -1172 -1369 -1226 0
-1943 -1370 -1226 -1172 0
-1444 -1943 -1226 -1174 0
-1444 -2159 -1226 -1174 0
-1943 -1446 -1226 -1174 0
-1446 -2159 -1226 -1174 0
-2159 -1448 -1226 -1174 0
-2159 -1673 -1226 -1174 0
-2159 -1964 -1226 -1174 0
-1959 -2159 -1226 -1174 0
-2174 -1943 -1226 -1174 0
-1943 -1671 -1226 -1176 0
-2159 -1671 -1176 -1226 0
-1943 -1673 -1226 -1176 0
-2159 -1673 -1226 -1176 0
-2159 -1176 -1675 -1226 0
-2159 -1964 -1226 -1176 0
-1943 -1429 -1226 -1369 0
-2159 -1429 -1226 -1369 0
-1418 -1971 -1226 -1369 0
-1943 -1418 -1226 -1369 0
-2183 -1418 -1226 -1369 0
-2159 -1418 -1226 -1369 0
-1418 -2395 -1226 -1369 0
-1418 -2392 -1226 -1369 0
-2159 -1429 -1226 -1370 0
-1943 -1418 -1226 -1370 0
-2159 -1418 -1226 -1370 0
-1418 -2395 -1226 -1370 0
-2183 -1418 -1226 -1444 0
-1444 -2392 -1226 -1418 0
-1959 -1418 -1226 -2183 0
-1418 -2392 -1226 -1959 0
-1418 -2392 -1226 -1953 0
-1653 -1444 -1226 -1943 0
-1653 -1444 -1226 -2159 0
-1642 -1444 -1226 -1971 0
-1642 -1444 -1226 -1943 0
-1642 -1444 -1226 -2183 0
-1642 -1444 -1226 -2159 0
-1642 -1444 -2395 -1226 0
-1642 -1444 -1226 -2392 0
-1653 -1446 -1226 -1943 0
-2159 -1653 -1446 -1226 0
-1642 -1446 -1226 -1971 0
-1943 -1642 -1226 -1446 0
-1642 -1446 -1226 -2159 0
-1642 -1446 -2395 -1226 0
-1653 -1448 -1226 -2159 0
-2159 -1642 -1448 -1226 0
-1943 -1671 -1226 -1653 0
-2159 -1671 -1226 -1653 0
-1943 -1673 -1226 -1653 0
-2159 -1653 -1226 -1673 0
-2159 -1653 -1226 -1675 0
-2159 -1653 -1226 -1964 0
-1959 -1653 -1226 -2159 0
-2174 -1943 -1226 -1653 0
-1671 -1971 -1226 -1642 0
-1943 -1642 -1226 -1671 0
-2159 -1671 -1226 -1642 0
-1671 -2395 -1226 -1642 0
-1642 -2392 -1226 -1671 0
-1673 -1971 -1226 -1642 0
-1673 -2395 -1226 -1642 0
-2159 -1675 -1226 -1642 0
-1943 -1642 -1226 -1964 0
-2159 -1642 -1226 -1964 0
-1642 -2395 -1226 -1964 0
-1959 -1642 -1226 -1943 0
-1959 -1642 -1226 -2183 0
-1959 -1642 -1226 -2159 0
-1642 -2395 -1226 -1959 0
-1959 -1642 -2392 -1226 0
-2179 -1642 -1226 -1971 0
-1642 -1971 -1226 -2174 0
-1943 -1642 -1226 -2183 0
-1943 -1642 -1226 -2174 0
-2183 -1642 -1226 -2395 0
-1642 -2395 -1226 -2179 0
-2174 -1642 -2395 -1226 0
-2159 -1642 -1226 -2388 0
-2383 -1642 -1226 -2159 0
-1943 -1871 -1226 -1671 0
-1671 -1871 -1226 -2159 0
-1671 -1864 -1226 -1971 0
-1671 -1864 -1226 -1943 0
-1671 -1864 -1226 -2159 0
-2395 -1864 -1226 -1671 0
-1671 -1864 -1226 -2392 0
-1943 -1673 -1226 -1871 0
-2159 -1673 -1226 -1871 0
-1673 -1864 -1226 -1971 0
-1673 -1864 -1226 -1943 0
-1673 -1864 -1226 -2159 0
-1673 -1864 -1226 -2395 0
-2159 -1675 -1226 -1871 0
-1864 -1675 -1226 -2159 0
-1964 -1871 -1226 -2159 0
-1943 -1871 -1226 -2179 0
-1943 -1864 -1226 -1964 0
-2183 -1864 -1226 -1964 0
-2159 -1864 -1226 -1964 0
-1964 -1864 -1226 -2395 0
-2392 -1864 -1226 -1964 0
-2179 -1971 -1226 -1864 0
-2183 -1864 -1226 -1943 0
-1943 -1864 -1226 -2179 0
-2183 -1864 -1226 -2395 0
-2395 -1864 -1226 -2179 0
-2392 -1864 -1226 -2159 0
-2388 -1864 -1226 -2159 0
-2183 -1935 -1226 -1943 0
-1935 -2395 -1226 -2183 0
-1418 -1971 -1369 -1224 0
-2183 -1418 -1224 -1369 0
-1418 -2395 -1224 -1369 0
-1418 -2392 -1224 -1369 0
-1418 -1370 -1224 -2395 0
-1671 -1418 -1224 -1442 0
-1673 -1418 -1224 -1442 0
-1418 -1675 -1224 -1442 0
-1964 -1418 -1224 -1442 0
-2183 -1418 -1224 -1442 0
-2179 -1418 -1224 -1442 0
-1418 -2392 -1224 -1442 0
-2388 -1418 -1224 -1442 0
-1660 -1444 -1224 -1418 0
-2183 -1418 -1224 -1444 0
-1444 -2392 -1224 -1418 0
-1660 -1446 -1224 -1418 0
-1660 -1448 -1224 -1418 0
-1660 -1418 -1224 -1671 0
-1673 -1418 -1224 -1660 0
-1418 -1675 -1224 -1660 0
-1964 -1418 -1224 -1660 0
-2179 -1418 -1224 -1660 0
-2174 -1418 -1224 -1660 0
-1418 -2392 -1224 -1660 0
-2388 -1660 -1224 -1418 0
-2383 -1418 -1224 -1660 0
-1418 -2392 -1224 -1671 0
-1959 -1418 -1224 -2183 0
-1418 -2392 -1224 -1959 0
-1418 -2392 -1224 -1953 0
-1642 -1442 -1224 -1671 0
-1642 -1442 -1224 -1673 0
-1642 -1442 -1224 -1675 0
-1964 -1642 -1224 -1442 0
-1642 -1442 -1971 -1224 0
-2183 -1642 -1224 -1442 0
-2179 -1642 -1224 -1442 0
-1642 -2395 -1224 -1442 0
-1642 -1442 -1224 -2392 0
-1642 -1442 -1224 -2388 0
-1642 -1444 -1224 -1971 0
-1642 -1444 -1224 -2183 0
-1642 -1444 -2395 -1224 0
-1642 -1444 -1224 -2392 0
-1642 -1446 -1224 -1971 0
-1642 -1446 -2395 -1224 0
-1642 -1671 -1971 -1224 0
-1673 -1642 -1971 -1224 0
-1673 -2395 -1224 -1642 0
-1964 -1642 -1224 -2395 0
-1959 -1642 -1224 -2183 0
-1959 -1642 -2395 -1224 0
-1959 -1642 -1224 -2392 0
-2179 -1642 -1224 -1971 0
-2174 -1642 -1224 -1971 0
-2179 -1642 -1224 -2395 0
-2174 -1642 -2395 -1224 0
-1671 -1971 -1864 -1224 0
-1671 -2395 -1224 -1864 0
-2392 -1864 -1224 -1671 0
-1673 -1864 -1224 -1971 0
-1673 -2395 -1864 -1224 0
-2183 -1864 -1224 -1964 0
-2395 -1864 -1224 -1964 0
-2392 -1864 -1224 -1964 0
-2179 -1864 -1224 -1971 0
-2183 -1418 -1222 -1369 0
-1671 -1418 -1222 -1442 0
-1673 -1418 -1222 -1442 0
-1964 -1418 -1222 -1442 0
-2183 -1418 -1222 -1442 0
-2179 -1418 -1222 -1442 0
-1660 -1444 -1222 -1418 0
-2183 -1418 -1222 -1444 0
-1660 -1446 -1222 -1418 0
-1660 -1418 -1222 -1671 0
-1673 -1418 -1222 -1660 0
-1964 -1418 -1222 -1660 0
-2179 -1418 -1222 -1660 0
-2174 -1418 -1222 -1660 0
-2183 -1418 -1222 -1959 0
-1642 -1442 -1222 -1671 0
-1642 -1442 -1222 -1673 0
-1642 -1442 -1222 -1964 0
-2183 -1642 -1222 -1442 0
-2179 -1642 -1222 -1442 0
-1642 -1444 -1222 -2183 0
-1959 -1642 -1222 -2183 0
-2183 -1222 -1864 -1964 0
-1660 -1444 -1220 -1418 0
-1660 -1418 -1220 -1671 0
-1172 -1971 -1369 -1373 0
-1943 -1172 -1369 -1373 0
-2183 -1172 -1373 -1369 0
-2159 -1172 -1373 -1369 0
-1172 -2395 -1369 -1373 0
-1172 -2392 -1373 -1369 0
-1943 -1172 -1370 -1373 0
-2159 -1172 -1373 -1370 0
-1172 -2395 -1373 -1370 0
-2183 -1172 -1373 -1444 0
-1444 -1172 -1373 -2159 0
-1444 -1172 -1373 -2392 0
-1172 -2392 -1373 -1671 0
-2159 -1172 -1373 -1673 0
-1172 -2392 -1373 -1964 0
-2183 -1172 -1373 -1959 0
-1959 -1172 -2392 -1373 0
-1172 -2392 -1373 -1953 0
-1172 -1971 -1372 -1369 0
-2183 -1172 -1372 -1369 0
-1172 -2392 -1372 -1369 0
-1671 -1172 -1372 -1442 0
-1673 -1172 -1372 -1442 0
-1172 -1675 -1372 -1442 0
-1964 -1172 -1372 -1442 0
-1943 -1172 -1369 -2397 0
-1172 -2419 -1369 -1943 0
-2435 -1172 -1369 -1943 0
-2159 -1172 -1369 -2397 0
-1172 -2419 -1369 -2159 0
-2435 -2159 -1172 -1369 0
-2187 -1442 -1172 -2179 0
-2209 -1442 -1172 -2179 0
-2397 -1444 -1172 -2159 0
-2183 -1973 -1172 -1953 0
-2183 -1995 -1172 -1953 0
-2168 -1172 -2395 -2209 0
-2435 -2159 -1172 -2388 0
-2383 -2159 -1172 -2397 0
-2383 -2159 -1172 -2419 0
-2383 -2159 -1172 -2435 0
-2159 -1172 -2377 -2397 0
-1444 -1174 -1373 -1971 0
-1444 -1174 -1373 -1943 0
-2183 -1174 -1373 -1444 0
-1444 -1174 -1373 -2159 0
-1444 -1174 -1373 -2395 0
-1444 -1174 -1373 -2392 0
-1446 -1174 -1971 -1373 0
-1943 -1446 -1174 -1373 0
-1446 -1174 -1373 -2159 0
-1446 -1174 -2395 -1373 0
-2159 -1174 -1373 -1448 0
-1671 -1174 -1373 -1971 0
-1671 -1174 -1373 -1943 0
-2159 -1671 -1174 -1373 0
-1671 -1174 -2395 -1373 0
-1174 -2392 -1373 -1671 0
-1673 -1174 -1373 -1971 0
-1673 -1174 -1373 -1943 0
-2159 -1174 -1373 -1673 0
-1673 -1174 -2395 -1373 0
-2159 -1174 -1675 -1373 0
-1964 -1174 -1373 -2159 0
-1964 -1174 -1373 -2395 0
-1174 -2392 -1373 -1964 0
-1959 -1174 -1373 -2183 0
-2159 -1174 -1373 -1959 0
-1959 -1174 -2395 -1373 0
-1174 -1971 -1373 -2174 0
-2183 -1174 -1373 -1943 0
-2179 -1174 -1373 -1943 0
-2174 -1174 -1373 -1943 0
-2183 -1174 -1373 -2395 0
-2174 -1174 -1373 -2395 0
-2159 -1174 -1373 -2392 0
-1671 -1174 -1372 -1442 0
-1673 -1174 -1372 -1442 0
-1174 -1675 -1372 -1442 0
-1964 -1174 -1372 -1442 0
-1174 -1442 -1372 -1971 0
-2183 -1174 -1372 -1442 0
-2179 -1174 -1372 -1442 0
-1174 -2392 -1372 -1442 0
-1444 -1174 -1372 -1971 0
-2183 -1174 -1372 -1444 0
-1444 -2395 -1372 -1174 0
-1444 -1174 -1372 -2392 0
-1446 -1174 -1372 -1971 0
-1671 -1174 -1372 -1971 0
-1673 -1174 -1372 -1971 0
-1673 -2395 -1372 -1174 0
-1174 -2392 -1372 -1964 0
-1959 -1174 -1372 -2183 0
-2397 -1444 -1174 -1943 0
-1444 -1174 -2419 -1943 0
-2435 -1444 -1174 -1943 0
-2397 -1444 -1174 -2159 0
-1444 -1174 -2419 -2159 0
-1943 -1446 -1174 -2397 0
-1943 -1174 -2419 -1446 0
-2435 -1943 -1174 -1446 0
-2397 -1446 -1174 -2159 0
-1446 -1174 -2419 -2159 0
-2362 -1446 -1174 -2395 0
-2397 -1448 -1174 -2159 0
-2159 -1448 -1174 -2419 0
-2435 -1671 -1174 -1943 0
-1671 -1174 -2395 -2362 0
-2435 -1673 -1174 -1943 0
-2397 -1673 -1174 -2159 0
-2159 -1673 -1174 -2419 0
-2397 -1964 -1174 -2159 0
-2159 -1964 -1174 -2419 0
-2397 -1959 -1174 -2159 0
-1959 -1174 -2419 -2159 0
-2435 -1959 -1174 -2159 0
-2397 -1959 -1174 -2392 0
-1959 -1174 -2392 -2419 0
-2435 -1959 -1174 -2392 0
-2187 -1174 -1971 -2174 0
-2209 -1174 -1971 -2174 0
-2224 -1174 -1971 -2174 0
-2435 -2179 -1174 -1943 0
-2174 -1943 -1174 -2397 0
-1943 -1174 -2419 -2174 0
-2435 -1943 -1174 -2174 0
-2435 -2159 -1174 -2388 0
-2397 -2159 -1174 -2383 0
-2383 -2159 -1174 -2419 0
-2435 -2159 -1174 -2383 0
-1671 -1176 -1971 -1373 0
-1671 -1176 -1373 -1943 0
-2159 -1176 -1373 -1671 0
-1671 -1176 -2395 -1373 0
-1176 -2392 -1373 -1671 0
-1673 -1176 -1373 -1971 0
-1673 -1176 -1373 -1943 0
-1673 -1176 -1373 -2159 0
-1673 -1176 -2395 -1373 0
-2159 -1675 -1373 -1176 0
-2159 -1176 -1373 -1964 0
-1964 -1176 -1373 -2395 0
-1176 -2392 -1373 -1964 0
-2183 -1176 -1373 -1943 0
-2179 -1176 -1373 -1943 0
-2183 -1176 -1373 -2395 0
-2179 -1176 -1373 -2395 0
-1176 -2392 -1373 -2159 0
-1176 -1671 -1372 -1971 0
-1176 -2392 -1372 -1671 0
-1673 -1176 -1372 -1971 0
-1176 -2392 -1372 -1964 0
-2397 -1671 -1176 -1943 0
-1943 -1176 -2419 -1671 0
-2435 -1671 -1176 -1943 0
-2159 -1671 -1176 -2397 0
-1671 -1176 -2419 -2159 0
-2159 -1671 -1176 -2435 0
-2397 -1673 -1176 -1943 0
-1673 -1176 -2419 -1943 0
-2435 -1673 -1176 -1943 0
-2397 -1673 -1176 -2159 0
-1673 -1176 -2419 -2159 0
-2435 -2159 -1176 -1673 0
-2397 -1176 -1675 -2159 0
-1176 -2419 -1675 -2159 0
-2159 -1176 -1675 -2435 0
-2397 -1964 -1176 -2159 0
-1964 -1176 -2419 -2159 0
-2435 -2159 -1176 -1964 0
-2187 -1176 -1971 -2179 0
-2209 -1176 -1971 -2179 0
-2224 -1176 -1971 -2179 0
-2397 -2179 -1176 -1943 0
-2435 -2179 -1176 -1943 0
-2397 -2159 -1176 -2388 0
-2159 -1176 -2419 -2388 0
-2435 -2159 -1176 -2388 0
-2183 -1943 -1178 -1373 0
-2183 -2395 -1178 -1373 0
-2159 -2392 -1178 -1373 0
-1429 -1971 -1369 -1373 0
-1429 -1943 -1369 -1373 0
-2183 -1429 -1373 -1369 0
-2159 -1429 -1373 -1369 0
-1429 -2395 -1369 -1373 0
-1429 -2392 -1373 -1369 0
-1429 -1943 -1373 -1370 0
-2159 -1429 -1373 -1370 0
-1429 -2395 -1373 -1370 0
-2183 -1429 -1373 -1444 0
-1444 -2392 -1373 -1429 0
-1429 -2392 -1373 -1671 0
-1964 -1429 -1373 -2183 0
-1959 -1429 -1373 -2183 0
-1429 -1953 -1373 -2392 0
-2183 -1429 -2395 -1373 0
-1653 -1444 -1373 -1971 0
-1653 -1444 -1373 -1943 0
-1653 -1444 -1373 -2183 0
-1653 -1444 -1373 -2159 0
-1653 -1444 -1373 -2395 0
-1653 -1444 -1373 -2392 0
-1653 -1446 -1373 -1971 0
-1653 -1446 -1373 -1943 0
-2159 -1653 -1446 -1373 0
-1653 -1446 -2395 -1373 0
-2159 -1653 -1373 -1448 0
-1653 -1971 -1373 -1671 0
-1943 -1671 -1373 -1653 0
-2159 -1653 -1373 -1671 0
-1671 -2395 -1373 -1653 0
-1653 -2392 -1373 -1671 0
-1673 -1971 -1373 -1653 0
-1943 -1673 -1373 -1653 0
-2159 -1673 -1373 -1653 0
-1673 -2395 -1373 -1653 0
-2159 -1675 -1373 -1653 0
-2183 -1653 -1373 -1964 0
-1964 -1653 -1373 -2159 0
-1964 -1653 -1373 -2395 0
-1959 -1653 -1373 -2183 0
-2159 -1653 -1373 -1959 0
-1959 -1653 -1373 -2395 0
-1653 -2392 -1373 -1959 0
-2183 -1653 -1373 -1943 0
-2179 -1943 -1653 -1373 0
-2174 -1653 -1373 -1943 0
-2183 -1653 -2395 -1373 0
-2174 -1653 -2395 -1373 0
-1671 -1971 -1871 -1373 0
-1671 -1871 -1373 -1943 0
-2159 -1871 -1373 -1671 0
-2395 -1871 -1373 -1671 0
-2392 -1871 -1373 -1671 0
-1673 -1871 -1373 -1971 0
-1673 -1871 -1373 -1943 0
-1673 -1871 -1373 -2159 0
-1673 -1871 -1373 -2395 0
-2159 -1675 -1373 -1871 0
-1964 -1871 -1373 -2159 0
-1964 -1871 -1373 -2395 0
-2392 -1871 -1373 -1964 0
-2183 -1943 -1871 -1373 0
-2179 -1943 -1871 -1373 0
-2183 -1871 -1373 -2395 0
-2179 -1871 -1373 -2395 0
-2159 -1871 -1373 -2392 0
-2183 -1943 -1373 -1946 0
-2183 -2395 -1373 -1946 0
-1429 -1971 -1372 -1369 0
-2183 -1429 -1372 -1369 0
-1429 -2392 -1372 -1369 0
-1671 -1429 -1372 -1442 0
-1673 -1429 -1372 -1442 0
-1429 -1675 -1372 -1442 0
-1964 -1429 -1372 -1442 0
-2179 -1429 -1372 -1442 0
-1660 -1444 -1372 -1429 0
-2183 -1429 -1372 -1444 0
-1660 -1446 -1372 -1429 0
-1660 -1448 -1372 -1429 0
-1673 -1429 -1372 -1660 0
-1429 -1675 -1372 -1660 0
-1964 -1660 -1372 -1429 0
-1959 -1429 -1372 -1660 0
-1671 -1442 -1372 -1653 0
-1673 -1442 -1372 -1653 0
-1442 -1675 -1372 -1653 0
-1964 -1653 -1372 -1442 0
-1653 -1442 -1372 -1971 0
-2183 -1653 -1372 -1442 0
-2179 -1653 -1372 -1442 0
-1653 -2392 -1372 -1442 0
-1653 -1444 -1372 -1971 0
-2183 -1653 -1372 -1444 0
-1653 -1444 -1372 -2392 0
-1653 -1446 -1372 -1971 0
-1653 -1671 -1372 -1971 0
-1653 -2392 -1372 -1671 0
-1653 -1673 -1372 -1971 0
-2183 -1653 -1372 -1964 0
-2183 -1653 -1372 -1959 0
-1653 -2395 -1372 -1959 0
-1653 -2392 -1372 -1959 0
-1671 -1871 -1372 -1971 0
-1671 -2395 -1372 -1871 0
-1671 -2392 -1372 -1871 0
-1673 -1871 -1372 -1971 0
-1673 -2395 -1372 -1871 0
-1964 -2392 -1372 -1871 0
-1943 -1429 -1369 -2397 0
-1943 -2419 -1369 -1429 0
-2435 -1943 -1369 -1429 0
-2159 -1429 -1369 -2397 0
-2159 -2419 -1369 -1429 0
-2435 -2159 -1369 -1429 0
-2187 -1418 -1971 -1369 0
-2397 -1418 -1971 -1369 0
-1418 -2419 -1971 -1369 0
-2397 -1943 -1418 -1369 0
-1943 -1418 -2419 -1369 0
-2183 -1973 -1418 -1369 0
-2183 -1995 -1418 -1369 0
-2183 -1418 -1369 -2187 0
-2209 -1418 -1369 -2183 0
-2397 -2183 -1418 -1369 0
-2183 -1418 -1369 -2419 0
-2159 -1418 -1369 -2397 0
-2159 -1418 -1369 -2419 0
-2187 -1418 -2395 -1369 0
-2187 -1418 -2392 -1369 0
-2209 -1418 -2392 -1369 0
-2397 -1418 -1369 -2395 0
-1418 -2419 -1369 -2395 0
-2397 -1418 -1369 -2392 0
-1418 -2419 -1369 -2392 0
-2187 -1971 -1422 -1369 0
-2397 -1971 -1422 -1369 0
-1943 -1422 -1369 -2397 0
-2183 -1973 -1422 -1369 0
-2187 -1422 -1369 -2183 0
-2183 -1422 -1369 -2397 0
-2159 -1422 -1369 -2397 0
-2187 -2395 -1422 -1369 0
-2187 -2392 -1422 -1369 0
-2397 -1422 -1369 -2395 0
-2397 -1422 -1369 -2392 0
-1943 -1429 -1370 -2397 0
-2397 -2159 -1429 -1370 0
-2159 -1429 -1370 -2419 0
-2435 -2159 -1429 -1370 0
-2397 -1943 -1418 -1370 0
-1943 -1418 -2419 -1370 0
-2397 -1418 -1370 -2159 0
-2159 -1418 -1370 -2419 0
-2187 -1418 -2395 -1370 0
-2209 -1418 -1370 -2395 0
-2397 -1418 -1370 -2395 0
-1418 -2419 -1370 -2395 0
-2397 -1370 -1422 -1943 0
-2397 -1370 -1422 -2159 0
-2187 -2395 -1422 -1370 0
-2397 -1370 -1422 -2395 0
-2009 -1671 -1429 -1442 0
-2224 -1671 -1429 -1442 0
-2009 -1660 -1444 -1429 0
-2224 -1660 -1444 -1429 0
-2009 -1660 -1429 -1964 0
-2224 -1964 -1660 -1429 0
-2179 -1660 -1429 -2187 0
-2179 -1660 -1429 -2209 0
-2224 -1660 -1429 -2179 0
-2174 -1660 -1429 -2187 0
-2209 -1660 -1429 -2174 0
-2224 -1660 -1429 -2174 0
-2435 -2159 -1429 -1959 0
-1959 -1429 -2392 -2397 0
-1959 -1429 -2392 -2419 0
-1959 -1429 -2392 -2435 0
-2183 -1973 -1429 -1953 0
-2183 -1995 -1429 -1953 0
-2168 -1943 -1429 -2435 0
-2383 -2159 -1429 -2419 0
-2435 -2159 -1429 -2383 0
-2159 -1429 -2377 -2397 0
-1671 -1418 -1879 -1442 0
-1671 -1418 -1973 -1442 0
-1995 -1671 -1418 -1442 0
-2187 -1671 -1418 -1442 0
-2209 -1671 -1418 -1442 0
-1673 -1418 -1973 -1442 0
-1995 -1673 -1418 -1442 0
-2187 -1673 -1418 -1442 0
-2209 -1673 -1418 -1442 0
-2187 -1418 -1675 -1442 0
-2209 -1418 -1675 -1442 0
-1964 -1418 -1879 -1442 0
-1973 -1964 -1418 -1442 0
-1995 -1964 -1418 -1442 0
-2187 -1964 -1418 -1442 0
-2209 -1964 -1418 -1442 0
-2183 -1973 -1418 -1442 0
-2179 -1418 -1973 -1442 0
-2179 -1995 -1418 -1442 0
-2183 -2187 -1418 -1442 0
-2209 -2183 -1418 -1442 0
-2179 -2187 -1418 -1442 0
-2209 -2179 -1418 -1442 0
-2187 -1418 -2395 -1442 0
-2187 -1418 -2392 -1442 0
-2388 -2187 -1418 -1442 0
-2209 -1418 -2392 -1442 0
-2209 -2388 -1418 -1442 0
-1660 -1444 -1879 -1418 0
-1660 -1444 -1973 -1418 0
-1995 -1660 -1444 -1418 0
-2187 -1660 -1444 -1418 0
-2209 -1660 -1444 -1418 0
-2209 -1444 -1971 -1418 0
-1943 -2397 -1444 -1418 0
-2183 -1973 -1418 -1444 0
-1995 -2183 -1444 -1418 0
-2187 -2183 -1444 -1418 0
-2209 -2183 -1444 -1418 0
-2397 -2183 -1444 -1418 0
-2183 -1444 -2419 -1418 0
-2159 -2397 -1444 -1418 0
-2187 -1444 -2395 -1418 0
-2187 -1444 -2392 -1418 0
-2209 -1444 -2395 -1418 0
-2209 -1444 -2392 -1418 0
-2397 -1444 -2395 -1418 0
-2397 -1444 -2392 -1418 0
-1444 -2392 -2419 -1418 0
-1660 -1446 -1973 -1418 0
-1995 -1660 -1446 -1418 0
-2187 -1660 -1446 -1418 0
-2209 -1660 -1446 -1418 0
-2209 -1418 -1971 -1446 0
-2397 -1943 -1418 -1446 0
-2159 -2397 -1446 -1418 0
-2187 -1446 -2395 -1418 0
-2209 -1446 -2395 -1418 0
-2397 -1446 -2395 -1418 0
-2187 -1660 -1448 -1418 0
-2209 -1660 -1448 -1418 0
-1660 -1418 -1879 -1671 0
-1660 -1418 -1973 -1671 0
-1995 -1660 -1418 -1671 0
-2187 -1660 -1418 -1671 0
-2209 -1660 -1418 -1671 0
-1660 -1418 -1973 -1673 0
-1995 -1673 -1418 -1660 0
-2187 -1660 -1418 -1673 0
-2209 -1673 -1418 -1660 0
-2187 -1418 -1675 -1660 0
-2209 -1418 -1675 -1660 0
-1964 -1418 -1879 -1660 0
-1959 -1660 -1879 -1418 0
-1964 -1660 -1418 -1973 0
-1995 -1660 -1418 -1964 0
-2187 -1964 -1418 -1660 0
-2209 -1964 -1418 -1660 0
-1959 -1660 -1418 -1973 0
-1959 -1660 -1418 -1995 0
-2179 -1418 -1973 -1660 0
-2174 -1660 -1973 -1418 0
-2179 -1995 -1418 -1660 0
-2174 -1995 -1418 -1660 0
-2179 -1660 -1418 -2187 0
-2179 -1660 -1418 -2209 0
-2174 -1660 -1418 -2187 0
-2209 -1660 -1418 -2174 0
-2187 -1418 -2392 -1660 0
-2388 -2187 -1660 -1418 0
-2383 -2187 -1660 -1418 0
-2209 -1418 -2392 -1660 0
-2388 -2209 -1418 -1660 0
-2383 -2209 -1418 -1660 0
-2209 -1418 -1971 -1671 0
-1671 -1418 -2395 -2209 0
-2209 -1418 -2392 -1671 0
-1671 -1418 -2392 -2419 0
-2209 -1673 -1418 -2395 0
-2209 -1964 -1418 -2395 0
-2183 -1973 -1418 -1959 0
-2183 -1995 -1418 -1959 0
-2187 -1959 -1418 -2183 0
-2209 -1959 -1418 -2183 0
-2397 -1959 -1418 -2183 0
-1959 -1418 -2419 -2183 0
-2397 -1959 -1418 -2159 0
-2187 -1418 -2395 -1959 0
-2187 -1959 -2392 -1418 0
-2209 -1959 -1418 -2395 0
-2209 -1959 -2392 -1418 0
-2397 -1959 -1418 -2395 0
-1959 -1418 -2392 -2397 0
-1959 -1418 -2392 -2419 0
-2209 -1418 -1971 -1953 0
-2183 -1973 -1418 -1953 0
-2183 -1995 -1418 -1953 0
-2187 -1418 -2392 -1953 0
-2209 -1418 -1953 -2395 0
-2209 -1418 -2392 -1953 0
-2397 -1418 -1953 -2392 0
-1418 -2419 -1953 -2392 0
-2209 -1418 -1971 -2174 0
-2168 -1418 -1971 -2209 0
-2174 -1943 -1418 -2397 0
-2168 -1943 -1418 -2397 0
-2187 -1418 -2395 -2174 0
-2209 -1418 -2395 -2174 0
-2174 -1418 -2395 -2397 0
-2209 -1418 -2395 -2168 0
-2397 -2159 -1418 -2383 0
-2383 -2159 -1418 -2419 0
-2159 -1418 -2377 -2397 0
-1671 -1879 -1422 -1442 0
-1673 -1973 -1422 -1442 0
-2187 -1673 -1422 -1442 0
-2187 -1675 -1422 -1442 0
-1964 -1879 -1422 -1442 0
-2183 -1973 -1422 -1442 0
-2179 -1973 -1422 -1442 0
-2183 -2187 -1422 -1442 0
-2179 -2187 -1422 -1442 0
-2187 -2395 -1422 -1442 0
-2187 -2392 -1422 -1442 0
-2187 -2388 -1422 -1442 0
-1660 -1879 -1422 -1444 0
-2183 -1973 -1422 -1444 0
-2183 -2187 -1444 -1422 0
-2183 -2397 -1444 -1422 0
-2397 -2159 -1444 -1422 0
-2187 -1444 -2395 -1422 0
-2187 -1444 -2392 -1422 0
-2397 -1444 -2395 -1422 0
-2397 -1444 -2392 -1422 0
-1660 -1973 -1422 -1446 0
-2187 -1660 -1422 -1446 0
-2397 -1943 -1422 -1446 0
-2397 -2159 -1422 -1446 0
-2397 -2395 -1422 -1446 0
-2187 -1660 -1422 -1448 0
-2397 -2159 -1448 -1422 0
-1660 -1973 -1422 -1673 0
-2187 -1673 -1422 -1660 0
-2187 -1675 -1422 -1660 0
-1660 -1879 -1422 -1964 0
-1660 -1879 -1422 -1959 0
-2183 -1973 -1422 -1660 0
-1660 -1973 -1422 -2179 0
-2174 -1973 -1422 -1660 0
-2183 -1660 -1422 -2187 0
-2187 -1660 -1422 -2179 0
-2187 -1660 -1422 -2174 0
-2187 -2392 -1422 -1660 0
-2388 -1660 -1422 -2187 0
-2187 -1660 -1422 -2383 0
-2183 -1973 -1422 -1959 0
-2187 -1959 -1422 -2183 0
-2397 -1959 -1422 -2183 0
-2187 -1959 -1422 -2395 0
-2187 -1959 -1422 -2392 0
-2397 -1959 -1422 -2395 0
-1959 -2392 -1422 -2397 0
-2183 -1973 -1422 -1953 0
-2183 -1953 -1422 -2187 0
-2183 -1953 -1422 -2397 0
-2187 -1953 -1422 -2392 0
-2397 -1953 -1422 -2392 0
-2168 -1943 -1422 -2397 0
-2187 -2395 -1422 -2174 0
-2397 -2174 -1422 -2395 0
-2397 -2168 -1422 -2159 0
-2397 -2159 -1422 -2383 0
-2009 -1653 -1442 -1671 0
-2224 -1653 -1442 -1671 0
-2009 -1653 -1442 -1964 0
-2224 -1964 -1653 -1442 0
-1879 -1642 -1442 -1671 0
-1642 -1442 -1973 -1671 0
-1995 -1642 -1442 -1671 0
-2187 -1642 -1442 -1671 0
-2209 -1642 -1442 -1671 0
-1673 -1442 -1973 -1642 0
-1995 -1673 -1442 -1642 0
-2187 -1673 -1442 -1642 0
-2209 -1673 -1442 -1642 0
-2187 -1442 -1675 -1642 0
-2209 -1642 -1442 -1675 0
-1964 -1642 -1879 -1442 0
-1642 -1442 -1973 -1964 0
-1995 -1642 -1442 -1964 0
-2187 -1964 -1642 -1442 0
-2209 -1964 -1642 -1442 0
-2187 -1642 -1971 -1442 0
-2209 -1642 -1971 -1442 0
-2183 -1973 -1642 -1442 0
-2179 -1642 -1973 -1442 0
-2183 -1995 -1642 -1442 0
-2179 -1995 -1642 -1442 0
-2183 -1642 -1442 -2187 0
-2209 -1642 -1442 -2183 0
-2179 -1642 -1442 -2187 0
-2209 -1642 -1442 -2179 0
-2187 -1642 -2395 -1442 0
-2187 -1642 -1442 -2392 0
-2187 -1642 -1442 -2388 0
-2209 -1642 -2395 -1442 0
-2209 -1642 -1442 -2392 0
-2209 -1642 -1442 -2388 0
-1442 -1879 -1647 -1671 0
-1442 -1973 -1647 -1673 0
-2187 -1442 -1647 -1673 0
-2187 -1442 -1675 -1647 0
-1442 -1879 -1647 -1964 0
-2187 -1971 -1647 -1442 0
-2183 -1973 -1647 -1442 0
-2179 -1973 -1647 -1442 0
-2183 -1442 -1647 -2187 0
-2179 -1442 -1647 -2187 0
-2187 -2395 -1647 -1442 0
-2187 -1442 -1647 -2392 0
-2187 -1442 -1647 -2388 0
-2397 -1653 -1444 -1943 0
-1653 -1444 -2419 -1943 0
-2435 -1653 -1444 -1943 0
-2397 -1653 -1444 -2159 0
-2159 -1653 -1444 -2419 0
-2362 -1653 -2395 -1444 0
-2187 -1642 -1444 -1971 0
-2209 -1642 -1444 -1971 0
-2397 -1642 -1444 -1971 0
-1642 -1444 -2419 -1971 0
-2397 -1642 -1444 -1943 0
-1943 -1444 -2419 -1642 0
-1642 -1444 -1973 -2183 0
-1995 -1642 -1444 -2183 0
-2187 -1642 -1444 -2183 0
-2209 -1642 -1444 -2183 0
-2397 -1642 -1444 -2183 0
-1642 -1444 -2419 -2183 0
-2397 -1642 -1444 -2159 0
-1642 -1444 -2419 -2159 0
-1642 -1444 -2395 -2187 0
-2187 -1642 -1444 -2392 0
-1642 -1444 -2395 -2209 0
-2209 -1642 -1444 -2392 0
-2397 -1642 -1444 -2395 0
-1642 -1444 -2419 -2395 0
-2397 -1642 -1444 -2392 0
-1642 -1444 -2419 -2392 0
-2187 -1444 -1647 -1971 0
-2397 -1444 -1647 -1971 0
-1943 -1444 -1647 -2397 0
-2183 -1973 -1647 -1444 0
-2183 -1444 -1647 -2187 0
-2397 -2183 -1647 -1444 0
-2397 -1444 -1647 -2159 0
-2187 -1444 -1647 -2395 0
-2187 -1444 -1647 -2392 0
-2397 -1444 -1647 -2395 0
-2397 -1444 -1647 -2392 0
-2397 -1943 -1653 -1446 0
-1943 -1653 -2419 -1446 0
-2435 -1943 -1653 -1446 0
-2159 -1653 -1446 -2397 0
-2159 -1653 -1446 -2419 0
-2362 -1653 -2395 -1446 0
-2187 -1642 -1446 -1971 0
-2209 -1642 -1446 -1971 0
-2397 -1446 -1971 -1642 0
-1642 -1446 -2419 -1971 0
-1943 -1642 -1446 -2397 0
-1943 -1642 -2419 -1446 0
-2397 -1642 -1446 -2159 0
-1642 -1446 -2419 -2159 0
-2187 -1642 -1446 -2395 0
-1642 -1446 -2395 -2209 0
-2397 -1642 -1446 -2395 0
-1642 -1446 -2419 -2395 0
-2187 -1446 -1647 -1971 0
-2397 -1446 -1971 -1647 0
-1943 -1446 -1647 -2397 0
-2397 -1446 -1647 -2159 0
-2187 -1446 -1647 -2395 0
-2397 -1446 -1647 -2395 0
-2397 -1653 -1448 -2159 0
-2159 -1653 -1448 -2419 0
-2159 -1642 -1448 -2397 0
-2159 -1642 -1448 -2419 0
-2397 -1448 -1647 -2159 0
-2397 -1943 -1671 -1653 0
-1943 -1671 -2419 -1653 0
-2435 -1943 -1671 -1653 0
-2159 -2397 -1671 -1653 0
-2159 -1671 -2419 -1653 0
-2435 -2159 -1671 -1653 0
-2362 -1653 -2395 -1671 0
-2397 -1943 -1673 -1653 0
-1943 -1673 -2419 -1653 0
-2435 -1943 -1673 -1653 0
-2397 -2159 -1673 -1653 0
-2159 -1673 -2419 -1653 0
-2435 -2159 -1653 -1673 0
-2362 -1653 -2395 -1673 0
-2397 -2159 -1675 -1653 0
-2159 -2419 -1675 -1653 0
-2397 -1964 -1653 -2159 0
-2159 -1964 -1653 -2419 0
-2362 -1653 -2395 -1964 0
-2397 -1959 -1653 -2159 0
-1959 -1653 -2419 -2159 0
-2187 -1653 -1971 -2179 0
-2209 -1653 -1971 -2179 0
-2224 -1653 -1971 -2179 0
-2174 -1653 -1971 -2187 0
-2209 -1653 -1971 -2174 0
-2224 -1653 -1971 -2174 0
-2179 -1943 -1653 -2435 0
-2397 -1943 -1653 -2174 0
-1943 -1653 -2419 -2174 0
-2435 -2174 -1653 -1943 0
-2362 -1653 -2395 -2174 0
-2435 -2159 -1653 -2392 0
-2388 -2159 -1653 -2397 0
-2388 -2159 -1653 -2419 0
-2435 -2159 -1653 -2388 0
-2383 -2159 -1653 -2397 0
-2383 -2159 -1653 -2419 0
-2435 -2159 -1653 -2383 0
-2209 -1642 -1971 -1671 0
-2159 -1671 -2419 -1642 0
-2209 -1671 -2395 -1642 0
-2209 -1642 -2392 -1671 0
-1671 -2395 -2419 -1642 0
-1671 -2392 -2419 -1642 0
-2159 -1673 -2419 -1642 0
-2209 -1673 -2395 -1642 0
-1943 -1642 -2419 -1964 0
-2209 -1964 -1642 -2395 0
-1964 -1642 -2419 -2395 0
-1959 -1642 -2419 -1943 0
-2183 -1959 -1642 -1973 0
-2183 -1995 -1642 -1959 0
-2187 -1959 -1642 -2183 0
-2209 -1959 -1642 -2183 0
-2397 -1959 -1642 -2183 0
-1959 -1642 -2419 -2183 0
-2397 -1959 -1642 -2159 0
-1959 -1642 -2419 -2159 0
-2187 -1642 -2395 -1959 0
-2187 -1959 -1642 -2392 0
-1959 -1642 -2395 -2209 0
-2209 -1642 -2392 -1959 0
-2397 -1959 -1642 -2395 0
-1959 -1642 -2419 -2395 0
-1959 -1642 -2392 -2397 0
-1959 -1642 -2392 -2419 0
-2209 -1642 -1971 -2179 0
-2187 -1642 -1971 -2174 0
-2209 -1642 -1971 -2174 0
-2397 -1642 -1971 -2174 0
-1642 -2419 -1971 -2174 0
-2183 -1943 -1642 -2419 0
-2174 -1943 -1642 -2397 0
-1943 -1642 -2419 -2174 0
-2209 -1642 -2395 -2183 0
-2183 -1642 -2395 -2419 0
-2179 -1642 -2419 -2395 0
-2187 -1642 -2395 -2174 0
-2174 -1642 -2395 -2209 0
-2397 -2174 -1642 -2395 0
-2174 -1642 -2419 -2395 0
-2388 -2159 -1642 -2419 0
-2397 -2159 -1642 -2383 0
-2383 -2159 -1642 -2419 0
-2183 -1973 -1647 -1959 0
-2187 -1959 -1647 -2183 0
-2397 -1959 -1647 -2183 0
-2397 -1959 -1647 -2159 0
-2187 -2395 -1647 -1959 0
-2187 -2392 -1647 -1959 0
-2397 -1959 -1647 -2395 0
-2397 -1959 -1647 -2392 0
-2187 -1971 -1647 -2174 0
-2397 -1971 -1647 -2174 0
-2174 -1943 -1647 -2397 0
-2187 -2395 -1647 -2174 0
-2397 -2174 -1647 -2395 0
-2397 -2159 -1647 -2383 0
-2397 -1671 -1871 -1943 0
-1943 -2419 -1871 -1671 0
-2435 -1943 -1871 -1671 0
-2397 -1671 -1871 -2159 0
-1671 -2419 -1871 -2159 0
-2435 -1671 -1871 -2159 0
-2187 -1671 -1971 -1864 0
-2209 -1671 -1864 -1971 0
-2397 -1671 -1864 -1971 0
-1671 -2419 -1971 -1864 0
-2397 -1671 -1864 -1943 0
-1671 -1943 -2419 -1864 0
-2397 -1671 -1864 -2159 0
-1671 -2159 -2419 -1864 0
-2187 -2395 -1864 -1671 0
-2187 -2392 -1864 -1671 0
-1671 -2395 -1864 -2209 0
-2209 -2392 -1864 -1671 0
-1671 -2395 -2419 -1864 0
-1671 -2392 -1864 -2419 0
-2397 -1673 -1871 -1943 0
-1673 -2419 -1871 -1943 0
-2435 -1673 -1871 -1943 0
-2397 -1673 -1871 -2159 0
-2159 -1673 -2419 -1871 0
-2435 -1673 -1871 -2159 0
-2187 -1673 -1864 -1971 0
-2209 -1673 -1864 -1971 0
-2397 -1673 -1864 -1971 0
-1673 -2419 -1971 -1864 0
-2397 -1673 -1864 -1943 0
-1673 -1943 -2419 -1864 0
-2397 -1673 -1864 -2159 0
-1673 -2159 -2419 -1864 0
-2187 -1673 -2395 -1864 0
-2209 -1673 -1864 -2395 0
-1673 -2395 -2419 -1864 0
-2397 -1871 -1675 -2159 0
-2419 -1871 -1675 -2159 0
-2435 -1871 -1675 -2159 0
-2397 -1864 -1675 -2159 0
-2419 -1864 -1675 -2159 0
-2183 -1973 -1871 -1964 0
-2183 -1995 -1871 -1964 0
-2183 -2009 -1871 -1964 0
-2397 -1964 -1871 -2159 0
-1964 -2419 -1871 -2159 0
-2435 -1964 -1871 -2159 0
-2209 -1964 -1871 -2395 0
-2362 -1964 -1871 -2395 0
-2187 -1971 -1871 -2179 0
-2209 -1971 -1871 -2179 0
-2224 -1971 -1871 -2179 0
-2397 -2179 -1943 -1871 0
-2179 -1943 -2419 -1871 0
-2435 -2179 -1943 -1871 0
-2187 -2395 -1871 -2179 0
-2209 -2395 -1871 -2179 0
-2224 -2395 -1871 -2179 0
-2397 -2159 -1871 -2388 0
-2159 -2419 -1871 -2388 0
-2435 -2159 -1871 -2388 0
-1943 -1964 -2419 -1864 0
-2183 -1973 -1864 -1964 0
-2183 -1995 -1864 -1964 0
-2183 -1964 -1864 -2187 0
-2209 -1964 -1864 -2183 0
-2397 -2183 -1864 -1964 0
-1964 -2183 -2419 -1864 0
-2397 -1964 -1864 -2159 0
-2159 -1964 -2419 -1864 0
-2187 -2395 -1864 -1964 0
-2209 -1964 -1864 -2395 0
-1964 -2395 -2419 -1864 0
-2179 -1971 -1864 -2187 0
-2179 -1971 -1864 -2209 0
-2397 -2179 -1971 -1864 0
-2179 -2419 -1971 -1864 0
-1943 -2183 -2419 -1864 0
-2397 -1943 -1864 -2179 0
-2179 -1943 -2419 -1864 0
-2209 -2395 -1864 -2183 0
-2183 -2395 -2419 -1864 0
-2187 -2395 -1864 -2179 0
-2209 -2395 -1864 -2179 0
-2397 -2159 -1864 -2388 0
-2159 -2388 -2419 -1864 0
-2397 -2183 -1943 -1946 0
-2183 -1943 -2419 -1946 0
-2397 -2183 -1935 -1943 0
-2183 -1943 -2419 -1935 0
-2209 -1935 -2395 -2183 0
-2183 -1935 -2395 -2419 0
-2183 -2397 -1942 -1943 0
-92 -96 -81 -66 -98 -67 -82 -89 -61 0
-106 -67 -61 -90 -108 -81 -102 -66 -82 0
-106 -66 -91 -92 -108 -67 -100 -102 -61 0
-92 -66 -100 -68 -109 -91 -106 -102 -61 0
-20 -33 -40 -35 -19 -11 -9 -2 -5 0
-44 -30 -45 -29 -50 -21 -9 -3 -5 0
